x [mm];y [mm];z [mm];X-displacement [mm];Y-displacement [mm];Z-displacement [mm];Displacement [mm];Exx [S];Eyy [S];Exy [S];Poisson's ratio -strain min/max;Poisson's ratio -Exx/Eyy;Poisson's ratio -Eyy/Exx;Poisson's ratio -strain max/min;Maximum principal strain [S];Minimum principal strain [S];Maximum shear strain [S];Maximum shear angle [°];Maximum strain angle [°];Tresca strain [S];Von Mises strain [S];du/dx [S];du/dy [S];dv/dx [S];dv/dy [S];Vorticity-z [S];Height [mm];du/dx+dv/dy [S];Div-xy [S];Stereo reconstruction error [pixel]
1.375163;3.69314;0.664501;8.39567e-13;0;0;8.39567e-13;0;-1.110223e-16;1.462388e-17;0;0;0;0;1.893951e-18;-1.129163e-16;5.74051e-17;45;0;7.654013e-17;7.59167e-17;0;5.826355e-17;-2.901579e-17;-1.110223e-16;-8.727933e-17;0.664501;-1.110223e-16;1.110223e-16;0
-0.303971;3.625975;0.536004;8.39567e-13;0;0;8.39567e-13;-3.330669e-16;2.220446e-16;7.506112e-17;0;0;0;0;2.320151e-16;-3.430374e-16;2.875263e-16;45;0;3.833684e-16;3.340629e-16;-3.330669e-16;1.501222e-16;0;2.220446e-16;-1.501222e-16;0.536004;-1.110223e-16;1.110223e-16;0
-0.236806;3.625975;0.623868;8.39567e-13;0;0;8.39567e-13;-1.110223e-16;4.440892e-16;-5.417001e-17;0;0;0;0;4.493259e-16;-1.16259e-16;2.827925e-16;45;0;3.770566e-16;3.448982e-16;-1.110223e-16;-6.208006e-17;-4.625997e-17;4.440892e-16;1.582009e-17;0.623868;3.330669e-16;-3.330669e-16;0
-0.169641;3.625975;0.685006;8.39567e-13;0;0;8.39567e-13;0;0;-6.053866e-17;0;0;0;0;6.053866e-17;-6.053866e-17;6.053866e-17;45;0;8.071821e-17;6.990402e-17;0;-1.042156e-16;-1.686176e-17;0;8.73538e-17;0.685006;0;0;0
-0.102475;3.625975;0.755452;8.39567e-13;0;0;8.39567e-13;-1.110223e-16;2.220446e-16;2.952964e-17;0;0;0;0;2.246424e-16;-1.136201e-16;1.691313e-16;45;0;2.255084e-16;1.987714e-16;-1.110223e-16;5.905928e-17;0;2.220446e-16;-5.905928e-17;0.755452;1.110223e-16;-1.110223e-16;0
-0.03531;3.625975;0.794271;8.39567e-13;0;0;8.39567e-13;-1.110223e-16;-2.220446e-16;6.596351e-18;0;0;0;0;-1.106318e-16;-2.224351e-16;5.59017e-17;45;0;7.45356e-17;1.284236e-16;-1.110223e-16;2.933136e-18;1.025957e-17;-2.220446e-16;7.32643e-18;0.794271;-3.330669e-16;3.330669e-16;0
0.031855;3.625975;0.821382;8.39567e-13;0;0;8.39567e-13;0;-1.110223e-16;-4.270209e-17;0;0;0;0;1.452424e-17;-1.255465e-16;7.00354e-17;45;0;9.338053e-17;8.893532e-17;0;-6.641832e-17;-1.898586e-17;-1.110223e-16;4.743245e-17;0.821382;-1.110223e-16;1.110223e-16;0
0.099021;3.625975;0.866677;8.39567e-13;0;0;8.39567e-13;0;-2.220446e-16;2.148061e-17;0;0;0;0;2.058944e-18;-2.241036e-16;1.130812e-16;45;0;1.50775e-16;1.500934e-16;0;3.539923e-17;7.56199e-18;-2.220446e-16;-2.783724e-17;0.866677;-2.220446e-16;2.220446e-16;0
0.166186;3.625975;0.897819;8.39567e-13;0;0;8.39567e-13;-2.220446e-16;2.220446e-16;-7.80311e-18;0;0;0;0;2.221817e-16;-2.221817e-16;2.221817e-16;45;0;2.962422e-16;2.565533e-16;-2.220446e-16;-1.274314e-17;-2.863074e-18;2.220446e-16;9.880071e-18;0.897819;0;0;0
0.233352;3.625975;0.882743;8.39567e-13;0;0;8.39567e-13;-2.220446e-16;4.440892e-16;9.431507e-17;0;0;0;0;4.571854e-16;-2.351408e-16;3.461631e-16;45;0;4.615508e-16;4.065096e-16;-2.220446e-16;-2.309162e-17;2.117218e-16;4.440892e-16;2.348134e-16;0.882743;2.220446e-16;-2.220446e-16;0
0.367682;3.625975;0.837387;8.39567e-13;0;0;8.39567e-13;4.440892e-16;4.440892e-16;3.299919e-16;0;0;0;0;7.740811e-16;1.140973e-16;3.299919e-16;45;0;4.399892e-16;4.825392e-16;4.440892e-16;2.306439e-16;4.293399e-16;4.440892e-16;1.98696e-16;0.837387;8.881784e-16;-8.881784e-16;0
0.434848;3.625975;0.877463;8.39567e-13;0;0;8.39567e-13;0;-1.110223e-16;-1.338999e-17;0;0;0;0;1.592087e-18;-1.126144e-16;5.710324e-17;45;0;7.613765e-17;7.561254e-17;0;-2.677999e-17;0;-1.110223e-16;2.677999e-17;0.877463;-1.110223e-16;1.110223e-16;0
0.502013;3.625975;0.944868;8.39567e-13;0;0;8.39567e-13;-1.110223e-16;0;-7.087456e-17;0;0;0;0;3.451491e-17;-1.455372e-16;9.002606e-17;45;0;1.200347e-16;1.10344e-16;-1.110223e-16;-1.033398e-16;-3.840932e-17;0;6.493046e-17;0.944868;-1.110223e-16;1.110223e-16;0
0.569178;3.625975;0.998377;8.39567e-13;0;0;8.39567e-13;-2.220446e-16;0;-6.388542e-17;0;0;0;0;1.706868e-17;-2.391133e-16;1.28091e-16;45;0;1.70788e-16;1.653923e-16;-2.220446e-16;-9.351031e-17;-3.426053e-17;0;5.924978e-17;0.998377;-2.220446e-16;2.220446e-16;0
0.636344;3.625975;0.994897;8.39567e-13;0;0;8.39567e-13;0;2.220446e-16;1.463537e-17;0;0;0;0;2.230051e-16;-9.604901e-19;1.119828e-16;45;0;1.493104e-16;1.489913e-16;0;4.229758e-17;-1.302683e-17;2.220446e-16;-5.532441e-17;0.994897;2.220446e-16;-2.220446e-16;0
0.703509;3.625975;0.978945;8.39567e-13;0;0;8.39567e-13;0;0;4.750396e-17;0;0;0;0;4.750396e-17;-4.750396e-17;4.750396e-17;45;0;6.333861e-17;5.485284e-17;0;9.925594e-17;-4.248023e-18;0;-1.03504e-16;0.978945;0;0;0
0.770674;3.625975;0.957917;8.39567e-13;0;0;8.39567e-13;2.220446e-16;-1.110223e-16;-6.336741e-19;0;0;0;0;2.220458e-16;-1.110235e-16;1.665347e-16;45;0;2.220462e-16;1.958263e-16;2.220446e-16;8.191944e-18;-9.459293e-18;-1.110223e-16;-1.765124e-17;0.957917;1.110223e-16;-1.110223e-16;0
0.83784;3.625975;0.962278;8.39567e-13;0;0;8.39567e-13;-3.330669e-16;0;-2.352155e-17;0;0;0;0;1.652915e-18;-3.347198e-16;1.681864e-16;45;0;2.242485e-16;2.236995e-16;-3.330669e-16;-5.283969e-17;5.796579e-18;0;5.863627e-17;0.962278;-3.330669e-16;3.330669e-16;0
0.905005;3.625975;0.934332;8.39567e-13;0;0;8.39567e-13;4.440892e-16;2.220446e-16;-1.42627e-17;0;0;0;0;4.450016e-16;2.211322e-16;1.119347e-16;45;0;1.492463e-16;2.569234e-16;4.440892e-16;-3.670763e-17;8.182222e-18;2.220446e-16;4.488985e-17;0.934332;6.661338e-16;-6.661338e-16;0
0.97217;3.625975;0.904266;8.39567e-13;0;0;8.39567e-13;-2.220446e-16;0;-1.560823e-17;0;0;0;0;1.091785e-18;-2.231364e-16;1.121141e-16;45;0;1.494854e-16;1.491229e-16;-2.220446e-16;-8.713223e-18;-2.250324e-17;0;-1.379002e-17;0.904266;-2.220446e-16;2.220446e-16;0
1.039336;3.625975;0.893702;8.39567e-13;0;0;8.39567e-13;-2.220446e-16;2.220446e-16;-3.346008e-17;0;0;0;0;2.245515e-16;-2.245515e-16;2.245515e-16;45;0;2.99402e-16;2.592898e-16;-2.220446e-16;-3.021692e-17;-3.670324e-17;2.220446e-16;-6.486321e-18;0.893702;0;0;0
1.106501;3.625975;0.867986;8.39567e-13;0;0;8.39567e-13;0;-1.110223e-16;2.309387e-17;0;0;0;0;4.612178e-18;-1.156345e-16;6.012333e-17;45;0;8.016444e-17;7.867212e-17;0;1.953629e-18;4.423411e-17;-1.110223e-16;4.228048e-17;0.867986;-1.110223e-16;1.110223e-16;0
1.173667;3.625975;0.84038;8.39567e-13;0;0;8.39567e-13;0;0;2.832524e-17;0;0;0;0;2.832524e-17;-2.832524e-17;2.832524e-17;45;0;3.776699e-17;3.270717e-17;0;5.665049e-17;0;0;-5.665049e-17;0.84038;0;0;0
1.240832;3.625975;0.784835;8.39567e-13;0;0;8.39567e-13;0;0;-4.893076e-18;0;0;0;0;4.893076e-18;-4.893076e-18;4.893076e-18;45;0;6.524101e-18;5.650038e-18;0;-1.224316e-18;-8.561836e-18;0;-7.33752e-18;0.784835;0;0;0
1.307997;3.625975;0.715936;8.39567e-13;0;0;8.39567e-13;-2.220446e-16;4.440892e-16;5.160307e-17;0;0;0;0;4.48063e-16;-2.260184e-16;3.370407e-16;45;0;4.493876e-16;3.961567e-16;-2.220446e-16;1.352496e-16;-3.204343e-17;4.440892e-16;-1.67293e-16;0.715936;2.220446e-16;-2.220446e-16;0
1.375163;3.625975;0.657381;8.39567e-13;0;0;8.39567e-13;-1.110223e-16;2.220446e-16;4.637221e-17;0;0;0;0;2.283804e-16;-1.173581e-16;1.728692e-16;45;0;2.304923e-16;2.030137e-16;-1.110223e-16;4.909851e-17;4.364591e-17;2.220446e-16;-5.452594e-18;0.657381;1.110223e-16;-1.110223e-16;0
1.442328;3.625975;0.56982;8.39567e-13;0;0;8.39567e-13;2.220446e-16;0;3.793078e-17;0;0;0;0;2.283453e-16;-6.300736e-18;1.17323e-16;45;0;1.564307e-16;1.543733e-16;2.220446e-16;4.182624e-17;3.403531e-17;0;-7.790928e-18;0.56982;2.220446e-16;-2.220446e-16;0
-0.303971;3.558809;0.523088;8.39567e-13;0;0;8.39567e-13;4.440892e-16;2.220446e-16;-6.386542e-17;0;0;0;0;4.611479e-16;2.049859e-16;1.28081e-16;45;0;1.707747e-16;2.667898e-16;4.440892e-16;-9.676949e-17;-3.096134e-17;2.220446e-16;6.580815e-17;0.523088;6.661338e-16;-6.661338e-16;0
-0.236806;3.558809;0.604922;8.39567e-13;0;0;8.39567e-13;-2.220446e-16;2.220446e-16;2.899265e-18;0;0;0;0;2.220635e-16;-2.220635e-16;2.220635e-16;45;0;2.960847e-16;2.564169e-16;-2.220446e-16;5.79853e-18;0;2.220446e-16;-5.79853e-18;0.604922;0;0;0
-0.169641;3.558809;0.679763;8.39567e-13;0;0;8.39567e-13;-2.220446e-16;0;8.951558e-18;0;0;0;0;3.602906e-19;-2.224049e-16;1.113826e-16;45;0;1.485101e-16;1.483902e-16;-2.220446e-16;1.790312e-17;0;0;-1.790312e-17;0.679763;-2.220446e-16;2.220446e-16;0
-0.102475;3.558809;0.728369;8.39567e-13;0;0;8.39567e-13;-1.110223e-16;2.220446e-16;-2.193447e-17;0;0;0;0;2.234829e-16;-1.124606e-16;1.679718e-16;45;0;2.239623e-16;1.974561e-16;-1.110223e-16;-4.386893e-17;0;2.220446e-16;4.386893e-17;0.728369;1.110223e-16;-1.110223e-16;0
-0.03531;3.558809;0.773317;8.39567e-13;0;0;8.39567e-13;2.220446e-16;0;-3.138602e-17;0;0;0;0;2.263958e-16;-4.35115e-18;1.153735e-16;45;0;1.538313e-16;1.524016e-16;2.220446e-16;-2.332466e-17;-3.944737e-17;0;-1.612271e-17;0.773317;2.220446e-16;-2.220446e-16;0
0.031855;3.558809;0.816799;8.39567e-13;0;0;8.39567e-13;0;2.220446e-16;5.453176e-18;0;0;0;0;2.221784e-16;-1.338434e-19;1.111561e-16;45;0;1.482082e-16;1.481636e-16;0;-1.538828e-17;2.629463e-17;2.220446e-16;4.168292e-17;0.816799;2.220446e-16;-2.220446e-16;0
0.099021;3.558809;0.865825;8.39567e-13;0;0;8.39567e-13;-1.110223e-16;2.220446e-16;1.978234e-18;0;0;0;0;2.220564e-16;-1.110341e-16;1.665452e-16;45;0;2.220603e-16;1.958383e-16;-1.110223e-16;-5.177287e-18;9.133755e-18;2.220446e-16;1.431104e-17;0.865825;1.110223e-16;-1.110223e-16;0
0.166186;3.558809;0.904634;8.39567e-13;0;0;8.39567e-13;2.220446e-16;2.220446e-16;2.457873e-17;0;0;0;0;2.466233e-16;1.974659e-16;2.457873e-17;45;0;3.277164e-17;1.507259e-16;2.220446e-16;2.982974e-17;1.932772e-17;2.220446e-16;-1.050202e-17;0.904634;4.440892e-16;-4.440892e-16;0
0.233352;3.558809;0.927508;8.39567e-13;0;0;8.39567e-13;2.220446e-16;-2.220446e-16;-4.772183e-17;0;0;0;0;2.271149e-16;-2.271149e-16;2.271149e-16;45;0;3.028199e-16;2.622497e-16;2.220446e-16;-1.212415e-17;-8.331952e-17;-2.220446e-16;-7.119538e-17;0.927508;0;0;0
0.300517;3.558809;0.912317;8.39567e-13;0;0;8.39567e-13;2.220446e-16;0;-3.278213e-17;0;0;0;0;2.267834e-16;-4.738742e-18;1.15761e-16;45;0;1.543481e-16;1.52793e-16;2.220446e-16;-4.539506e-17;-2.016919e-17;0;2.522587e-17;0.912317;2.220446e-16;-2.220446e-16;0
0.367682;3.558809;0.968371;8.39567e-13;0;0;8.39567e-13;0;0;-6.962186e-18;0;0;0;0;6.962186e-18;-6.962186e-18;6.962186e-18;45;0;9.282914e-18;8.039239e-18;0;-1.392437e-17;0;0;1.392437e-17;0.968371;0;0;0
0.434848;3.558809;1.011847;8.39567e-13;0;0;8.39567e-13;0;2.220446e-16;1.298933e-16;0;0;0;0;2.818972e-16;-5.985258e-17;1.708749e-16;45;0;2.278332e-16;2.107348e-16;0;1.320825e-16;1.277042e-16;2.220446e-16;-4.37832e-18;1.011847;2.220446e-16;-2.220446e-16;0
0.502013;3.558809;1.000822;8.39567e-13;0;0;8.39567e-13;2.220446e-16;-3.330669e-16;-1.182725e-18;0;0;0;0;2.220471e-16;-3.330694e-16;2.775583e-16;45;0;3.700777e-16;3.226262e-16;2.220446e-16;-2.176948e-17;1.940403e-17;-3.330669e-16;4.117352e-17;1.000822;-1.110223e-16;1.110223e-16;0
0.569178;3.558809;1.004976;8.39567e-13;0;0;8.39567e-13;2.220446e-16;2.220446e-16;-4.571174e-17;0;0;0;0;2.677564e-16;1.763329e-16;4.571174e-17;45;0;6.094899e-17;1.571588e-16;2.220446e-16;-3.591962e-17;-5.550386e-17;2.220446e-16;-1.958424e-17;1.004976;4.440892e-16;-4.440892e-16;0
0.636344;3.558809;0.990801;8.39567e-13;0;0;8.39567e-13;2.220446e-16;2.220446e-16;-8.484205e-18;0;0;0;0;2.305288e-16;2.135604e-16;8.484205e-18;45;0;1.131227e-17;1.483536e-16;2.220446e-16;-2.195197e-17;4.983561e-18;2.220446e-16;2.693553e-17;0.990801;4.440892e-16;-4.440892e-16;0
0.703509;3.558809;0.975628;8.39567e-13;0;0;8.39567e-13;0;-1.110223e-16;-4.42007e-17;0;0;0;0;1.544792e-17;-1.264702e-16;7.095907e-17;45;0;9.461209e-17;8.990627e-17;0;-4.813159e-17;-4.026981e-17;-1.110223e-16;7.861785e-18;0.975628;-1.110223e-16;1.110223e-16;0
0.770674;3.558809;0.955723;8.39567e-13;0;0;8.39567e-13;0;0;-1.108833e-17;0;0;0;0;1.108833e-17;-1.108833e-17;1.108833e-17;45;0;1.478444e-17;1.28037e-17;0;-2.923422e-18;-1.925324e-17;0;-1.632981e-17;0.955723;0;0;0
0.83784;3.558809;0.957617;8.39567e-13;0;0;8.39567e-13;2.220446e-16;0;2.856921e-17;0;0;0;0;2.256615e-16;-3.616921e-18;1.146392e-16;45;0;1.528523e-16;1.51661e-16;2.220446e-16;1.8888e-17;3.825043e-17;0;1.936242e-17;0.957617;2.220446e-16;-2.220446e-16;0
0.905005;3.558809;0.941267;8.39567e-13;0;0;8.39567e-13;0;2.220446e-16;-4.366272e-18;0;0;0;0;2.221304e-16;-8.582495e-20;1.111081e-16;45;0;1.481442e-16;1.481156e-16;0;-3.089696e-17;2.216441e-17;2.220446e-16;5.306137e-17;0.941267;2.220446e-16;-2.220446e-16;0
0.97217;3.558809;0.915832;8.39567e-13;0;0;8.39567e-13;0;0;-9.401561e-18;0;0;0;0;9.401561e-18;-9.401561e-18;9.401561e-18;45;0;1.253541e-17;1.085599e-17;0;-1.880312e-17;0;0;1.880312e-17;0.915832;0;0;0
1.039336;3.558809;0.905874;8.39567e-13;0;0;8.39567e-13;0;2.220446e-16;-1.219872e-17;0;0;0;0;2.227128e-16;-6.681645e-19;1.116905e-16;45;0;1.489206e-16;1.486984e-16;0;-1.4496e-17;-9.901443e-18;2.220446e-16;4.594554e-18;0.905874;2.220446e-16;-2.220446e-16;0
1.106501;3.558809;0.874602;8.39567e-13;0;0;8.39567e-13;0;2.220446e-16;2.504665e-17;0;0;0;0;2.248348e-16;-2.790203e-18;1.138125e-16;45;0;1.5175e-16;1.508285e-16;0;5.452519e-17;-4.431883e-18;2.220446e-16;-5.895707e-17;0.874602;2.220446e-16;-2.220446e-16;0
1.173667;3.558809;0.830555;8.39567e-13;0;0;8.39567e-13;0;2.220446e-16;1.68186e-17;0;0;0;0;2.233113e-16;-1.266687e-18;1.12289e-16;45;0;1.497187e-16;1.492982e-16;0;2.95404e-17;4.096808e-18;2.220446e-16;-2.544359e-17;0.830555;2.220446e-16;-2.220446e-16;0
1.240832;3.558809;0.771003;8.39567e-13;0;0;8.39567e-13;0;2.220446e-16;-4.921782e-17;0;0;0;0;2.324651e-16;-1.042046e-17;1.214428e-16;45;0;1.619237e-16;1.585644e-16;0;-8.306464e-17;-1.537099e-17;2.220446e-16;6.769364e-17;0.771003;2.220446e-16;-2.220446e-16;0
1.307997;3.558809;0.705415;8.39567e-13;0;0;8.39567e-13;-1.110223e-16;-1.110223e-16;4.776641e-19;0;0;0;0;-1.105446e-16;-1.115e-16;4.776641e-19;45;0;6.368855e-19;7.401692e-17;-1.110223e-16;2.272472e-17;-2.176939e-17;-1.110223e-16;-4.44941e-17;0.705415;-2.220446e-16;2.220446e-16;0
1.375163;3.558809;0.641213;8.39567e-13;0;0;8.39567e-13;0;0;-1.454247e-17;0;0;0;0;1.454247e-17;-1.454247e-17;1.454247e-17;45;0;1.938996e-17;1.67922e-17;0;-4.073671e-17;1.165177e-17;0;5.238848e-17;0.641213;0;0;0
1.442328;3.558809;0.506703;8.39567e-13;0;0;8.39567e-13;0;-2.220446e-16;6.307534e-18;0;0;0;0;1.790313e-19;-2.222236e-16;1.112013e-16;45;0;1.482684e-16;1.482088e-16;0;1.261507e-17;0;-2.220446e-16;-1.261507e-17;0.506703;-2.220446e-16;2.220446e-16;0
-0.371137;3.491644;0.397403;8.39567e-13;0;0;8.39567e-13;4.440892e-16;-1.110223e-16;-8.917632e-17;0;0;0;0;4.580632e-16;-1.249963e-16;2.915298e-16;45;0;3.887064e-16;3.54465e-16;4.440892e-16;-1.966042e-16;1.825158e-17;-1.110223e-16;2.148558e-16;0.397403;3.330669e-16;-3.330669e-16;0
-0.303971;3.491644;0.508382;8.39567e-13;0;0;8.39567e-13;0;2.220446e-16;2.61466e-17;0;0;0;0;2.250819e-16;-3.037314e-18;1.140596e-16;45;0;1.520795e-16;1.510772e-16;0;5.229319e-17;0;2.220446e-16;-5.229319e-17;0.508382;2.220446e-16;-2.220446e-16;0
-0.236806;3.491644;0.590713;8.39567e-13;0;0;8.39567e-13;0;0;8.013666e-19;0;0;0;0;8.013666e-19;-8.013666e-19;8.013666e-19;45;0;1.068489e-18;9.253384e-19;0;1.487692e-17;-1.327419e-17;0;-2.815111e-17;0.590713;0;0;0
-0.169641;3.491644;0.670561;8.39567e-13;0;0;8.39567e-13;0;0;-7.751148e-19;0;0;0;0;7.751148e-19;-7.751148e-19;7.751148e-19;45;0;1.033486e-18;8.950254e-19;0;1.967305e-17;-2.122328e-17;0;-4.089634e-17;0.670561;0;0;0
-0.102475;3.491644;0.733758;8.39567e-13;0;0;8.39567e-13;0;0;-3.988451e-17;0;0;0;0;3.988451e-17;-3.988451e-17;3.988451e-17;45;0;5.317934e-17;4.605466e-17;0;-7.402822e-17;-5.740795e-18;0;6.828742e-17;0.733758;0;0;0
-0.03531;3.491644;0.796774;8.39567e-13;0;0;8.39567e-13;0;-1.110223e-16;-1.744991e-17;0;0;0;0;2.678085e-18;-1.137004e-16;5.818924e-17;45;0;7.758565e-17;7.670853e-17;0;-1.482701e-17;-2.007281e-17;-1.110223e-16;-5.245802e-18;0.796774;-1.110223e-16;1.110223e-16;0
0.031855;3.491644;0.845811;8.39567e-13;0;0;8.39567e-13;2.220446e-16;0;5.366285e-19;0;0;0;0;2.220459e-16;-1.296894e-21;1.110236e-16;45;0;1.480315e-16;1.48031e-16;2.220446e-16;-6.152041e-17;6.259366e-17;0;1.241141e-16;0.845811;2.220446e-16;-2.220446e-16;0
0.099021;3.491644;0.861346;8.39567e-13;0;0;8.39567e-13;2.220446e-16;0;-1.12004e-17;0;0;0;0;2.226081e-16;-5.635416e-19;1.115858e-16;45;0;1.487811e-16;1.485936e-16;2.220446e-16;-4.485897e-17;2.245817e-17;0;6.731714e-17;0.861346;2.220446e-16;-2.220446e-16;0
0.166186;3.491644;0.865506;8.39567e-13;0;0;8.39567e-13;2.220446e-16;0;4.495636e-18;0;0;0;0;2.221356e-16;-9.09838e-20;1.111133e-16;45;0;1.481511e-16;1.481207e-16;2.220446e-16;1.851038e-17;-9.519109e-18;0;-2.802949e-17;0.865506;2.220446e-16;-2.220446e-16;0
0.233352;3.491644;0.906065;8.39567e-13;0;0;8.39567e-13;2.220446e-16;-1.110223e-16;1.010966e-17;0;0;0;0;2.223512e-16;-1.113289e-16;1.6684e-16;45;0;2.224534e-16;1.961726e-16;2.220446e-16;6.994961e-18;1.322437e-17;-1.110223e-16;6.229405e-18;0.906065;1.110223e-16;-1.110223e-16;0
0.300517;3.491644;0.964604;8.39567e-13;0;0;8.39567e-13;0;0;3.782501e-17;0;0;0;0;3.782501e-17;-3.782501e-17;3.782501e-17;45;0;5.043335e-17;4.367656e-17;0;3.759626e-17;3.805376e-17;0;4.575011e-19;0.964604;0;0;0
0.367682;3.491644;0.964588;8.39567e-13;0;0;8.39567e-13;-3.330669e-16;2.220446e-16;4.046299e-18;0;0;0;0;2.220741e-16;-3.330964e-16;2.775852e-16;45;0;3.701137e-16;3.226572e-16;-3.330669e-16;1.565392e-17;-7.561323e-18;2.220446e-16;-2.321524e-17;0.964588;-1.110223e-16;1.110223e-16;0
0.434848;3.491644;0.968053;8.39567e-13;0;0;8.39567e-13;-1.110223e-16;0;5.031078e-18;0;0;0;0;2.275217e-19;-1.112498e-16;5.573867e-17;45;0;7.431823e-17;7.42425e-17;-1.110223e-16;2.948788e-17;-1.942572e-17;0;-4.89136e-17;0.968053;-1.110223e-16;1.110223e-16;0
0.502013;3.491644;1.018111;8.39567e-13;0;0;8.39567e-13;-1.110223e-16;2.220446e-16;2.146632e-17;0;0;0;0;2.234224e-16;-1.124001e-16;1.679113e-16;45;0;2.238817e-16;1.973875e-16;-1.110223e-16;1.742503e-17;2.550762e-17;2.220446e-16;8.08259e-18;1.018111;1.110223e-16;-1.110223e-16;0
0.569178;3.491644;1.018117;8.39567e-13;0;0;8.39567e-13;2.220446e-16;2.220446e-16;4.640522e-19;0;0;0;0;2.225086e-16;2.215805e-16;4.640522e-19;45;0;6.187363e-19;1.480307e-16;2.220446e-16;1.081986e-17;-9.891754e-18;2.220446e-16;-2.071161e-17;1.018117;4.440892e-16;-4.440892e-16;0
0.636344;3.491644;0.97341;8.39567e-13;0;0;8.39567e-13;-3.330669e-16;2.220446e-16;-2.655927e-17;0;0;0;0;2.233124e-16;-3.343347e-16;2.788236e-16;45;0;3.717648e-16;3.240777e-16;-3.330669e-16;-5.311853e-17;0;2.220446e-16;5.311853e-17;0.97341;-1.110223e-16;1.110223e-16;0
0.703509;3.491644;0.949463;8.39567e-13;0;0;8.39567e-13;-1.110223e-16;0;6.449327e-17;0;0;0;0;2.958215e-17;-1.406045e-16;8.50933e-17;45;0;1.134577e-16;1.049954e-16;-1.110223e-16;4.695305e-17;8.203349e-17;0;3.508044e-17;0.949463;-1.110223e-16;1.110223e-16;0
0.770674;3.491644;0.961554;8.39567e-13;0;0;8.39567e-13;0;-1.110223e-16;4.283743e-17;0;0;0;0;1.460684e-17;-1.256291e-16;7.0118e-17;45;0;9.349066e-17;8.902206e-17;0;2.696885e-17;5.870601e-17;-1.110223e-16;3.173716e-17;0.961554;-1.110223e-16;1.110223e-16;0
0.83784;3.491644;0.945228;8.39567e-13;0;0;8.39567e-13;0;0;5.526505e-18;0;0;0;0;5.526505e-18;-5.526505e-18;5.526505e-18;45;0;7.368674e-18;6.381459e-18;0;2.124018e-17;-1.018717e-17;0;-3.142736e-17;0.945228;0;0;0
0.905005;3.491644;0.926259;8.39567e-13;0;0;8.39567e-13;-1.110223e-16;-1.110223e-16;5.344417e-18;0;0;0;0;-1.056779e-16;-1.163667e-16;5.344417e-18;45;0;7.125889e-18;7.427169e-17;-1.110223e-16;-4.602664e-18;1.52915e-17;-1.110223e-16;1.989416e-17;0.926259;-2.220446e-16;2.220446e-16;0
0.97217;3.491644;0.919745;8.39567e-13;0;0;8.39567e-13;0;0;2.407951e-17;0;0;0;0;2.407951e-17;-2.407951e-17;2.407951e-17;45;0;3.210602e-17;2.780462e-17;0;3.526854e-17;1.289048e-17;0;-2.237805e-17;0.919745;0;0;0
1.039336;3.491644;0.9312;8.39567e-13;0;0;8.39567e-13;0;0;5.160671e-18;0;0;0;0;5.160671e-18;-5.160671e-18;5.160671e-18;45;0;6.880894e-18;5.959029e-18;0;2.945457e-17;-1.913323e-17;0;-4.858781e-17;0.9312;0;0;0
1.106501;3.491644;0.885514;8.39567e-13;0;0;8.39567e-13;2.220446e-16;-3.330669e-16;1.734925e-17;0;0;0;0;2.225863e-16;-3.336086e-16;2.780975e-16;45;0;3.707966e-16;3.232447e-16;2.220446e-16;8.384667e-18;2.631383e-17;-3.330669e-16;1.792917e-17;0.885514;-1.110223e-16;1.110223e-16;0
1.173667;3.491644;0.816886;8.39567e-13;0;0;8.39567e-13;0;2.220446e-16;1.893134e-17;0;0;0;0;2.236471e-16;-1.602505e-18;1.126248e-16;45;0;1.501664e-16;1.496351e-16;0;-1.402908e-17;5.189177e-17;2.220446e-16;6.592085e-17;0.816886;2.220446e-16;-2.220446e-16;0
1.240832;3.491644;0.768343;8.39567e-13;0;0;8.39567e-13;-1.110223e-16;0;1.467248e-17;0;0;0;0;1.906352e-18;-1.129287e-16;5.74175e-17;45;0;7.655667e-17;7.59292e-17;-1.110223e-16;2.150203e-17;7.842937e-18;0;-1.365909e-17;0.768343;-1.110223e-16;1.110223e-16;0
1.307997;3.491644;0.714153;8.39567e-13;0;0;8.39567e-13;2.220446e-16;2.220446e-16;3.817045e-17;0;0;0;0;2.602151e-16;1.838742e-16;3.817045e-17;45;0;5.089393e-17;1.544521e-16;2.220446e-16;6.28457e-17;1.349521e-17;2.220446e-16;-4.935049e-17;0.714153;4.440892e-16;-4.440892e-16;0
1.375163;3.491644;0.614209;8.39567e-13;0;0;8.39567e-13;0;2.220446e-16;-2.571758e-18;0;0;0;0;2.220744e-16;-2.978253e-20;1.110521e-16;45;0;1.480694e-16;1.480595e-16;0;-3.431232e-17;2.91688e-17;2.220446e-16;6.348112e-17;0.614209;2.220446e-16;-2.220446e-16;0
1.442328;3.491644;0.510513;8.39567e-13;0;0;8.39567e-13;0;0;2.27753e-18;0;0;0;0;2.27753e-18;-2.27753e-18;2.27753e-18;45;0;3.036707e-18;2.629865e-18;0;6.990009e-17;-6.534503e-17;0;-1.352451e-16;0.510513;0;0;0
-0.371137;3.424478;0.406043;8.39567e-13;0;0;8.39567e-13;0;0;6.711328e-17;0;0;0;0;6.711328e-17;-6.711328e-17;6.711328e-17;45;0;8.948437e-17;7.749574e-17;0;9.089885e-17;4.33277e-17;0;-4.757115e-17;0.406043;0;0;0
-0.303971;3.424478;0.499233;8.39567e-13;0;0;8.39567e-13;2.220446e-16;-1.110223e-16;1.182487e-17;0;0;0;0;2.224639e-16;-1.114416e-16;1.669527e-16;45;0;2.226036e-16;1.963004e-16;2.220446e-16;4.311762e-18;1.933797e-17;-1.110223e-16;1.502621e-17;0.499233;1.110223e-16;-1.110223e-16;0
-0.236806;3.424478;0.573123;8.39567e-13;0;0;8.39567e-13;0;0;-7.118859e-18;0;0;0;0;7.118859e-18;-7.118859e-18;7.118859e-18;45;0;9.491812e-18;8.22015e-18;0;-1.423772e-17;0;0;1.423772e-17;0.573123;0;0;0
-0.169641;3.424478;0.6509;8.39567e-13;0;0;8.39567e-13;-2.220446e-16;-1.110223e-16;7.050637e-17;0;0;0;0;-7.679698e-17;-2.562699e-16;8.973648e-17;45;0;1.196486e-16;1.518644e-16;-2.220446e-16;1.136592e-16;2.735348e-17;-1.110223e-16;-8.630578e-17;0.6509;-3.330669e-16;3.330669e-16;0
-0.102475;3.424478;0.725512;8.39567e-13;0;0;8.39567e-13;2.220446e-16;-1.110223e-16;-3.059011e-18;0;0;0;0;2.220727e-16;-1.110504e-16;1.665616e-16;45;0;2.220821e-16;1.958568e-16;2.220446e-16;-6.118022e-18;0;-1.110223e-16;6.118022e-18;0.725512;1.110223e-16;-1.110223e-16;0
-0.03531;3.424478;0.785058;8.39567e-13;0;0;8.39567e-13;0;2.220446e-16;2.471339e-17;0;0;0;0;2.247619e-16;-2.717327e-18;1.137396e-16;45;0;1.516528e-16;1.507552e-16;0;3.341046e-17;1.601632e-17;2.220446e-16;-1.739414e-17;0.785058;2.220446e-16;-2.220446e-16;0
0.031855;3.424478;0.83284;8.39567e-13;0;0;8.39567e-13;2.220446e-16;-1.110223e-16;-3.0366e-17;0;0;0;0;2.247905e-16;-1.137682e-16;1.692793e-16;45;0;2.257057e-16;1.989393e-16;2.220446e-16;-4.290616e-17;-1.782584e-17;-1.110223e-16;2.508032e-17;0.83284;1.110223e-16;-1.110223e-16;0
0.099021;3.424478;0.858084;8.39567e-13;0;0;8.39567e-13;0;-1.110223e-16;-3.565532e-17;0;0;0;0;1.046452e-17;-1.214868e-16;6.597567e-17;45;0;8.796756e-17;8.469516e-17;0;-6.120981e-17;-1.010082e-17;-1.110223e-16;5.110899e-17;0.858084;-1.110223e-16;1.110223e-16;0
0.166186;3.424478;0.853771;8.39567e-13;0;0;8.39567e-13;2.220446e-16;0;2.536532e-17;0;0;0;0;2.249054e-16;-2.860757e-18;1.138831e-16;45;0;1.518441e-16;1.508995e-16;2.220446e-16;2.760382e-17;2.312682e-17;0;-4.477001e-18;0.853771;2.220446e-16;-2.220446e-16;0
0.233352;3.424478;0.915335;8.39567e-13;0;0;8.39567e-13;0;2.220446e-16;-2.416649e-17;0;0;0;0;2.246444e-16;-2.599751e-18;1.136221e-16;45;0;1.514961e-16;1.50637e-16;0;-5.660392e-17;8.270942e-18;2.220446e-16;6.487487e-17;0.915335;2.220446e-16;-2.220446e-16;0
0.300517;3.424478;0.953739;8.39567e-13;0;0;8.39567e-13;2.220446e-16;0;6.214403e-18;0;0;0;0;2.222184e-16;-1.737876e-19;1.111961e-16;45;0;1.482615e-16;1.482036e-16;2.220446e-16;1.617218e-17;-3.743378e-18;0;-1.991556e-17;0.953739;2.220446e-16;-2.220446e-16;0
0.367682;3.424478;0.954062;8.39567e-13;0;0;8.39567e-13;2.220446e-16;2.220446e-16;2.904907e-18;0;0;0;0;2.249495e-16;2.191397e-16;2.904907e-18;45;0;3.87321e-18;1.480677e-16;2.220446e-16;5.809815e-18;0;2.220446e-16;-5.809815e-18;0.954062;4.440892e-16;-4.440892e-16;0
0.434848;3.424478;0.984499;8.39567e-13;0;0;8.39567e-13;2.220446e-16;0;1.947505e-17;0;0;0;0;2.237398e-16;-1.695173e-18;1.127175e-16;45;0;1.5029e-16;1.497281e-16;2.220446e-16;4.8821e-17;-9.870899e-18;0;-5.86919e-17;0.984499;2.220446e-16;-2.220446e-16;0
0.502013;3.424478;0.990408;8.39567e-13;0;0;8.39567e-13;2.220446e-16;-1.110223e-16;2.276061e-17;0;0;0;0;2.235928e-16;-1.125705e-16;1.680816e-16;45;0;2.241089e-16;1.975807e-16;2.220446e-16;-6.076924e-18;5.159815e-17;-1.110223e-16;5.767508e-17;0.990408;1.110223e-16;-1.110223e-16;0
0.569178;3.424478;0.974094;8.39567e-13;0;0;8.39567e-13;0;2.220446e-16;2.748678e-17;0;0;0;0;2.253966e-16;-3.351972e-18;1.143743e-16;45;0;1.52499e-16;1.513941e-16;0;3.481037e-17;2.016319e-17;2.220446e-16;-1.464718e-17;0.974094;2.220446e-16;-2.220446e-16;0
0.636344;3.424478;0.950133;8.39567e-13;0;0;8.39567e-13;-3.330669e-16;-1.110223e-16;-4.23805e-17;0;0;0;0;-1.032083e-16;-3.408809e-16;1.188363e-16;45;0;1.584484e-16;2.01847e-16;-3.330669e-16;-3.276826e-17;-5.199274e-17;-1.110223e-16;-1.922448e-17;0.950133;-4.440892e-16;4.440892e-16;0
0.703509;3.424478;0.936301;8.39567e-13;0;0;8.39567e-13;0;-1.110223e-16;1.290311e-17;0;0;0;0;1.479885e-18;-1.125022e-16;5.699104e-17;45;0;7.598805e-17;7.549959e-17;0;-7.542086e-18;3.334831e-17;-1.110223e-16;4.089039e-17;0.936301;-1.110223e-16;1.110223e-16;0
0.770674;3.424478;0.946246;8.39567e-13;0;0;8.39567e-13;-3.330669e-16;2.220446e-16;-7.663029e-18;0;0;0;0;2.221504e-16;-3.331727e-16;2.776615e-16;45;0;3.702154e-16;3.227446e-16;-3.330669e-16;1.452782e-18;-1.677884e-17;2.220446e-16;-1.823162e-17;0.946246;-1.110223e-16;1.110223e-16;0
0.83784;3.424478;0.942061;8.39567e-13;0;0;8.39567e-13;0;0;-4.507453e-17;0;0;0;0;4.507453e-17;-4.507453e-17;4.507453e-17;45;0;6.009938e-17;5.204758e-17;0;-7.338808e-17;-1.676098e-17;0;5.66271e-17;0.942061;0;0;0
0.905005;3.424478;0.944188;8.39567e-13;0;0;8.39567e-13;-1.110223e-16;2.220446e-16;-1.10633e-17;0;0;0;0;2.224117e-16;-1.113894e-16;1.669005e-16;45;0;2.22534e-16;1.962412e-16;-1.110223e-16;-1.534295e-17;-6.783643e-18;2.220446e-16;8.559308e-18;0.944188;1.110223e-16;-1.110223e-16;0
0.97217;3.424478;0.951532;8.39567e-13;0;0;8.39567e-13;2.220446e-16;0;9.654334e-19;0;0;0;0;2.220488e-16;-4.197553e-21;1.110265e-16;45;0;1.480353e-16;1.480339e-16;2.220446e-16;3.183055e-17;-2.989968e-17;0;-6.173023e-17;0.951532;2.220446e-16;-2.220446e-16;0
1.039336;3.424478;0.926555;8.39567e-13;0;0;8.39567e-13;0;0;1.351795e-17;0;0;0;0;1.351795e-17;-1.351795e-17;1.351795e-17;45;0;1.802393e-17;1.560918e-17;0;-5.88241e-18;3.291831e-17;0;3.880072e-17;0.926555;0;0;0
1.106501;3.424478;0.862088;8.39567e-13;0;0;8.39567e-13;0;-3.330669e-16;-2.652396e-17;0;0;0;0;2.099021e-18;-3.351659e-16;1.686325e-16;45;0;2.248433e-16;2.241469e-16;0;4.458994e-17;-9.763786e-17;-3.330669e-16;-1.422278e-16;0.862088;-3.330669e-16;3.330669e-16;0
1.173667;3.424478;0.820612;8.39567e-13;0;0;8.39567e-13;-1.110223e-16;-3.330669e-16;-2.827201e-17;0;0;0;0;-1.074791e-16;-3.366101e-16;1.145655e-16;45;0;1.52754e-16;1.985274e-16;-1.110223e-16;1.110982e-17;-6.765385e-17;-3.330669e-16;-7.876368e-17;0.820612;-4.440892e-16;4.440892e-16;0
1.240832;3.424478;0.766029;8.39567e-13;0;0;8.39567e-13;2.220446e-16;-1.110223e-16;9.139303e-18;0;0;0;0;2.222952e-16;-1.112729e-16;1.66784e-16;45;0;2.223787e-16;1.961091e-16;2.220446e-16;3.363254e-17;-1.535393e-17;-1.110223e-16;-4.898646e-17;0.766029;1.110223e-16;-1.110223e-16;0
1.307997;3.424478;0.688127;8.39567e-13;0;0;8.39567e-13;-2.220446e-16;-1.110223e-16;-5.021233e-17;0;0;0;0;-9.168183e-17;-2.413851e-16;7.485163e-17;45;0;9.980217e-17;1.406993e-16;-2.220446e-16;-8.361063e-17;-1.681403e-17;-1.110223e-16;6.67966e-17;0.688127;-3.330669e-16;3.330669e-16;0
1.375163;3.424478;0.604137;8.39567e-13;0;0;8.39567e-13;-4.440892e-16;-1.110223e-16;-1.859577e-17;0;0;0;0;-1.099873e-16;-4.451242e-16;1.675685e-16;45;0;2.234246e-16;2.677269e-16;-4.440892e-16;-2.316015e-17;-1.403139e-17;-1.110223e-16;9.128757e-18;0.604137;-5.551115e-16;5.551115e-16;0
1.442328;3.424478;0.521905;8.39567e-13;0;0;8.39567e-13;2.220446e-16;-2.220446e-16;-3.648415e-17;0;0;0;0;2.25022e-16;-2.25022e-16;2.25022e-16;45;0;3.000293e-16;2.59833e-16;2.220446e-16;-3.324662e-17;-3.972169e-17;-2.220446e-16;-6.475067e-18;0.521905;0;0;0
-0.371137;3.357313;0.422295;8.39567e-13;0;0;8.39567e-13;2.220446e-16;0;5.128336e-17;0;0;0;0;2.333168e-16;-1.127216e-17;1.222945e-16;45;0;1.630593e-16;1.594348e-16;2.220446e-16;2.972452e-17;7.284221e-17;0;4.311769e-17;0.422295;2.220446e-16;-2.220446e-16;0
-0.303971;3.357313;0.476114;8.39567e-13;0;0;8.39567e-13;2.220446e-16;2.220446e-16;1.555711e-17;0;0;0;0;2.376017e-16;2.064875e-16;1.555711e-17;45;0;2.074281e-17;1.491157e-16;2.220446e-16;5.208757e-17;-2.097334e-17;2.220446e-16;-7.306091e-17;0.476114;4.440892e-16;-4.440892e-16;0
-0.236806;3.357313;0.557037;8.39567e-13;0;0;8.39567e-13;2.220446e-16;2.220446e-16;-2.634188e-17;0;0;0;0;2.483865e-16;1.957027e-16;2.634188e-17;45;0;3.512251e-17;1.511225e-16;2.220446e-16;-6.570414e-17;1.302038e-17;2.220446e-16;7.872451e-17;0.557037;4.440892e-16;-4.440892e-16;0
-0.169641;3.357313;0.644799;8.39567e-13;0;0;8.39567e-13;2.220446e-16;2.220446e-16;-3.261974e-17;0;0;0;0;2.546643e-16;1.894249e-16;3.261974e-17;45;0;4.349298e-17;1.527466e-16;2.220446e-16;-3.772187e-17;-2.751761e-17;2.220446e-16;1.020426e-17;0.644799;4.440892e-16;-4.440892e-16;0
-0.102475;3.357313;0.710364;8.39567e-13;0;0;8.39567e-13;4.440892e-16;2.220446e-16;-6.455577e-17;0;0;0;0;4.614935e-16;2.046403e-16;1.284266e-16;45;0;1.712355e-16;2.670113e-16;4.440892e-16;-9.873723e-17;-3.03743e-17;2.220446e-16;6.836294e-17;0.710364;6.661338e-16;-6.661338e-16;0
-0.03531;3.357313;0.76013;8.39567e-13;0;0;8.39567e-13;-2.220446e-16;2.220446e-16;1.515599e-17;0;0;0;0;2.225612e-16;-2.225612e-16;2.225612e-16;45;0;2.967483e-16;2.569916e-16;-2.220446e-16;3.031199e-17;0;2.220446e-16;-3.031199e-17;0.76013;0;0;0
0.031855;3.357313;0.810537;8.39567e-13;0;0;8.39567e-13;-1.110223e-16;0;3.977685e-17;0;0;0;0;1.278003e-17;-1.238023e-16;6.829118e-17;45;0;9.105491e-17;8.710797e-17;-1.110223e-16;4.494364e-17;3.461005e-17;0;-1.033359e-17;0.810537;-1.110223e-16;1.110223e-16;0
0.099021;3.357313;0.854335;8.39567e-13;0;0;8.39567e-13;2.220446e-16;0;-7.275252e-19;0;0;0;0;2.22047e-16;-2.383698e-21;1.110247e-16;45;0;1.480329e-16;1.480321e-16;2.220446e-16;-1.133597e-17;9.880921e-18;0;2.121689e-17;0.854335;2.220446e-16;-2.220446e-16;0
0.166186;3.357313;0.864126;8.39567e-13;0;0;8.39567e-13;-3.330669e-16;0;1.989036e-17;0;0;0;0;1.183622e-18;-3.342505e-16;1.677171e-16;45;0;2.236228e-16;2.232293e-16;-3.330669e-16;5.807444e-17;-1.829373e-17;0;-7.636817e-17;0.864126;-3.330669e-16;3.330669e-16;0
0.233352;3.357313;0.933794;8.39567e-13;0;0;8.39567e-13;2.220446e-16;0;-2.050654e-17;0;0;0;0;2.239226e-16;-1.877962e-18;1.129003e-16;45;0;1.505337e-16;1.499116e-16;2.220446e-16;7.764471e-18;-4.877755e-17;0;-5.654202e-17;0.933794;2.220446e-16;-2.220446e-16;0
0.300517;3.357313;0.961273;8.39567e-13;0;0;8.39567e-13;0;-3.330669e-16;1.499599e-17;0;0;0;0;6.738154e-19;-3.337407e-16;1.672073e-16;45;0;2.22943e-16;2.227188e-16;0;9.671918e-18;2.032006e-17;-3.330669e-16;1.064814e-17;0.961273;-3.330669e-16;3.330669e-16;0
0.367682;3.357313;0.931154;8.39567e-13;0;0;8.39567e-13;0;2.220446e-16;-2.317643e-17;0;0;0;0;2.244379e-16;-2.393298e-18;1.134156e-16;45;0;1.512208e-16;1.504294e-16;0;-3.60578e-17;-1.029506e-17;2.220446e-16;2.576274e-17;0.931154;2.220446e-16;-2.220446e-16;0
0.434848;3.357313;0.954553;8.39567e-13;0;0;8.39567e-13;-1.110223e-16;-1.110223e-16;-2.89671e-17;0;0;0;0;-8.20552e-17;-1.399894e-16;2.89671e-17;45;0;3.86228e-17;8.122186e-17;-1.110223e-16;-2.780064e-17;-3.013356e-17;-1.110223e-16;-2.332916e-18;0.954553;-2.220446e-16;2.220446e-16;0
0.502013;3.357313;0.958647;8.39567e-13;0;0;8.39567e-13;-1.110223e-16;0;-1.051972e-17;0;0;0;0;9.879844e-19;-1.120103e-16;5.649914e-17;45;0;7.533218e-17;7.500502e-17;-1.110223e-16;7.220766e-18;-2.82602e-17;0;-3.548096e-17;0.958647;-1.110223e-16;1.110223e-16;0
0.569178;3.357313;0.965644;8.39567e-13;0;0;8.39567e-13;0;2.220446e-16;-9.740675e-18;0;0;0;0;2.224711e-16;-4.264857e-19;1.114488e-16;45;0;1.485984e-16;1.484564e-16;0;-4.106249e-18;-1.53751e-17;2.220446e-16;-1.126885e-17;0.965644;2.220446e-16;-2.220446e-16;0
0.636344;3.357313;0.975068;8.39567e-13;0;0;8.39567e-13;0;0;4.068456e-17;0;0;0;0;4.068456e-17;-4.068456e-17;4.068456e-17;45;0;5.424608e-17;4.697848e-17;0;1.95516e-17;6.181752e-17;0;4.226592e-17;0.975068;0;0;0
0.703509;3.357313;0.963039;8.39567e-13;0;0;8.39567e-13;-1.110223e-16;-1.110223e-16;4.959486e-17;0;0;0;0;-6.142744e-17;-1.606172e-16;4.959486e-17;45;0;6.612649e-17;9.358277e-17;-1.110223e-16;3.857567e-17;6.061405e-17;-1.110223e-16;2.203838e-17;0.963039;-2.220446e-16;2.220446e-16;0
0.770674;3.357313;0.931124;8.39567e-13;0;0;8.39567e-13;2.220446e-16;-1.110223e-16;-4.992313e-18;0;0;0;0;2.221194e-16;-1.110971e-16;1.666083e-16;45;0;2.221443e-16;1.959098e-16;2.220446e-16;8.490796e-20;-1.006954e-17;-1.110223e-16;-1.015444e-17;0.931124;1.110223e-16;-1.110223e-16;0
0.83784;3.357313;0.922721;8.39567e-13;0;0;8.39567e-13;0;0;8.084714e-18;0;0;0;0;8.084714e-18;-8.084714e-18;8.084714e-18;45;0;1.077962e-17;9.335422e-18;0;3.2635e-17;-1.646558e-17;0;-4.910058e-17;0.922721;0;0;0
0.905005;3.357313;0.937657;8.39567e-13;0;0;8.39567e-13;2.220446e-16;2.220446e-16;-3.196865e-17;0;0;0;0;2.540133e-16;1.90076e-16;3.196865e-17;45;0;4.262487e-17;1.52563e-16;2.220446e-16;2.91855e-18;-6.685586e-17;2.220446e-16;-6.977441e-17;0.937657;4.440892e-16;-4.440892e-16;0
0.97217;3.357313;0.919124;8.39567e-13;0;0;8.39567e-13;2.220446e-16;-1.110223e-16;1.131295e-17;0;0;0;0;2.224284e-16;-1.114061e-16;1.669173e-16;45;0;2.225563e-16;1.962602e-16;2.220446e-16;2.262589e-17;0;-1.110223e-16;-2.262589e-17;0.919124;1.110223e-16;-1.110223e-16;0
1.039336;3.357313;0.847746;8.39567e-13;0;0;8.39567e-13;-1.110223e-16;2.220446e-16;-2.589906e-17;0;0;0;0;2.240465e-16;-1.130242e-16;1.685353e-16;45;0;2.247138e-16;1.980953e-16;-1.110223e-16;-8.24022e-17;3.060407e-17;2.220446e-16;1.130063e-16;0.847746;1.110223e-16;-1.110223e-16;0
1.106501;3.357313;0.80789;8.39567e-13;0;0;8.39567e-13;0;0;1.219742e-16;0;0;0;0;1.219742e-16;-1.219742e-16;1.219742e-16;45;0;1.626323e-16;1.408437e-16;0;1.002876e-16;1.436607e-16;0;4.337309e-17;0.80789;0;0;0
1.173667;3.357313;0.799878;8.39567e-13;0;0;8.39567e-13;0;-4.440892e-16;-1.115034e-17;0;0;0;0;2.797901e-19;-4.44369e-16;2.223244e-16;45;0;2.964325e-16;2.963393e-16;0;5.154307e-17;-7.384374e-17;-4.440892e-16;-1.253868e-16;0.799878;-4.440892e-16;4.440892e-16;0
1.240832;3.357313;0.759402;8.39567e-13;0;0;8.39567e-13;0;0;-1.248324e-17;0;0;0;0;1.248324e-17;-1.248324e-17;1.248324e-17;45;0;1.664431e-17;1.44144e-17;0;-8.873375e-18;-1.60931e-17;0;-7.219722e-18;0.759402;0;0;0
1.307997;3.357313;0.695257;8.39567e-13;0;0;8.39567e-13;0;-1.110223e-16;1.254916e-17;0;0;0;0;1.400793e-18;-1.124231e-16;5.691195e-17;45;0;7.588259e-17;7.542e-17;0;9.200894e-18;1.589743e-17;-1.110223e-16;6.696535e-18;0.695257;-1.110223e-16;1.110223e-16;0
1.375163;3.357313;0.620581;8.39567e-13;0;0;8.39567e-13;0;0;-3.975655e-17;0;0;0;0;3.975655e-17;-3.975655e-17;3.975655e-17;45;0;5.300874e-17;4.590692e-17;0;-7.402566e-17;-5.487444e-18;0;6.853822e-17;0.620581;0;0;0
1.442328;3.357313;0.522626;8.39567e-13;0;0;8.39567e-13;2.220446e-16;-2.220446e-16;3.156848e-17;0;0;0;0;2.242775e-16;-2.242775e-16;2.242775e-16;45;0;2.990366e-16;2.589733e-16;2.220446e-16;1.105909e-16;-4.745394e-17;-2.220446e-16;-1.580448e-16;0.522626;0;0;0
-0.371137;3.290148;0.418806;8.39567e-13;0;0;8.39567e-13;0;0;-5.541389e-17;0;0;0;0;5.541389e-17;-5.541389e-17;5.541389e-17;45;0;7.388519e-17;6.398645e-17;0;-5.252435e-17;-5.830344e-17;0;-5.779082e-18;0.418806;0;0;0
-0.303971;3.290148;0.465939;8.39567e-13;0;0;8.39567e-13;0;-1.110223e-16;-2.758237e-17;0;0;0;0;6.474936e-18;-1.174972e-16;6.198609e-17;45;0;8.264811e-17;8.057657e-17;0;-3.42218e-17;-2.094294e-17;-1.110223e-16;1.327885e-17;0.465939;-1.110223e-16;1.110223e-16;0
-0.236806;3.290148;0.558523;8.39567e-13;0;0;8.39567e-13;2.220446e-16;-1.110223e-16;-4.04006e-17;0;0;0;0;2.268751e-16;-1.158528e-16;1.713639e-16;45;0;2.284853e-16;2.01305e-16;2.220446e-16;-8.729044e-17;6.489243e-18;-1.110223e-16;9.377968e-17;0.558523;1.110223e-16;-1.110223e-16;0
-0.169641;3.290148;0.631799;8.39567e-13;0;0;8.39567e-13;0;0;-1.367805e-17;0;0;0;0;1.367805e-17;-1.367805e-17;1.367805e-17;45;0;1.823739e-17;1.579405e-17;0;-3.09414e-17;3.585307e-18;0;3.45267e-17;0.631799;0;0;0
-0.102475;3.290148;0.692803;8.39567e-13;0;0;8.39567e-13;0;0;2.730441e-17;0;0;0;0;2.730441e-17;-2.730441e-17;2.730441e-17;45;0;3.640588e-17;3.152841e-17;0;2.422394e-17;3.038487e-17;0;6.160926e-18;0.692803;0;0;0
-0.03531;3.290148;0.757401;8.39567e-13;0;0;8.39567e-13;0;2.220446e-16;-2.007482e-17;0;0;0;0;2.238449e-16;-1.800347e-18;1.128226e-16;45;0;1.504302e-16;1.498337e-16;0;-4.014965e-17;0;2.220446e-16;4.014965e-17;0.757401;2.220446e-16;-2.220446e-16;0
0.031855;3.290148;0.816132;8.39567e-13;0;0;8.39567e-13;-1.110223e-16;-1.110223e-16;2.143304e-18;0;0;0;0;-1.08879e-16;-1.131656e-16;2.143304e-18;45;0;2.857739e-18;7.405624e-17;-1.110223e-16;2.197702e-17;-1.769041e-17;-1.110223e-16;-3.966742e-17;0.816132;-2.220446e-16;2.220446e-16;0
0.099021;3.290148;0.836843;8.39567e-13;0;0;8.39567e-13;-1.110223e-16;0;-3.684211e-17;0;0;0;0;1.111338e-17;-1.221357e-16;6.662453e-17;45;0;8.883271e-17;8.536972e-17;-1.110223e-16;-4.1001e-18;-6.958411e-17;0;-6.548401e-17;0.836843;-1.110223e-16;1.110223e-16;0
0.166186;3.290148;0.841677;8.39567e-13;0;0;8.39567e-13;-1.110223e-16;2.220446e-16;4.990213e-17;0;0;0;0;2.293606e-16;-1.183382e-16;1.738494e-16;45;0;2.317992e-16;2.041267e-16;-1.110223e-16;9.980426e-17;0;2.220446e-16;-9.980426e-17;0.841677;1.110223e-16;-1.110223e-16;0
0.233352;3.290148;0.878201;8.39567e-13;0;0;8.39567e-13;0;2.220446e-16;-3.36648e-17;0;0;0;0;2.270364e-16;-4.991793e-18;1.160141e-16;45;0;1.546855e-16;1.530487e-16;0;2.665621e-18;-6.999522e-17;2.220446e-16;-7.266084e-17;0.878201;2.220446e-16;-2.220446e-16;0
0.300517;3.290148;0.906901;8.39567e-13;0;0;8.39567e-13;-3.330669e-16;2.220446e-16;2.113784e-17;0;0;0;0;2.228483e-16;-3.338706e-16;2.783595e-16;45;0;3.71146e-16;3.235453e-16;-3.330669e-16;4.227569e-17;0;2.220446e-16;-4.227569e-17;0.906901;-1.110223e-16;1.110223e-16;0
0.367682;3.290148;0.923524;8.39567e-13;0;0;8.39567e-13;0;0;4.83573e-18;0;0;0;0;4.83573e-18;-4.83573e-18;4.83573e-18;45;0;6.44764e-18;5.58382e-18;0;-1.328861e-17;2.296007e-17;0;3.624868e-17;0.923524;0;0;0
0.434848;3.290148;0.940818;8.39567e-13;0;0;8.39567e-13;0;2.220446e-16;-1.584513e-17;0;0;0;0;2.231696e-16;-1.12501e-18;1.121473e-16;45;0;1.495297e-16;1.491562e-16;0;-1.893888e-17;-1.275138e-17;2.220446e-16;6.1875e-18;0.940818;2.220446e-16;-2.220446e-16;0
0.502013;3.290148;0.956104;8.39567e-13;0;0;8.39567e-13;-1.110223e-16;2.220446e-16;3.168098e-17;0;0;0;0;2.250313e-16;-1.14009e-16;1.695201e-16;45;0;2.260269e-16;1.992126e-16;-1.110223e-16;4.325985e-17;2.010212e-17;2.220446e-16;-2.315773e-17;0.956104;1.110223e-16;-1.110223e-16;0
0.569178;3.290148;0.981952;8.39567e-13;0;0;8.39567e-13;0;-1.110223e-16;3.29245e-18;0;0;0;0;9.755437e-20;-1.111199e-16;5.560871e-17;45;0;7.414494e-17;7.411244e-17;0;-1.625786e-17;2.284276e-17;-1.110223e-16;3.910062e-17;0.981952;-1.110223e-16;1.110223e-16;0
0.636344;3.290148;0.979128;8.39567e-13;0;0;8.39567e-13;-1.110223e-16;0;-4.914549e-17;0;0;0;0;1.862903e-17;-1.296513e-16;7.414019e-17;45;0;9.885358e-17;9.326614e-17;-1.110223e-16;-6.021023e-17;-3.808076e-17;0;2.212947e-17;0.979128;-1.110223e-16;1.110223e-16;0
0.703509;3.290148;0.98352;8.39567e-13;0;0;8.39567e-13;0;0;-1.662749e-18;0;0;0;0;1.662749e-18;-1.662749e-18;1.662749e-18;45;0;2.216999e-18;1.919977e-18;0;-1.484274e-17;1.151724e-17;0;2.635998e-17;0.98352;0;0;0
0.770674;3.290148;0.963312;8.39567e-13;0;0;8.39567e-13;-1.110223e-16;0;1.414349e-17;0;0;0;0;1.773456e-18;-1.127958e-16;5.728461e-17;45;0;7.637948e-17;7.579524e-17;-1.110223e-16;8.485991e-18;1.980099e-17;0;1.131499e-17;0.963312;-1.110223e-16;1.110223e-16;0
0.83784;3.290148;0.946041;8.39567e-13;0;0;8.39567e-13;-1.110223e-16;-1.110223e-16;-2.603351e-17;0;0;0;0;-8.498878e-17;-1.370558e-16;2.603351e-17;45;0;3.471135e-17;7.988654e-17;-1.110223e-16;-1.535251e-17;-3.671452e-17;-1.110223e-16;-2.1362e-17;0.946041;-2.220446e-16;2.220446e-16;0
0.905005;3.290148;0.935897;8.39567e-13;0;0;8.39567e-13;0;0;2.484539e-17;0;0;0;0;2.484539e-17;-2.484539e-17;2.484539e-17;45;0;3.312719e-17;2.868899e-17;0;7.912216e-17;-2.943138e-17;0;-1.085536e-16;0.935897;0;0;0
0.97217;3.290148;0.890088;8.39567e-13;0;0;8.39567e-13;2.220446e-16;-1.110223e-16;1.186581e-17;0;0;0;0;2.224668e-16;-1.114445e-16;1.669556e-16;45;0;2.226075e-16;1.963037e-16;2.220446e-16;7.216481e-18;1.651515e-17;-1.110223e-16;9.298667e-18;0.890088;1.110223e-16;-1.110223e-16;0
1.039336;3.290148;0.820791;8.39567e-13;0;0;8.39567e-13;-1.110223e-16;0;-1.605334e-17;0;0;0;0;2.274639e-18;-1.132969e-16;5.778579e-17;45;0;7.704772e-17;7.630081e-17;-1.110223e-16;-3.210668e-17;0;0;3.210668e-17;0.820791;-1.110223e-16;1.110223e-16;0
1.106501;3.290148;0.792342;8.39567e-13;0;0;8.39567e-13;0;2.220446e-16;-3.862167e-17;0;0;0;0;2.285705e-16;-6.525921e-18;1.175482e-16;45;0;1.56731e-16;1.546016e-16;0;-1.989722e-17;-5.734612e-17;2.220446e-16;-3.744889e-17;0.792342;2.220446e-16;-2.220446e-16;0
1.173667;3.290148;0.764685;8.39567e-13;0;0;8.39567e-13;2.220446e-16;2.220446e-16;1.997146e-17;0;0;0;0;2.420161e-16;2.020731e-16;1.997146e-17;45;0;2.662861e-17;1.498153e-16;2.220446e-16;1.270871e-17;2.723421e-17;2.220446e-16;1.45255e-17;0.764685;4.440892e-16;-4.440892e-16;0
1.240832;3.290148;0.735205;8.39567e-13;0;0;8.39567e-13;-2.220446e-16;0;-5.315921e-17;0;0;0;0;1.207056e-17;-2.341152e-16;1.230929e-16;45;0;1.641238e-16;1.602519e-16;-2.220446e-16;-5.541564e-17;-5.090279e-17;0;4.512852e-18;0.735205;-2.220446e-16;2.220446e-16;0
1.307997;3.290148;0.690894;8.39567e-13;0;0;8.39567e-13;-2.220446e-16;-1.110223e-16;-3.588868e-17;0;0;0;0;-1.004314e-16;-2.326355e-16;6.610208e-17;45;0;8.813611e-17;1.347291e-16;-2.220446e-16;-7.177735e-17;0;-1.110223e-16;7.177735e-17;0.690894;-3.330669e-16;3.330669e-16;0
1.375163;3.290148;0.607139;8.39567e-13;0;0;8.39567e-13;0;-1.110223e-16;6.623134e-18;0;0;0;0;3.937127e-19;-1.11416e-16;5.590486e-17;45;0;7.453982e-17;7.440893e-17;0;8.980066e-19;1.234826e-17;-1.110223e-16;1.145025e-17;0.607139;-1.110223e-16;1.110223e-16;0
1.442328;3.290148;0.509049;8.39567e-13;0;0;8.39567e-13;0;-2.220446e-16;-1.63204e-17;0;0;0;0;1.193147e-18;-2.232378e-16;1.122155e-16;45;0;1.496206e-16;1.492245e-16;0;1.44052e-19;-3.278486e-17;-2.220446e-16;-3.292891e-17;0.509049;-2.220446e-16;2.220446e-16;0
-0.371137;3.222982;0.398589;8.39567e-13;0;0;8.39567e-13;-1.110223e-16;0;1.316854e-16;0;0;0;0;8.739624e-17;-1.984185e-16;1.429074e-16;45;0;1.905432e-16;1.691141e-16;-1.110223e-16;1.443719e-16;1.189989e-16;0;-2.537298e-17;0.398589;-1.110223e-16;1.110223e-16;0
-0.303971;3.222982;0.468372;8.39567e-13;0;0;8.39567e-13;-2.220446e-16;0;5.566914e-18;0;0;0;0;1.394814e-19;-2.221841e-16;1.111618e-16;45;0;1.482157e-16;1.481692e-16;-2.220446e-16;3.11812e-17;-2.004737e-17;0;-5.122857e-17;0.468372;-2.220446e-16;2.220446e-16;0
-0.236806;3.222982;0.557152;8.39567e-13;0;0;8.39567e-13;2.220446e-16;2.220446e-16;-6.562085e-18;0;0;0;0;2.286067e-16;2.154825e-16;6.562085e-18;45;0;8.749447e-18;1.482235e-16;2.220446e-16;6.626e-18;-1.975017e-17;2.220446e-16;-2.637617e-17;0.557152;4.440892e-16;-4.440892e-16;0
-0.169641;3.222982;0.631401;8.39567e-13;0;0;8.39567e-13;-1.110223e-16;0;-2.853257e-17;0;0;0;0;6.903552e-18;-1.179259e-16;6.24147e-17;45;0;8.32196e-17;8.101652e-17;-1.110223e-16;-5.706513e-17;0;0;5.706513e-17;0.631401;-1.110223e-16;1.110223e-16;0
-0.102475;3.222982;0.691443;8.39567e-13;0;0;8.39567e-13;-2.220446e-16;2.220446e-16;-1.911532e-18;0;0;0;0;2.220528e-16;-2.220528e-16;2.220528e-16;45;0;2.960704e-16;2.564045e-16;-2.220446e-16;3.429769e-17;-3.812076e-17;2.220446e-16;-7.241845e-17;0.691443;0;0;0
-0.03531;3.222982;0.75561;8.39567e-13;0;0;8.39567e-13;2.220446e-16;2.220446e-16;2.688025e-17;0;0;0;0;2.489249e-16;1.951643e-16;2.688025e-17;45;0;3.584034e-17;1.512488e-16;2.220446e-16;2.130018e-17;3.246033e-17;2.220446e-16;1.116016e-17;0.75561;4.440892e-16;-4.440892e-16;0
0.031855;3.222982;0.787962;8.39567e-13;0;0;8.39567e-13;2.220446e-16;-1.110223e-16;-2.417214e-17;0;0;0;0;2.237897e-16;-1.127674e-16;1.682786e-16;45;0;2.243715e-16;1.978041e-16;2.220446e-16;-8.554632e-17;3.720204e-17;-1.110223e-16;1.227484e-16;0.787962;1.110223e-16;-1.110223e-16;0
0.099021;3.222982;0.805667;8.39567e-13;0;0;8.39567e-13;2.220446e-16;2.220446e-16;-5.953443e-17;0;0;0;0;2.81579e-16;1.625102e-16;5.953443e-17;45;0;7.937924e-17;1.632134e-16;2.220446e-16;-7.01608e-17;-4.890805e-17;2.220446e-16;2.125275e-17;0.805667;4.440892e-16;-4.440892e-16;0
0.166186;3.222982;0.82989;8.39567e-13;0;0;8.39567e-13;-1.110223e-16;2.220446e-16;-1.662857e-17;0;0;0;0;2.228727e-16;-1.118504e-16;1.673616e-16;45;0;2.231488e-16;1.96764e-16;-1.110223e-16;-2.400428e-17;-9.252858e-18;2.220446e-16;1.475142e-17;0.82989;1.110223e-16;-1.110223e-16;0
0.233352;3.222982;0.869963;8.39567e-13;0;0;8.39567e-13;2.220446e-16;0;1.412193e-17;0;0;0;0;2.229392e-16;-8.945434e-19;1.119168e-16;45;0;1.492225e-16;1.489252e-16;2.220446e-16;1.143327e-17;1.681058e-17;0;5.377303e-18;0.869963;2.220446e-16;-2.220446e-16;0
0.300517;3.222982;0.911727;8.39567e-13;0;0;8.39567e-13;-1.110223e-16;0;1.732399e-17;0;0;0;0;2.640448e-18;-1.136628e-16;5.81516e-17;45;0;7.753546e-17;7.667047e-17;-1.110223e-16;4.841453e-17;-1.376656e-17;0;-6.218109e-17;0.911727;-1.110223e-16;1.110223e-16;0
0.367682;3.222982;0.93815;8.39567e-13;0;0;8.39567e-13;0;2.220446e-16;-1.842703e-17;0;0;0;0;2.235634e-16;-1.518833e-18;1.125411e-16;45;0;1.500549e-16;1.495511e-16;0;9.129648e-18;-4.598372e-17;2.220446e-16;-5.511337e-17;0.93815;2.220446e-16;-2.220446e-16;0
0.434848;3.222982;0.929994;8.39567e-13;0;0;8.39567e-13;0;-3.330669e-16;1.803356e-17;0;0;0;0;9.73563e-19;-3.340405e-16;1.67507e-16;45;0;2.233427e-16;2.230189e-16;0;1.53908e-17;2.067633e-17;-3.330669e-16;5.285525e-18;0.929994;-3.330669e-16;3.330669e-16;0
0.502013;3.222982;0.927531;8.39567e-13;0;0;8.39567e-13;2.220446e-16;-1.110223e-16;3.935274e-18;0;0;0;0;2.220911e-16;-1.110688e-16;1.665799e-16;45;0;2.221066e-16;1.958777e-16;2.220446e-16;-2.187383e-17;2.974438e-17;-1.110223e-16;5.161821e-17;0.927531;1.110223e-16;-1.110223e-16;0
0.569178;3.222982;0.957682;8.39567e-13;0;0;8.39567e-13;2.220446e-16;2.220446e-16;-2.719974e-17;0;0;0;0;2.492443e-16;1.948449e-16;2.719974e-17;45;0;3.626632e-17;1.513249e-16;2.220446e-16;-9.311196e-18;-4.508829e-17;2.220446e-16;-3.577709e-17;0.957682;4.440892e-16;-4.440892e-16;0
0.636344;3.222982;0.958476;8.39567e-13;0;0;8.39567e-13;-1.110223e-16;0;1.030487e-17;0;0;0;0;9.483768e-19;-1.119707e-16;5.645953e-17;45;0;7.527937e-17;7.496525e-17;-1.110223e-16;8.99453e-18;1.161522e-17;0;2.620686e-18;0.958476;-1.110223e-16;1.110223e-16;0
0.703509;3.222982;0.970549;8.39567e-13;0;0;8.39567e-13;0;2.220446e-16;-1.958369e-18;0;0;0;0;2.220619e-16;-1.72709e-20;1.110396e-16;45;0;1.480528e-16;1.48047e-16;0;-6.872999e-19;-3.229438e-18;2.220446e-16;-2.542138e-18;0.970549;2.220446e-16;-2.220446e-16;0
0.770674;3.222982;0.966261;8.39567e-13;0;0;8.39567e-13;0;2.220446e-16;-1.343948e-17;0;0;0;0;2.228551e-16;-8.104807e-19;1.118328e-16;45;0;1.491104e-16;1.488409e-16;0;-2.188411e-17;-4.994859e-18;2.220446e-16;1.688925e-17;0.966261;2.220446e-16;-2.220446e-16;0
0.83784;3.222982;0.932229;8.39567e-13;0;0;8.39567e-13;2.220446e-16;2.220446e-16;1.841748e-17;0;0;0;0;2.404621e-16;2.036271e-16;1.841748e-17;45;0;2.455663e-17;1.495496e-16;2.220446e-16;1.23889e-17;2.444605e-17;2.220446e-16;1.205715e-17;0.932229;4.440892e-16;-4.440892e-16;0
0.905005;3.222982;0.911478;8.39567e-13;0;0;8.39567e-13;0;-1.110223e-16;-2.677761e-18;0;0;0;0;6.454775e-20;-1.110868e-16;5.55757e-17;45;0;7.410093e-17;7.407942e-17;0;2.338035e-17;-2.873587e-17;-1.110223e-16;-5.211622e-17;0.911478;-1.110223e-16;1.110223e-16;0
0.97217;3.222982;0.884398;8.39567e-13;0;0;8.39567e-13;0;-1.110223e-16;-4.222759e-17;0;0;0;0;1.423594e-17;-1.252582e-16;6.97471e-17;45;0;9.299612e-17;8.863272e-17;0;-6.658586e-17;-1.786931e-17;-1.110223e-16;4.871655e-17;0.884398;-1.110223e-16;1.110223e-16;0
1.039336;3.222982;0.846523;8.39567e-13;0;0;8.39567e-13;0;2.220446e-16;-1.610768e-17;0;0;0;0;2.23207e-16;-1.162407e-18;1.121847e-16;45;0;1.495796e-16;1.491937e-16;0;-1.842624e-17;-1.378913e-17;2.220446e-16;4.637102e-18;0.846523;2.220446e-16;-2.220446e-16;0
1.106501;3.222982;0.823551;8.39567e-13;0;0;8.39567e-13;0;0;2.301424e-17;0;0;0;0;2.301424e-17;-2.301424e-17;2.301424e-17;45;0;3.068565e-17;2.657455e-17;0;-7.259613e-18;5.328809e-17;0;6.05477e-17;0.823551;0;0;0
1.173667;3.222982;0.765878;8.39567e-13;0;0;8.39567e-13;-1.110223e-16;0;7.549824e-18;0;0;0;0;5.110565e-19;-1.115334e-16;5.602221e-17;45;0;7.469628e-17;7.452651e-17;-1.110223e-16;2.89873e-18;1.220092e-17;0;9.302188e-18;0.765878;-1.110223e-16;1.110223e-16;0
1.240832;3.222982;0.704838;8.39567e-13;0;0;8.39567e-13;0;2.220446e-16;-3.401161e-17;0;0;0;0;2.271375e-16;-5.092904e-18;1.161152e-16;45;0;1.548203e-16;1.531509e-16;0;-3.573113e-17;-3.229209e-17;2.220446e-16;3.439035e-18;0.704838;2.220446e-16;-2.220446e-16;0
1.307997;3.222982;0.657579;8.39567e-13;0;0;8.39567e-13;2.220446e-16;2.220446e-16;5.26725e-17;0;0;0;0;2.747171e-16;1.693721e-16;5.26725e-17;45;0;7.023e-17;1.600375e-16;2.220446e-16;5.98317e-17;4.55133e-17;2.220446e-16;-1.43184e-17;0.657579;4.440892e-16;-4.440892e-16;0
1.375163;3.222982;0.591061;8.39567e-13;0;0;8.39567e-13;0;2.220446e-16;-4.594449e-18;0;0;0;0;2.221396e-16;-9.502565e-20;1.111173e-16;45;0;1.481564e-16;1.481248e-16;0;-3.432557e-17;2.513668e-17;2.220446e-16;5.946225e-17;0.591061;2.220446e-16;-2.220446e-16;0
1.442328;3.222982;0.48729;8.39567e-13;0;0;8.39567e-13;0;-2.220446e-16;2.782455e-17;0;0;0;0;3.433615e-18;-2.254782e-16;1.144559e-16;45;0;1.526079e-16;1.514763e-16;0;8.538434e-18;4.711066e-17;-2.220446e-16;3.857223e-17;0.48729;-2.220446e-16;2.220446e-16;0
-0.371137;3.155817;0.362157;8.39567e-13;0;0;8.39567e-13;-1.110223e-16;2.220446e-16;1.12904e-16;0;0;0;0;2.567093e-16;-1.45687e-16;2.011982e-16;45;0;2.682642e-16;2.352527e-16;-1.110223e-16;1.309704e-16;9.483757e-17;2.220446e-16;-3.613287e-17;0.362157;1.110223e-16;-1.110223e-16;0
-0.303971;3.155817;0.467504;8.39567e-13;0;0;8.39567e-13;0;2.220446e-16;-4.753907e-17;0;0;0;0;2.317945e-16;-9.749859e-18;1.207722e-16;45;0;1.610296e-16;1.5788e-16;0;-3.289521e-17;-6.218293e-17;2.220446e-16;-2.928772e-17;0.467504;2.220446e-16;-2.220446e-16;0
-0.236806;3.155817;0.52941;8.39567e-13;0;0;8.39567e-13;-2.220446e-16;0;1.281948e-17;0;0;0;0;7.376665e-19;-2.227823e-16;1.1176e-16;45;0;1.490133e-16;1.48768e-16;-2.220446e-16;7.91078e-17;-5.346884e-17;0;-1.325766e-16;0.52941;-2.220446e-16;2.220446e-16;0
-0.169641;3.155817;0.614474;8.39567e-13;0;0;8.39567e-13;0;0;3.042649e-17;0;0;0;0;3.042649e-17;-3.042649e-17;3.042649e-17;45;0;4.056866e-17;3.513349e-17;0;4.719011e-17;1.366287e-17;0;-3.352724e-17;0.614474;0;0;0
-0.102475;3.155817;0.677733;8.39567e-13;0;0;8.39567e-13;0;0;-7.479891e-18;0;0;0;0;7.479891e-18;-7.479891e-18;7.479891e-18;45;0;9.973187e-18;8.637034e-18;0;-2.654447e-17;1.158469e-17;0;3.812916e-17;0.677733;0;0;0
-0.03531;3.155817;0.725597;8.39567e-13;0;0;8.39567e-13;0;0;-1.620845e-17;0;0;0;0;1.620845e-17;-1.620845e-17;1.620845e-17;45;0;2.161126e-17;1.87159e-17;0;-4.947664e-17;1.705975e-17;0;6.653638e-17;0.725597;0;0;0
0.031855;3.155817;0.766934;8.39567e-13;0;0;8.39567e-13;-1.110223e-16;-1.110223e-16;-1.720379e-17;0;0;0;0;-9.381851e-17;-1.282261e-16;1.720379e-17;45;0;2.293838e-17;7.663438e-17;-1.110223e-16;-1.151605e-17;-2.289153e-17;-1.110223e-16;-1.137548e-17;0.766934;-2.220446e-16;2.220446e-16;0
0.099021;3.155817;0.796455;8.39567e-13;0;0;8.39567e-13;0;0;1.179652e-17;0;0;0;0;1.179652e-17;-1.179652e-17;1.179652e-17;45;0;1.57287e-17;1.362145e-17;0;3.52437e-17;-1.165066e-17;0;-4.689436e-17;0.796455;0;0;0
0.166186;3.155817;0.832166;8.39567e-13;0;0;8.39567e-13;2.220446e-16;0;5.065105e-18;0;0;0;0;2.221601e-16;-1.154811e-19;1.111378e-16;45;0;1.481837e-16;1.481452e-16;2.220446e-16;3.648475e-17;-2.635454e-17;0;-6.28393e-17;0.832166;2.220446e-16;-2.220446e-16;0
0.233352;3.155817;0.885319;8.39567e-13;0;0;8.39567e-13;-1.110223e-16;-4.440892e-16;-2.061043e-17;0;0;0;0;-1.097518e-16;-4.453598e-16;1.67804e-16;45;0;2.237387e-16;2.679235e-16;-1.110223e-16;-3.223507e-17;-8.98578e-18;-4.440892e-16;2.324929e-17;0.885319;-5.551115e-16;5.551115e-16;0
0.300517;3.155817;0.906004;8.39567e-13;0;0;8.39567e-13;-1.110223e-16;-1.110223e-16;1.797336e-18;0;0;0;0;-1.09225e-16;-1.128196e-16;1.797336e-18;45;0;2.396447e-18;7.404396e-17;-1.110223e-16;2.593423e-17;-2.233956e-17;-1.110223e-16;-4.82738e-17;0.906004;-2.220446e-16;2.220446e-16;0
0.367682;3.155817;0.912811;8.39567e-13;0;0;8.39567e-13;0;2.220446e-16;1.864879e-17;0;0;0;0;2.236e-16;-1.555355e-18;1.125777e-16;45;0;1.501035e-16;1.495878e-16;0;5.111083e-18;3.218649e-17;2.220446e-16;2.707541e-17;0.912811;2.220446e-16;-2.220446e-16;0
0.434848;3.155817;0.909626;8.39567e-13;0;0;8.39567e-13;0;0;-3.681033e-17;0;0;0;0;3.681033e-17;-3.681033e-17;3.681033e-17;45;0;4.908044e-17;4.250491e-17;0;-2.526413e-17;-4.835653e-17;0;-2.30924e-17;0.909626;0;0;0
0.502013;3.155817;0.921546;8.39567e-13;0;0;8.39567e-13;0;0;-1.111175e-17;0;0;0;0;1.111175e-17;-1.111175e-17;1.111175e-17;45;0;1.481567e-17;1.283075e-17;0;-2.725014e-17;5.026636e-18;0;3.227678e-17;0.921546;0;0;0
0.569178;3.155817;0.96268;8.39567e-13;0;0;8.39567e-13;-1.110223e-16;2.220446e-16;-6.004894e-18;0;0;0;0;2.221528e-16;-1.111305e-16;1.666417e-16;45;0;2.221889e-16;1.959477e-16;-1.110223e-16;7.92888e-18;-1.993867e-17;2.220446e-16;-2.786755e-17;0.96268;1.110223e-16;-1.110223e-16;0
0.636344;3.155817;0.966818;8.39567e-13;0;0;8.39567e-13;0;0;-1.081519e-17;0;0;0;0;1.081519e-17;-1.081519e-17;1.081519e-17;45;0;1.442025e-17;1.248831e-17;0;-6.619517e-17;4.456479e-17;0;1.1076e-16;0.966818;0;0;0
0.703509;3.155817;0.95421;8.39567e-13;0;0;8.39567e-13;2.220446e-16;-1.110223e-16;-2.109707e-17;0;0;0;0;2.233756e-16;-1.123533e-16;1.678645e-16;45;0;2.238193e-16;1.973344e-16;2.220446e-16;-2.799686e-17;-1.419729e-17;-1.110223e-16;1.379957e-17;0.95421;1.110223e-16;-1.110223e-16;0
0.770674;3.155817;0.950183;8.39567e-13;0;0;8.39567e-13;2.220446e-16;2.220446e-16;2.202711e-18;0;0;0;0;2.242473e-16;2.198419e-16;2.202711e-18;45;0;2.936949e-18;1.480516e-16;2.220446e-16;1.452671e-17;-1.012128e-17;2.220446e-16;-2.464799e-17;0.950183;4.440892e-16;-4.440892e-16;0
0.83784;3.155817;0.932678;8.39567e-13;0;0;8.39567e-13;2.220446e-16;0;2.186273e-18;0;0;0;0;2.220661e-16;-2.152418e-20;1.110438e-16;45;0;1.480584e-16;1.480513e-16;2.220446e-16;1.910897e-17;-1.473642e-17;0;-3.384539e-17;0.932678;2.220446e-16;-2.220446e-16;0
0.905005;3.155817;0.910254;8.39567e-13;0;0;8.39567e-13;2.220446e-16;-3.330669e-16;4.067243e-18;0;0;0;0;2.220744e-16;-3.330967e-16;2.775856e-16;45;0;3.701141e-16;3.226575e-16;2.220446e-16;3.375464e-18;4.759022e-18;-3.330669e-16;1.383558e-18;0.910254;-1.110223e-16;1.110223e-16;0
0.97217;3.155817;0.869495;8.39567e-13;0;0;8.39567e-13;2.220446e-16;2.220446e-16;7.994188e-17;0;0;0;0;3.019865e-16;1.421027e-16;7.994188e-17;45;0;1.065892e-16;1.744527e-16;2.220446e-16;9.029739e-17;6.958638e-17;2.220446e-16;-2.071101e-17;0.869495;4.440892e-16;-4.440892e-16;0
1.039336;3.155817;0.843585;8.39567e-13;0;0;8.39567e-13;-3.330669e-16;-1.110223e-16;-3.12869e-17;0;0;0;0;-1.066981e-16;-3.373911e-16;1.153465e-16;45;0;1.537954e-16;1.991295e-16;-3.330669e-16;-2.451516e-17;-3.805863e-17;-1.110223e-16;-1.354347e-17;0.843585;-4.440892e-16;4.440892e-16;0
1.106501;3.155817;0.81799;8.39567e-13;0;0;8.39567e-13;-1.110223e-16;0;-1.495602e-17;0;0;0;0;1.97946e-18;-1.130018e-16;5.749061e-17;45;0;7.665415e-17;7.600292e-17;-1.110223e-16;-1.226226e-17;-1.764978e-17;0;-5.387526e-18;0.81799;-1.110223e-16;1.110223e-16;0
1.173667;3.155817;0.762898;8.39567e-13;0;0;8.39567e-13;-1.110223e-16;-1.110223e-16;4.344445e-18;0;0;0;0;-1.066779e-16;-1.153667e-16;4.344445e-18;45;0;5.792593e-18;7.418467e-17;-1.110223e-16;3.253703e-17;-2.384814e-17;-1.110223e-16;-5.638516e-17;0.762898;-2.220446e-16;2.220446e-16;0
1.240832;3.155817;0.702769;8.39567e-13;0;0;8.39567e-13;0;-1.110223e-16;3.096682e-17;0;0;0;0;8.053241e-18;-1.190755e-16;6.356439e-17;45;0;8.475252e-17;8.219971e-17;0;3.919676e-17;2.273688e-17;-1.110223e-16;-1.645988e-17;0.702769;-1.110223e-16;1.110223e-16;0
1.307997;3.155817;0.639741;8.39567e-13;0;0;8.39567e-13;-1.110223e-16;-1.110223e-16;-6.947655e-18;0;0;0;0;-1.040746e-16;-1.1797e-16;6.947655e-18;45;0;9.263539e-18;7.444837e-17;-1.110223e-16;-2.889813e-17;1.500282e-17;-1.110223e-16;4.390094e-17;0.639741;-2.220446e-16;2.220446e-16;0
1.375163;3.155817;0.576102;8.39567e-13;0;0;8.39567e-13;-4.440892e-16;0;-4.717562e-17;0;0;0;0;4.956156e-18;-4.490454e-16;2.270008e-16;45;0;3.026677e-16;3.010292e-16;-4.440892e-16;-8.095726e-17;-1.339397e-17;0;6.756329e-17;0.576102;-4.440892e-16;4.440892e-16;0
1.442328;3.155817;0.477744;8.39567e-13;0;0;8.39567e-13;0;-3.330669e-16;-3.240483e-17;0;0;0;0;3.123448e-18;-3.361904e-16;1.696569e-16;45;0;2.262092e-16;2.251753e-16;0;-6.534046e-19;-6.415625e-17;-3.330669e-16;-6.350285e-17;0.477744;-3.330669e-16;3.330669e-16;0
-0.371137;3.088652;0.325663;8.39567e-13;0;0;8.39567e-13;2.220446e-16;2.220446e-16;-3.891771e-17;0;0;0;0;2.609623e-16;1.831269e-16;3.891771e-17;45;0;5.189027e-17;1.547005e-16;2.220446e-16;-6.340655e-17;-1.442886e-17;2.220446e-16;4.897769e-17;0.325663;4.440892e-16;-4.440892e-16;0
-0.303971;3.088652;0.438563;8.39567e-13;0;0;8.39567e-13;0;0;3.071285e-17;0;0;0;0;3.071285e-17;-3.071285e-17;3.071285e-17;45;0;4.095046e-17;3.546414e-17;0;7.329855e-17;-1.187286e-17;0;-8.517141e-17;0.438563;0;0;0
-0.236806;3.088652;0.517474;8.39567e-13;0;0;8.39567e-13;-2.220446e-16;-3.330669e-16;2.264995e-17;0;0;0;0;-2.176015e-16;-3.3751e-16;5.995422e-17;45;0;7.993895e-17;1.975637e-16;-2.220446e-16;6.462364e-17;-1.932374e-17;-3.330669e-16;-8.394738e-17;0.517474;-5.551115e-16;5.551115e-16;0
-0.169641;3.088652;0.604878;8.39567e-13;0;0;8.39567e-13;2.220446e-16;0;-1.676695e-17;0;0;0;0;2.233036e-16;-1.258962e-18;1.122813e-16;45;0;1.497083e-16;1.492905e-16;2.220446e-16;-2.227911e-17;-1.125479e-17;0;1.102431e-17;0.604878;2.220446e-16;-2.220446e-16;0
-0.102475;3.088652;0.689186;8.39567e-13;0;0;8.39567e-13;-2.220446e-16;0;-1.249423e-17;0;0;0;0;7.008265e-19;-2.227454e-16;1.117231e-16;45;0;1.489642e-16;1.487311e-16;-2.220446e-16;-4.379172e-17;1.880325e-17;0;6.259497e-17;0.689186;-2.220446e-16;2.220446e-16;0
-0.03531;3.088652;0.732389;8.39567e-13;0;0;8.39567e-13;-1.110223e-16;0;5.840215e-17;0;0;0;0;2.506365e-17;-1.36086e-16;8.05748e-17;45;0;1.074331e-16;1.001297e-16;-1.110223e-16;5.772873e-17;5.907557e-17;0;1.346842e-18;0.732389;-1.110223e-16;1.110223e-16;0
0.031855;3.088652;0.772521;8.39567e-13;0;0;8.39567e-13;0;-1.110223e-16;2.650069e-17;0;0;0;0;6.001242e-18;-1.170235e-16;6.151239e-17;45;0;8.201653e-17;8.009109e-17;0;1.234277e-17;4.065862e-17;-1.110223e-16;2.831585e-17;0.772521;-1.110223e-16;1.110223e-16;0
0.099021;3.088652;0.814678;8.39567e-13;0;0;8.39567e-13;2.220446e-16;0;-2.521208e-17;0;0;0;0;2.248713e-16;-2.826722e-18;1.13849e-16;45;0;1.517987e-16;1.508653e-16;2.220446e-16;-2.824918e-17;-2.217497e-17;0;6.074214e-18;0.814678;2.220446e-16;-2.220446e-16;0
0.166186;3.088652;0.850322;8.39567e-13;0;0;8.39567e-13;2.220446e-16;0;-6.053012e-18;0;0;0;0;2.222095e-16;-1.648847e-19;1.111872e-16;45;0;1.482496e-16;1.481946e-16;2.220446e-16;-3.388951e-18;-8.717072e-18;0;-5.328121e-18;0.850322;2.220446e-16;-2.220446e-16;0
0.233352;3.088652;0.895002;8.39567e-13;0;0;8.39567e-13;4.440892e-16;0;-9.94778e-18;0;0;0;0;4.443119e-16;-2.227226e-19;2.222673e-16;45;0;2.963564e-16;2.962822e-16;4.440892e-16;-1.538578e-17;-4.50978e-18;0;1.0876e-17;0.895002;4.440892e-16;-4.440892e-16;0
0.300517;3.088652;0.918408;8.39567e-13;0;0;8.39567e-13;-1.110223e-16;2.220446e-16;1.012946e-18;0;0;0;0;2.220477e-16;-1.110254e-16;1.665365e-16;45;0;2.220487e-16;1.958284e-16;-1.110223e-16;-1.995438e-17;2.198027e-17;2.220446e-16;4.193465e-17;0.918408;1.110223e-16;-1.110223e-16;0
0.367682;3.088652;0.929402;8.39567e-13;0;0;8.39567e-13;2.220446e-16;2.220446e-16;-3.149624e-17;0;0;0;0;2.535408e-16;1.905484e-16;3.149624e-17;45;0;4.199498e-17;1.524319e-16;2.220446e-16;-6.299247e-17;0;2.220446e-16;6.299247e-17;0.929402;4.440892e-16;-4.440892e-16;0
0.434848;3.088652;0.936672;8.39567e-13;0;0;8.39567e-13;0;2.220446e-16;-6.44676e-19;0;0;0;0;2.220465e-16;-1.871712e-21;1.110242e-16;45;0;1.480322e-16;1.480316e-16;0;1.549238e-17;-1.678173e-17;2.220446e-16;-3.227412e-17;0.936672;2.220446e-16;-2.220446e-16;0
0.502013;3.088652;0.923601;8.39567e-13;0;0;8.39567e-13;0;0;-5.627758e-18;0;0;0;0;5.627758e-18;-5.627758e-18;5.627758e-18;45;0;7.503678e-18;6.498376e-18;0;-7.38144e-18;-3.874077e-18;0;3.507363e-18;0.923601;0;0;0
0.569178;3.088652;0.922166;8.39567e-13;0;0;8.39567e-13;0;2.220446e-16;1.383721e-17;0;0;0;0;2.229036e-16;-8.589741e-19;1.118813e-16;45;0;1.49175e-16;1.488895e-16;0;-5.555942e-19;2.823002e-17;2.220446e-16;2.878561e-17;0.922166;2.220446e-16;-2.220446e-16;0
0.636344;3.088652;0.932951;8.39567e-13;0;0;8.39567e-13;-3.330669e-16;2.220446e-16;-1.329368e-17;0;0;0;0;2.223628e-16;-3.333851e-16;2.778739e-16;45;0;3.704986e-16;3.229883e-16;-3.330669e-16;9.375759e-18;-3.596311e-17;2.220446e-16;-4.533887e-17;0.932951;-1.110223e-16;1.110223e-16;0
0.703509;3.088652;0.940344;8.39567e-13;0;0;8.39567e-13;0;0;2.010226e-17;0;0;0;0;2.010226e-17;-2.010226e-17;2.010226e-17;45;0;2.680301e-17;2.321209e-17;0;5.2468e-17;-1.226348e-17;0;-6.473148e-17;0.940344;0;0;0
0.770674;3.088652;0.937591;8.39567e-13;0;0;8.39567e-13;0;-1.110223e-16;1.419527e-17;0;0;0;0;1.786263e-18;-1.128086e-16;5.729741e-17;45;0;7.639656e-17;7.580815e-17;0;2.355428e-17;4.836262e-18;-1.110223e-16;-1.871802e-17;0.937591;-1.110223e-16;1.110223e-16;0
0.83784;3.088652;0.913056;8.39567e-13;0;0;8.39567e-13;0;-1.110223e-16;4.259618e-18;0;0;0;0;1.631898e-19;-1.111855e-16;5.567434e-17;45;0;7.423245e-17;7.417812e-17;0;-1.586e-17;2.437923e-17;-1.110223e-16;4.023923e-17;0.913056;-1.110223e-16;1.110223e-16;0
0.905005;3.088652;0.899425;8.39567e-13;0;0;8.39567e-13;2.220446e-16;-1.110223e-16;-1.26846e-17;0;0;0;0;2.22527e-16;-1.115047e-16;1.670158e-16;45;0;2.226878e-16;1.963719e-16;2.220446e-16;-1.575578e-17;-9.613428e-18;-1.110223e-16;6.142349e-18;0.899425;1.110223e-16;-1.110223e-16;0
0.97217;3.088652;0.867083;8.39567e-13;0;0;8.39567e-13;-1.110223e-16;-1.110223e-16;-1.626543e-17;0;0;0;0;-9.475687e-17;-1.272877e-16;1.626543e-17;45;0;2.168724e-17;7.636068e-17;-1.110223e-16;-2.784774e-17;-4.683113e-18;-1.110223e-16;2.316463e-17;0.867083;-2.220446e-16;2.220446e-16;0
1.039336;3.088652;0.838017;8.39567e-13;0;0;8.39567e-13;0;0;-3.012514e-17;0;0;0;0;3.012514e-17;-3.012514e-17;3.012514e-17;45;0;4.016685e-17;3.478552e-17;0;-5.076061e-17;-9.489672e-18;0;4.127094e-17;0.838017;0;0;0
1.106501;3.088652;0.802816;8.39567e-13;0;0;8.39567e-13;0;2.220446e-16;-1.086691e-18;0;0;0;0;2.220499e-16;-5.318163e-21;1.110276e-16;45;0;1.480368e-16;1.48035e-16;0;-3.385355e-17;3.168017e-17;2.220446e-16;6.553372e-17;0.802816;2.220446e-16;-2.220446e-16;0
1.173667;3.088652;0.761285;8.39567e-13;0;0;8.39567e-13;0;0;-2.117235e-17;0;0;0;0;2.117235e-17;-2.117235e-17;2.117235e-17;45;0;2.82298e-17;2.444772e-17;0;-2.13986e-17;-2.09461e-17;0;4.524983e-19;0.761285;0;0;0
1.240832;3.088652;0.70898;8.39567e-13;0;0;8.39567e-13;2.220446e-16;-1.110223e-16;2.349554e-17;0;0;0;0;2.236939e-16;-1.126716e-16;1.681827e-16;45;0;2.242436e-16;1.976954e-16;2.220446e-16;3.233627e-17;1.465481e-17;-1.110223e-16;-1.768145e-17;0.70898;1.110223e-16;-1.110223e-16;0
1.307997;3.088652;0.620756;8.39567e-13;0;0;8.39567e-13;2.220446e-16;2.220446e-16;-7.881322e-17;0;0;0;0;3.008578e-16;1.432314e-16;7.881322e-17;45;0;1.050843e-16;1.737666e-16;2.220446e-16;-1.149601e-16;-4.26663e-17;2.220446e-16;7.229383e-17;0.620756;4.440892e-16;-4.440892e-16;0
1.375163;3.088652;0.574243;8.39567e-13;0;0;8.39567e-13;0;0;-4.059365e-17;0;0;0;0;4.059365e-17;-4.059365e-17;4.059365e-17;45;0;5.412487e-17;4.687351e-17;0;-3.576756e-17;-4.541973e-17;0;-9.652169e-18;0.574243;0;0;0
1.442328;3.088652;0.497893;8.39567e-13;0;0;8.39567e-13;0;2.220446e-16;5.6114e-17;0;0;0;0;2.354198e-16;-1.337518e-17;1.243975e-16;45;0;1.658633e-16;1.615895e-16;0;6.236344e-17;4.986457e-17;2.220446e-16;-1.249887e-17;0.497893;2.220446e-16;-2.220446e-16;0
-0.371137;3.021486;0.319104;8.39567e-13;0;0;8.39567e-13;0;-2.220446e-16;1.358452e-17;0;0;0;0;8.280036e-19;-2.228726e-16;1.118503e-16;45;0;1.491337e-16;1.488585e-16;0;2.523232e-17;1.936734e-18;-2.220446e-16;-2.329558e-17;0.319104;-2.220446e-16;2.220446e-16;0
-0.303971;3.021486;0.419895;8.39567e-13;0;0;8.39567e-13;0;0;3.123923e-17;0;0;0;0;3.123923e-17;-3.123923e-17;3.123923e-17;45;0;4.165231e-17;3.607195e-17;0;3.257658e-17;2.990188e-17;0;-2.674702e-18;0.419895;0;0;0
-0.236806;3.021486;0.513558;8.39567e-13;0;0;8.39567e-13;2.220446e-16;2.220446e-16;-3.293328e-17;0;0;0;0;2.549779e-16;1.891113e-16;3.293328e-17;45;0;4.391104e-17;1.528363e-16;2.220446e-16;-3.480853e-17;-3.105803e-17;2.220446e-16;3.750507e-18;0.513558;4.440892e-16;-4.440892e-16;0
-0.169641;3.021486;0.607522;8.39567e-13;0;0;8.39567e-13;0;0;1.183473e-17;0;0;0;0;1.183473e-17;-1.183473e-17;1.183473e-17;45;0;1.577964e-17;1.366557e-17;0;2.997148e-17;-6.302015e-18;0;-3.627349e-17;0.607522;0;0;0
-0.102475;3.021486;0.693971;8.39567e-13;0;0;8.39567e-13;0;0;2.463082e-17;0;0;0;0;2.463082e-17;-2.463082e-17;2.463082e-17;45;0;3.284109e-17;2.844122e-17;0;3.473319e-17;1.452845e-17;0;-2.020474e-17;0.693971;0;0;0
-0.03531;3.021486;0.732117;8.39567e-13;0;0;8.39567e-13;-3.330669e-16;2.220446e-16;8.237912e-18;0;0;0;0;2.221668e-16;-3.331891e-16;2.77678e-16;45;0;3.702373e-16;3.227635e-16;-3.330669e-16;1.195027e-17;4.525557e-18;2.220446e-16;-7.424709e-18;0.732117;-1.110223e-16;1.110223e-16;0
0.031855;3.021486;0.747132;8.39567e-13;0;0;8.39567e-13;0;-1.110223e-16;-3.840038e-17;0;0;0;0;1.198757e-17;-1.230099e-16;6.749872e-17;45;0;8.999829e-17;8.628047e-17;0;-3.468751e-17;-4.211325e-17;-1.110223e-16;-7.42574e-18;0.747132;-1.110223e-16;1.110223e-16;0
0.099021;3.021486;0.783521;8.39567e-13;0;0;8.39567e-13;-1.110223e-16;-3.330669e-16;2.529009e-17;0;0;0;0;-1.081783e-16;-3.359109e-16;1.138663e-16;45;0;1.518218e-16;1.979904e-16;-1.110223e-16;5.058017e-17;0;-3.330669e-16;-5.058017e-17;0.783521;-4.440892e-16;4.440892e-16;0
0.166186;3.021486;0.831891;8.39567e-13;0;0;8.39567e-13;0;2.220446e-16;3.244738e-17;0;0;0;0;2.26689e-16;-4.644391e-18;1.156667e-16;45;0;1.542223e-16;1.526977e-16;0;5.611426e-17;8.780498e-18;2.220446e-16;-4.733376e-17;0.831891;2.220446e-16;-2.220446e-16;0
0.233352;3.021486;0.866989;8.39567e-13;0;0;8.39567e-13;2.220446e-16;-1.110223e-16;-3.226007e-17;0;0;0;0;2.251405e-16;-1.141182e-16;1.696293e-16;45;0;2.261724e-16;1.993365e-16;2.220446e-16;-6.452015e-17;0;-1.110223e-16;6.452015e-17;0.866989;1.110223e-16;-1.110223e-16;0
0.300517;3.021486;0.908017;8.39567e-13;0;0;8.39567e-13;0;2.220446e-16;-3.046792e-17;0;0;0;0;2.261494e-16;-4.104782e-18;1.151271e-16;45;0;1.535028e-16;1.52153e-16;0;-1.557207e-17;-4.536377e-17;2.220446e-16;-2.979171e-17;0.908017;2.220446e-16;-2.220446e-16;0
0.367682;3.021486;0.95438;8.39567e-13;0;0;8.39567e-13;-1.110223e-16;2.220446e-16;4.326635e-17;0;0;0;0;2.275733e-16;-1.16551e-16;1.720621e-16;45;0;2.294161e-16;2.020974e-16;-1.110223e-16;5.576204e-17;3.077066e-17;2.220446e-16;-2.499137e-17;0.95438;1.110223e-16;-1.110223e-16;0
0.434848;3.021486;0.970795;8.39567e-13;0;0;8.39567e-13;2.220446e-16;0;7.320409e-19;0;0;0;0;2.22047e-16;-2.41338e-21;1.110247e-16;45;0;1.48033e-16;1.480321e-16;2.220446e-16;6.613154e-18;-5.149072e-18;0;-1.176223e-17;0.970795;2.220446e-16;-2.220446e-16;0
0.502013;3.021486;0.945605;8.39567e-13;0;0;8.39567e-13;-1.110223e-16;-1.110223e-16;2.053342e-18;0;0;0;0;-1.08969e-16;-1.130756e-16;2.053342e-18;45;0;2.737789e-18;7.405283e-17;-1.110223e-16;-3.401307e-17;3.811975e-17;-1.110223e-16;7.213283e-17;0.945605;-2.220446e-16;2.220446e-16;0
0.569178;3.021486;0.933242;8.39567e-13;0;0;8.39567e-13;0;-1.110223e-16;-1.024959e-17;0;0;0;0;9.383127e-19;-1.119606e-16;5.644947e-17;45;0;7.526595e-17;7.495514e-17;0;-2.437336e-17;3.874179e-18;-1.110223e-16;2.824754e-17;0.933242;-1.110223e-16;1.110223e-16;0
0.636344;3.021486;0.938395;8.39567e-13;0;0;8.39567e-13;2.220446e-16;-3.330669e-16;6.528178e-18;0;0;0;0;2.221214e-16;-3.331437e-16;2.776325e-16;45;0;3.701767e-16;3.227114e-16;2.220446e-16;2.283351e-19;1.282802e-17;-3.330669e-16;1.259969e-17;0.938395;-1.110223e-16;1.110223e-16;0
0.703509;3.021486;0.956926;8.39567e-13;0;0;8.39567e-13;0;-1.110223e-16;-4.146393e-17;0;0;0;0;1.377626e-17;-1.247986e-16;6.928741e-17;45;0;9.238322e-17;8.815069e-17;0;-2.163609e-17;-6.129177e-17;-1.110223e-16;-3.965569e-17;0.956926;-1.110223e-16;1.110223e-16;0
0.770674;3.021486;0.957541;8.39567e-13;0;0;8.39567e-13;-1.110223e-16;0;1.681697e-17;0;0;0;0;2.491421e-18;-1.135137e-16;5.800257e-17;45;0;7.733676e-17;7.651981e-17;-1.110223e-16;4.476966e-17;-1.113572e-17;0;-5.590537e-17;0.957541;-1.110223e-16;1.110223e-16;0
0.83784;3.021486;0.911106;8.39567e-13;0;0;8.39567e-13;0;2.220446e-16;-1.330996e-17;0;0;0;0;2.228396e-16;-7.949886e-19;1.118173e-16;45;0;1.490897e-16;1.488254e-16;0;-1.008678e-17;-1.653314e-17;2.220446e-16;-6.446362e-18;0.911106;2.220446e-16;-2.220446e-16;0
0.905005;3.021486;0.887337;8.39567e-13;0;0;8.39567e-13;-3.330669e-16;0;-8.767993e-18;0;0;0;0;2.306578e-19;-3.332976e-16;1.667641e-16;45;0;2.223522e-16;2.222753e-16;-3.330669e-16;-3.152682e-18;-1.43833e-17;0;-1.123062e-17;0.887337;-3.330669e-16;3.330669e-16;0
0.97217;3.021486;0.856244;8.39567e-13;0;0;8.39567e-13;0;2.220446e-16;3.07334e-18;0;0;0;0;2.220871e-16;-4.253022e-20;1.110648e-16;45;0;1.480864e-16;1.480723e-16;0;-8.082332e-18;1.422901e-17;2.220446e-16;2.231134e-17;0.856244;2.220446e-16;-2.220446e-16;0
1.039336;3.021486;0.828394;8.39567e-13;0;0;8.39567e-13;0;0;2.897413e-17;0;0;0;0;2.897413e-17;-2.897413e-17;2.897413e-17;45;0;3.863217e-17;3.345644e-17;0;6.036658e-17;-2.418321e-18;0;-6.27849e-17;0.828394;0;0;0
1.106501;3.021486;0.809184;8.39567e-13;0;0;8.39567e-13;0;-3.330669e-16;1.606431e-17;0;0;0;0;7.730109e-19;-3.338399e-16;1.673065e-16;45;0;2.230753e-16;2.228181e-16;0;3.212861e-17;0;-3.330669e-16;-3.212861e-17;0.809184;-3.330669e-16;3.330669e-16;0
1.173667;3.021486;0.771019;8.39567e-13;0;0;8.39567e-13;2.220446e-16;2.220446e-16;1.706971e-17;0;0;0;0;2.391143e-16;2.049749e-16;1.706971e-17;45;0;2.275962e-17;1.493362e-16;2.220446e-16;3.413942e-17;0;2.220446e-16;-3.413942e-17;0.771019;4.440892e-16;-4.440892e-16;0
1.240832;3.021486;0.725827;8.39567e-13;0;0;8.39567e-13;-1.110223e-16;-1.110223e-16;4.211132e-17;0;0;0;0;-6.891098e-17;-1.531336e-16;4.211132e-17;45;0;5.614843e-17;8.855894e-17;-1.110223e-16;6.136523e-17;2.285741e-17;-1.110223e-16;-3.850782e-17;0.725827;-2.220446e-16;2.220446e-16;0
1.307997;3.021486;0.654202;8.39567e-13;0;0;8.39567e-13;-1.110223e-16;-1.110223e-16;-3.707729e-18;0;0;0;0;-1.073146e-16;-1.1473e-16;3.707729e-18;45;0;4.943639e-18;7.413859e-17;-1.110223e-16;2.074191e-17;-2.815737e-17;-1.110223e-16;-4.889928e-17;0.654202;-2.220446e-16;2.220446e-16;0
1.375163;3.021486;0.585394;8.39567e-13;0;0;8.39567e-13;0;2.220446e-16;3.810317e-17;0;0;0;0;2.284012e-16;-6.356584e-18;1.173789e-16;45;0;1.565052e-16;1.544299e-16;0;4.593219e-17;3.027414e-17;2.220446e-16;-1.565805e-17;0.585394;2.220446e-16;-2.220446e-16;0
1.442328;3.021486;0.478427;8.39567e-13;0;0;8.39567e-13;0;2.220446e-16;5.142202e-17;0;0;0;0;2.33375e-16;-1.133037e-17;1.223527e-16;45;0;1.631369e-16;1.594943e-16;0;2.637105e-17;7.647298e-17;2.220446e-16;5.010193e-17;0.478427;2.220446e-16;-2.220446e-16;0
1.509493;3.021486;0.406699;8.39567e-13;0;0;8.39567e-13;-1.110223e-16;-1.110223e-16;-6.54211e-17;0;0;0;0;-4.560121e-17;-1.764434e-16;6.54211e-17;45;0;8.722813e-17;1.05758e-16;-1.110223e-16;-2.103466e-16;7.950441e-17;-1.110223e-16;2.89851e-16;0.406699;-2.220446e-16;2.220446e-16;0
-0.371137;2.954321;0.333066;8.39567e-13;0;0;8.39567e-13;-1.110223e-16;2.220446e-16;1.689001e-17;0;0;0;0;2.228989e-16;-1.118766e-16;1.673878e-16;45;0;2.231837e-16;1.967937e-16;-1.110223e-16;5.289485e-17;-1.911483e-17;2.220446e-16;-7.200968e-17;0.333066;1.110223e-16;-1.110223e-16;0
-0.303971;2.954321;0.427747;8.39567e-13;0;0;8.39567e-13;0;2.220446e-16;3.548711e-18;0;0;0;0;2.221013e-16;-5.670093e-20;1.11079e-16;45;0;1.481053e-16;1.480864e-16;0;1.545365e-17;-8.356229e-18;2.220446e-16;-2.380988e-17;0.427747;2.220446e-16;-2.220446e-16;0
-0.236806;2.954321;0.502274;8.39567e-13;0;0;8.39567e-13;4.440892e-16;-3.330669e-16;1.499242e-17;0;0;0;0;4.443783e-16;-3.33356e-16;3.888672e-16;45;0;5.184896e-16;4.505476e-16;4.440892e-16;1.845016e-17;1.153469e-17;-3.330669e-16;-6.915471e-18;0.502274;1.110223e-16;-1.110223e-16;0
-0.169641;2.954321;0.593634;8.39567e-13;0;0;8.39567e-13;2.220446e-16;0;3.565488e-17;0;0;0;0;2.276294e-16;-5.584824e-18;1.166071e-16;45;0;1.554762e-16;1.536484e-16;2.220446e-16;3.764268e-17;3.366707e-17;0;-3.975609e-18;0.593634;2.220446e-16;-2.220446e-16;0
-0.102475;2.954321;0.656454;8.39567e-13;0;0;8.39567e-13;-1.110223e-16;-3.330669e-16;1.567273e-17;0;0;0;0;-1.099215e-16;-3.341677e-16;1.121231e-16;45;0;1.494975e-16;1.966594e-16;-1.110223e-16;-2.718742e-17;5.853289e-17;-3.330669e-16;8.572031e-17;0.656454;-4.440892e-16;4.440892e-16;0
-0.03531;2.954321;0.728821;8.39567e-13;0;0;8.39567e-13;2.220446e-16;-3.330669e-16;-2.296986e-17;0;0;0;0;2.229934e-16;-3.340157e-16;2.785046e-16;45;0;3.713395e-16;3.237117e-16;2.220446e-16;-5.413588e-17;8.196169e-18;-3.330669e-16;6.233205e-17;0.728821;-1.110223e-16;1.110223e-16;0
0.031855;2.954321;0.763572;8.39567e-13;0;0;8.39567e-13;2.220446e-16;0;6.099376e-18;0;0;0;0;2.22212e-16;-1.674184e-19;1.111897e-16;45;0;1.48253e-16;1.481972e-16;2.220446e-16;-2.053343e-17;3.273218e-17;0;5.326561e-17;0.763572;2.220446e-16;-2.220446e-16;0
0.099021;2.954321;0.785925;8.39567e-13;0;0;8.39567e-13;-1.110223e-16;2.220446e-16;-2.237277e-17;0;0;0;0;2.235407e-16;-1.125184e-16;1.680296e-16;45;0;2.240394e-16;1.975216e-16;-1.110223e-16;-2.653429e-17;-1.821124e-17;2.220446e-16;8.323044e-18;0.785925;1.110223e-16;-1.110223e-16;0
0.166186;2.954321;0.831039;8.39567e-13;0;0;8.39567e-13;-1.110223e-16;-1.110223e-16;-1.709182e-17;0;0;0;0;-9.393049e-17;-1.281141e-16;1.709182e-17;45;0;2.278909e-17;7.660096e-17;-1.110223e-16;-7.138479e-18;-2.704516e-17;-1.110223e-16;-1.990668e-17;0.831039;-2.220446e-16;2.220446e-16;0
0.233352;2.954321;0.864378;8.39567e-13;0;0;8.39567e-13;-1.110223e-16;0;6.921817e-18;0;0;0;0;4.298843e-19;-1.114522e-16;5.594103e-17;45;0;7.458805e-17;7.444516e-17;-1.110223e-16;6.686803e-18;7.156831e-18;0;4.70029e-19;0.864378;-1.110223e-16;1.110223e-16;0
0.300517;2.954321;0.879358;8.39567e-13;0;0;8.39567e-13;-1.110223e-16;0;-9.5328e-18;0;0;0;0;8.125754e-19;-1.118349e-16;5.632373e-17;45;0;7.509831e-17;7.482892e-17;-1.110223e-16;2.639893e-17;-4.546453e-17;0;-7.186345e-17;0.879358;-1.110223e-16;1.110223e-16;0
0.367682;2.954321;0.932972;8.39567e-13;0;0;8.39567e-13;-1.110223e-16;-1.110223e-16;2.786334e-17;0;0;0;0;-8.315896e-17;-1.388856e-16;2.786334e-17;45;0;3.715112e-17;8.070536e-17;-1.110223e-16;1.813075e-17;3.759593e-17;-1.110223e-16;1.946519e-17;0.932972;-2.220446e-16;2.220446e-16;0
0.434848;2.954321;0.945819;8.39567e-13;0;0;8.39567e-13;0;-6.661338e-16;2.837998e-17;0;0;0;0;1.206915e-18;-6.673407e-16;3.342738e-16;45;0;4.456984e-16;4.452967e-16;0;1.038315e-17;4.637682e-17;-6.661338e-16;3.599368e-17;0.945819;-6.661338e-16;6.661338e-16;0
0.502013;2.954321;0.920689;8.39567e-13;0;0;8.39567e-13;-1.110223e-16;4.440892e-16;2.123096e-18;0;0;0;0;4.440973e-16;-1.110304e-16;2.775639e-16;45;0;3.700852e-16;3.391876e-16;-1.110223e-16;-8.65092e-18;1.289711e-17;4.440892e-16;2.154803e-17;0.920689;3.330669e-16;-3.330669e-16;0
0.569178;2.954321;0.944527;8.39567e-13;0;0;8.39567e-13;2.220446e-16;-1.110223e-16;2.064147e-17;0;0;0;0;2.23319e-16;-1.122967e-16;1.678078e-16;45;0;2.237438e-16;1.972701e-16;2.220446e-16;1.569508e-17;2.558785e-17;-1.110223e-16;9.89277e-18;0.944527;1.110223e-16;-1.110223e-16;0
0.636344;2.954321;0.952844;8.39567e-13;0;0;8.39567e-13;2.220446e-16;0;2.672796e-18;0;0;0;0;2.220768e-16;-3.216832e-20;1.110545e-16;45;0;1.480726e-16;1.480619e-16;2.220446e-16;-1.435016e-18;6.780608e-18;0;8.215624e-18;0.952844;2.220446e-16;-2.220446e-16;0
0.703509;2.954321;0.938356;8.39567e-13;0;0;8.39567e-13;0;-3.330669e-16;5.412571e-17;0;0;0;0;8.575036e-18;-3.41642e-16;1.751085e-16;45;0;2.33478e-16;2.306728e-16;0;4.696092e-17;6.12905e-17;-3.330669e-16;1.432958e-17;0.938356;-3.330669e-16;3.330669e-16;0
0.770674;2.954321;0.934553;8.39567e-13;0;0;8.39567e-13;2.220446e-16;0;1.849063e-17;0;0;0;0;2.235739e-16;-1.529263e-18;1.125516e-16;45;0;1.500687e-16;1.495616e-16;2.220446e-16;1.179562e-17;2.518563e-17;0;1.339002e-17;0.934553;2.220446e-16;-2.220446e-16;0
0.83784;2.954321;0.913001;8.39567e-13;0;0;8.39567e-13;0;0;3.007458e-17;0;0;0;0;3.007458e-17;-3.007458e-17;3.007458e-17;45;0;4.009944e-17;3.472713e-17;0;2.30523e-17;3.709686e-17;0;1.404456e-17;0.913001;0;0;0
0.905005;2.954321;0.882269;8.39567e-13;0;0;8.39567e-13;2.220446e-16;0;7.385191e-18;0;0;0;0;2.2229e-16;-2.453599e-19;1.112677e-16;45;0;1.483569e-16;1.482752e-16;2.220446e-16;-1.377686e-17;2.854724e-17;0;4.232409e-17;0.882269;2.220446e-16;-2.220446e-16;0
0.97217;2.954321;0.855261;8.39567e-13;0;0;8.39567e-13;-1.110223e-16;2.220446e-16;2.779368e-17;0;0;0;0;2.24348e-16;-1.133257e-16;1.688368e-16;45;0;2.251158e-16;1.984374e-16;-1.110223e-16;3.097617e-17;2.461118e-17;2.220446e-16;-6.364997e-18;0.855261;1.110223e-16;-1.110223e-16;0
1.039336;2.954321;0.832088;8.39567e-13;0;0;8.39567e-13;-3.330669e-16;-1.110223e-16;-2.026886e-17;0;0;0;0;-1.091873e-16;-3.34902e-16;1.128573e-16;45;0;1.504764e-16;1.972186e-16;-3.330669e-16;1.576095e-17;-5.629867e-17;-1.110223e-16;-7.205961e-17;0.832088;-4.440892e-16;4.440892e-16;0
1.106501;2.954321;0.812442;8.39567e-13;0;0;8.39567e-13;0;2.220446e-16;1.549987e-17;0;0;0;0;2.231213e-16;-1.07675e-18;1.120991e-16;45;0;1.494654e-16;1.491078e-16;0;-1.433711e-17;4.533684e-17;2.220446e-16;5.967395e-17;0.812442;2.220446e-16;-2.220446e-16;0
1.173667;2.954321;0.766854;8.39567e-13;0;0;8.39567e-13;2.220446e-16;0;5.310167e-18;0;0;0;0;2.221715e-16;-1.269194e-19;1.111492e-16;45;0;1.48199e-16;1.481567e-16;2.220446e-16;-2.306215e-17;3.368248e-17;0;5.674463e-17;0.766854;2.220446e-16;-2.220446e-16;0
1.240832;2.954321;0.721821;8.39567e-13;0;0;8.39567e-13;0;0;3.311545e-18;0;0;0;0;3.311545e-18;-3.311545e-18;3.311545e-18;45;0;4.415393e-18;3.823842e-18;0;2.245777e-17;-1.583468e-17;0;-3.829244e-17;0.721821;0;0;0
1.307997;2.954321;0.663523;8.39567e-13;0;0;8.39567e-13;-2.220446e-16;0;-5.720753e-17;0;0;0;0;1.387226e-17;-2.359169e-16;1.248946e-16;45;0;1.665261e-16;1.621e-16;-2.220446e-16;-1.007016e-16;-1.371345e-17;0;8.698815e-17;0.663523;-2.220446e-16;2.220446e-16;0
1.375163;2.954321;0.571504;8.39567e-13;0;0;8.39567e-13;0;0;4.525633e-17;0;0;0;0;4.525633e-17;-4.525633e-17;4.525633e-17;45;0;6.034177e-17;5.225751e-17;0;9.051266e-17;0;0;-9.051266e-17;0.571504;0;0;0
1.442328;2.954321;0.450011;8.39567e-13;0;0;8.39567e-13;-2.220446e-16;2.220446e-16;6.858151e-18;0;0;0;0;2.221505e-16;-2.221505e-16;2.221505e-16;45;0;2.962006e-16;2.565173e-16;-2.220446e-16;1.37163e-17;0;2.220446e-16;-1.37163e-17;0.450011;0;0;0
1.509493;2.954321;0.377926;8.39567e-13;0;0;8.39567e-13;-1.110223e-16;-3.330669e-16;-1.116976e-16;0;0;0;0;-6.455716e-17;-3.795321e-16;1.574874e-16;45;0;2.099833e-16;2.344835e-16;-1.110223e-16;-9.134896e-17;-1.320461e-16;-3.330669e-16;-4.069719e-17;0.377926;-4.440892e-16;4.440892e-16;0
-0.371137;2.887156;0.310169;8.39567e-13;0;0;8.39567e-13;2.220446e-16;-3.330669e-16;-4.247784e-18;0;0;0;0;2.220771e-16;-3.330994e-16;2.775883e-16;45;0;3.701177e-16;3.226606e-16;2.220446e-16;-4.413588e-17;3.564031e-17;-3.330669e-16;7.97762e-17;0.310169;-1.110223e-16;1.110223e-16;0
-0.303971;2.887156;0.426665;8.39567e-13;0;0;8.39567e-13;0;0;-2.243683e-17;0;0;0;0;2.243683e-17;-2.243683e-17;2.243683e-17;45;0;2.991578e-17;2.590782e-17;0;-6.171366e-17;1.684e-17;0;7.855366e-17;0.426665;0;0;0
-0.236806;2.887156;0.515861;8.39567e-13;0;0;8.39567e-13;0;2.220446e-16;3.416092e-17;0;0;0;0;2.271813e-16;-5.136726e-18;1.16159e-16;45;0;1.548787e-16;1.531952e-16;0;4.293639e-17;2.538544e-17;2.220446e-16;-1.755096e-17;0.515861;2.220446e-16;-2.220446e-16;0
-0.169641;2.887156;0.595936;8.39567e-13;0;0;8.39567e-13;-1.110223e-16;2.220446e-16;3.784241e-17;0;0;0;0;2.262901e-16;-1.152678e-16;1.707789e-16;45;0;2.277052e-16;2.00641e-16;-1.110223e-16;3.203696e-17;4.364786e-17;2.220446e-16;1.161091e-17;0.595936;1.110223e-16;-1.110223e-16;0
-0.102475;2.887156;0.642743;8.39567e-13;0;0;8.39567e-13;-1.110223e-16;-1.110223e-16;-4.360387e-17;0;0;0;0;-6.741844e-17;-1.546262e-16;4.360387e-17;45;0;5.813849e-17;8.951684e-17;-1.110223e-16;-6.072171e-17;-2.648602e-17;-1.110223e-16;3.423569e-17;0.642743;-2.220446e-16;2.220446e-16;0
-0.03531;2.887156;0.719805;8.39567e-13;0;0;8.39567e-13;2.220446e-16;2.220446e-16;-7.261427e-18;0;0;0;0;2.29306e-16;2.147832e-16;7.261427e-18;45;0;9.681903e-18;1.48267e-16;2.220446e-16;-2.876353e-18;-1.16465e-17;2.220446e-16;-8.770148e-18;0.719805;4.440892e-16;-4.440892e-16;0
0.031855;2.887156;0.769417;8.39567e-13;0;0;8.39567e-13;2.220446e-16;0;8.583334e-18;0;0;0;0;2.223759e-16;-3.313021e-19;1.113536e-16;45;0;1.484715e-16;1.483612e-16;2.220446e-16;1.522569e-17;1.94098e-18;0;-1.328471e-17;0.769417;2.220446e-16;-2.220446e-16;0
0.099021;2.887156;0.804978;8.39567e-13;0;0;8.39567e-13;-3.330669e-16;0;-4.098817e-17;0;0;0;0;4.96996e-18;-3.380369e-16;1.715034e-16;45;0;2.286712e-16;2.270327e-16;-3.330669e-16;-3.095383e-17;-5.10225e-17;0;-2.006867e-17;0.804978;-3.330669e-16;3.330669e-16;0
0.166186;2.887156;0.832804;8.39567e-13;0;0;8.39567e-13;-3.330669e-16;2.220446e-16;2.627433e-17;0;0;0;0;2.232854e-16;-3.343077e-16;2.787966e-16;45;0;3.717288e-16;3.240467e-16;-3.330669e-16;4.842395e-17;4.124701e-18;2.220446e-16;-4.429925e-17;0.832804;-1.110223e-16;1.110223e-16;0
0.233352;2.887156;0.862375;8.39567e-13;0;0;8.39567e-13;0;0;-2.019978e-18;0;0;0;0;2.019978e-18;-2.019978e-18;2.019978e-18;45;0;2.693304e-18;2.332469e-18;0;1.039747e-17;-1.443743e-17;0;-2.48349e-17;0.862375;0;0;0
0.300517;2.887156;0.884001;8.39567e-13;0;0;8.39567e-13;-1.110223e-16;0;2.267498e-18;0;0;0;0;4.629165e-20;-1.110686e-16;5.555744e-17;45;0;7.407659e-17;7.406117e-17;-1.110223e-16;4.534997e-18;0;0;-4.534997e-18;0.884001;-1.110223e-16;1.110223e-16;0
0.367682;2.887156;0.910223;8.39567e-13;0;0;8.39567e-13;-1.110223e-16;2.220446e-16;-3.816336e-17;0;0;0;0;2.263615e-16;-1.153392e-16;1.708503e-16;45;0;2.278004e-16;2.00722e-16;-1.110223e-16;-4.691892e-17;-2.94078e-17;2.220446e-16;1.751112e-17;0.910223;1.110223e-16;-1.110223e-16;0
0.434848;2.887156;0.913901;8.39567e-13;0;0;8.39567e-13;0;0;-4.581022e-17;0;0;0;0;4.581022e-17;-4.581022e-17;4.581022e-17;45;0;6.108029e-17;5.289709e-17;0;-3.197302e-17;-5.964742e-17;0;-2.76744e-17;0.913901;0;0;0
0.502013;2.887156;0.910293;8.39567e-13;0;0;8.39567e-13;2.220446e-16;0;-6.899617e-18;0;0;0;0;2.222588e-16;-2.14186e-19;1.112365e-16;45;0;1.483153e-16;1.48244e-16;2.220446e-16;1.4757e-17;-2.855623e-17;0;-4.331323e-17;0.910293;2.220446e-16;-2.220446e-16;0
0.569178;2.887156;0.928034;8.39567e-13;0;0;8.39567e-13;2.220446e-16;0;-3.472789e-17;0;0;0;0;2.273493e-16;-5.304727e-18;1.16327e-16;45;0;1.551027e-16;1.53365e-16;2.220446e-16;-2.249877e-17;-4.6957e-17;0;-2.445823e-17;0.928034;2.220446e-16;-2.220446e-16;0
0.636344;2.887156;0.923046;8.39567e-13;0;0;8.39567e-13;-1.110223e-16;2.220446e-16;-1.417503e-17;0;0;0;0;2.226468e-16;-1.116245e-16;1.671356e-16;45;0;2.228475e-16;1.965078e-16;-1.110223e-16;1.194144e-17;-4.02915e-17;2.220446e-16;-5.223295e-17;0.923046;1.110223e-16;-1.110223e-16;0
0.703509;2.887156;0.925642;8.39567e-13;0;0;8.39567e-13;0;2.220446e-16;-1.369434e-17;0;0;0;0;2.22886e-16;-8.413943e-19;1.118637e-16;45;0;1.491516e-16;1.488719e-16;0;-2.43274e-17;-3.061285e-18;2.220446e-16;2.126611e-17;0.925642;2.220446e-16;-2.220446e-16;0
0.770674;2.887156;0.945489;8.39567e-13;0;0;8.39567e-13;2.220446e-16;0;-7.34347e-18;0;0;0;0;2.222872e-16;-2.425986e-19;1.112649e-16;45;0;1.483532e-16;1.482724e-16;2.220446e-16;-2.682053e-18;-1.200489e-17;0;-9.322834e-18;0.945489;2.220446e-16;-2.220446e-16;0
0.83784;2.887156;0.90291;8.39567e-13;0;0;8.39567e-13;0;0;4.467904e-17;0;0;0;0;4.467904e-17;-4.467904e-17;4.467904e-17;45;0;5.957205e-17;5.159091e-17;0;5.586615e-17;3.349193e-17;0;-2.237422e-17;0.90291;0;0;0
0.905005;2.887156;0.854372;8.39567e-13;0;0;8.39567e-13;-1.110223e-16;0;2.155207e-17;0;0;0;0;4.036978e-18;-1.150593e-16;5.954813e-17;45;0;7.939751e-17;7.808664e-17;-1.110223e-16;3.361831e-17;9.48583e-18;0;-2.413248e-17;0.854372;-1.110223e-16;1.110223e-16;0
0.97217;2.887156;0.85197;8.39567e-13;0;0;8.39567e-13;0;0;-3.263096e-18;0;0;0;0;3.263096e-18;-3.263096e-18;3.263096e-18;45;0;4.350795e-18;3.767899e-18;0;2.378398e-18;-8.90459e-18;0;-1.128299e-17;0.85197;0;0;0
1.039336;2.887156;0.847543;8.39567e-13;0;0;8.39567e-13;-1.110223e-16;-1.110223e-16;-2.353601e-17;0;0;0;0;-8.748629e-17;-1.345583e-16;2.353601e-17;45;0;3.138135e-17;7.884664e-17;-1.110223e-16;-6.144302e-17;1.437099e-17;-1.110223e-16;7.5814e-17;0.847543;-2.220446e-16;2.220446e-16;0
1.106501;2.887156;0.804447;8.39567e-13;0;0;8.39567e-13;0;2.220446e-16;1.421327e-17;0;0;0;0;2.229507e-16;-9.061059e-19;1.119284e-16;45;0;1.492379e-16;1.489368e-16;0;3.0914e-18;2.533514e-17;2.220446e-16;2.224374e-17;0.804447;2.220446e-16;-2.220446e-16;0
1.173667;2.887156;0.746211;8.39567e-13;0;0;8.39567e-13;-1.110223e-16;0;-2.523834e-17;0;0;0;0;5.468038e-18;-1.164903e-16;6.097919e-17;45;0;8.130559e-17;7.954558e-17;-1.110223e-16;-3.443213e-17;-1.604454e-17;0;1.838759e-17;0.746211;-1.110223e-16;1.110223e-16;0
1.240832;2.887156;0.692244;8.39567e-13;0;0;8.39567e-13;0;2.220446e-16;-3.399134e-18;0;0;0;0;2.220966e-16;-5.202291e-20;1.110743e-16;45;0;1.480991e-16;1.480818e-16;0;8.908445e-18;-1.570671e-17;2.220446e-16;-2.461516e-17;0.692244;2.220446e-16;-2.220446e-16;0
1.307997;2.887156;0.632815;8.39567e-13;0;0;8.39567e-13;0;0;3.683008e-17;0;0;0;0;3.683008e-17;-3.683008e-17;3.683008e-17;45;0;4.910677e-17;4.252771e-17;0;3.148382e-17;4.217633e-17;0;1.069251e-17;0.632815;0;0;0
1.375163;2.887156;0.553953;8.39567e-13;0;0;8.39567e-13;2.220446e-16;2.220446e-16;2.518537e-17;0;0;0;0;2.4723e-16;1.968592e-16;2.518537e-17;45;0;3.358049e-17;1.508593e-16;2.220446e-16;1.53084e-17;3.506234e-17;2.220446e-16;1.975394e-17;0.553953;4.440892e-16;-4.440892e-16;0
1.442328;2.887156;0.445655;8.39567e-13;0;0;8.39567e-13;-4.440892e-16;-3.330669e-16;-3.407918e-17;0;0;0;0;-3.234407e-16;-4.537154e-16;6.513738e-17;45;0;8.684984e-17;2.697501e-16;-4.440892e-16;-3.735481e-17;-3.080355e-17;-3.330669e-16;6.551258e-18;0.445655;-7.771561e-16;7.771561e-16;0
1.509493;2.887156;0.382027;8.39567e-13;0;0;8.39567e-13;-2.220446e-16;2.220446e-16;7.281262e-18;0;0;0;0;2.22164e-16;-2.22164e-16;2.22164e-16;45;0;2.962186e-16;2.565328e-16;-2.220446e-16;1.456252e-17;0;2.220446e-16;-1.456252e-17;0.382027;0;0;0
-0.371137;2.81999;0.293995;8.39567e-13;0;0;8.39567e-13;-2.220446e-16;-2.220446e-16;-2.313239e-17;0;0;0;0;-1.989122e-16;-2.45177e-16;2.313239e-17;45;0;3.084319e-17;1.504203e-16;-2.220446e-16;-4.626478e-17;0;-2.220446e-16;4.626478e-17;0.293995;-4.440892e-16;4.440892e-16;0
-0.303971;2.81999;0.435527;8.39567e-13;0;0;8.39567e-13;0;2.220446e-16;5.207376e-17;0;0;0;0;2.336503e-16;-1.16057e-17;1.22628e-16;45;0;1.63504e-16;1.59776e-16;0;7.135177e-17;3.279574e-17;2.220446e-16;-3.855603e-17;0.435527;2.220446e-16;-2.220446e-16;0
-0.236806;2.81999;0.53456;8.39567e-13;0;0;8.39567e-13;2.220446e-16;0;1.139469e-17;0;0;0;0;2.226278e-16;-5.832111e-19;1.116055e-16;45;0;1.488074e-16;1.486133e-16;2.220446e-16;3.835932e-18;1.895345e-17;0;1.511752e-17;0.53456;2.220446e-16;-2.220446e-16;0
-0.169641;2.81999;0.616345;8.39567e-13;0;0;8.39567e-13;0;-1.110223e-16;2.783667e-17;0;0;0;0;6.588509e-18;-1.176108e-16;6.209966e-17;45;0;8.279955e-17;8.069308e-17;0;3.705463e-17;1.86187e-17;-1.110223e-16;-1.843593e-17;0.616345;-1.110223e-16;1.110223e-16;0
-0.102475;2.81999;0.659891;8.39567e-13;0;0;8.39567e-13;-1.110223e-16;2.220446e-16;-2.839863e-17;0;0;0;0;2.244486e-16;-1.134263e-16;1.689375e-16;45;0;2.2525e-16;1.985515e-16;-1.110223e-16;-7.279037e-17;1.599311e-17;2.220446e-16;8.878347e-17;0.659891;1.110223e-16;-1.110223e-16;0
-0.03531;2.81999;0.716881;8.39567e-13;0;0;8.39567e-13;-1.110223e-16;-1.110223e-16;-2.993303e-17;0;0;0;0;-8.108927e-17;-1.409553e-16;2.993303e-17;45;0;3.991071e-17;8.168751e-17;-1.110223e-16;-4.879128e-17;-1.107478e-17;-1.110223e-16;3.77165e-17;0.716881;-2.220446e-16;2.220446e-16;0
0.031855;2.81999;0.760915;8.39567e-13;0;0;8.39567e-13;2.220446e-16;-1.110223e-16;1.991674e-17;0;0;0;0;2.232314e-16;-1.12209e-16;1.677202e-16;45;0;2.236269e-16;1.971708e-16;2.220446e-16;3.544124e-17;4.392228e-18;-1.110223e-16;-3.104902e-17;0.760915;1.110223e-16;-1.110223e-16;0
0.099021;2.81999;0.803645;8.39567e-13;0;0;8.39567e-13;0;-1.110223e-16;-2.285026e-17;0;0;0;0;4.519026e-18;-1.155413e-16;6.003018e-17;45;0;8.004023e-17;7.857722e-17;0;-4.570051e-17;0;-1.110223e-16;4.570051e-17;0.803645;-1.110223e-16;1.110223e-16;0
0.166186;2.81999;0.826981;8.39567e-13;0;0;8.39567e-13;-1.110223e-16;0;3.280224e-17;0;0;0;0;8.967331e-18;-1.199896e-16;6.447848e-17;45;0;8.597131e-17;8.314355e-17;-1.110223e-16;3.65976e-17;2.900687e-17;0;-7.59073e-18;0.826981;-1.110223e-16;1.110223e-16;0
0.233352;2.81999;0.850735;8.39567e-13;0;0;8.39567e-13;0;0;-7.345528e-18;0;0;0;0;7.345528e-18;-7.345528e-18;7.345528e-18;45;0;9.794038e-18;8.481886e-18;0;-1.469106e-17;0;0;1.469106e-17;0.850735;0;0;0
0.300517;2.81999;0.884556;8.39567e-13;0;0;8.39567e-13;-1.110223e-16;2.220446e-16;2.648807e-17;0;0;0;0;2.24138e-16;-1.131157e-16;1.686268e-16;45;0;2.248358e-16;1.981991e-16;-1.110223e-16;2.537192e-17;2.760423e-17;2.220446e-16;2.23231e-18;0.884556;1.110223e-16;-1.110223e-16;0
0.367682;2.81999;0.90602;8.39567e-13;0;0;8.39567e-13;-1.110223e-16;-1.110223e-16;-9.902345e-18;0;0;0;0;-1.0112e-16;-1.209246e-16;9.902345e-18;45;0;1.320313e-17;7.489287e-17;-1.110223e-16;-3.432316e-17;1.451847e-17;-1.110223e-16;4.884164e-17;0.90602;-2.220446e-16;2.220446e-16;0
0.434848;2.81999;0.938939;8.39567e-13;0;0;8.39567e-13;2.220446e-16;-1.110223e-16;1.107854e-17;0;0;0;0;2.224127e-16;-1.113904e-16;1.669015e-16;45;0;2.225354e-16;1.962423e-16;2.220446e-16;2.016212e-18;2.014086e-17;-1.110223e-16;1.812465e-17;0.938939;1.110223e-16;-1.110223e-16;0
0.502013;2.81999;0.947379;8.39567e-13;0;0;8.39567e-13;0;0;1.511111e-17;0;0;0;0;1.511111e-17;-1.511111e-17;1.511111e-17;45;0;2.014815e-17;1.744881e-17;0;3.09509e-18;2.712713e-17;0;2.403204e-17;0.947379;0;0;0
0.569178;2.81999;0.930574;8.39567e-13;0;0;8.39567e-13;2.220446e-16;0;-1.562656e-17;0;0;0;0;2.231389e-16;-1.094338e-18;1.121166e-16;45;0;1.494888e-16;1.491254e-16;2.220446e-16;-1.836489e-17;-1.288823e-17;0;5.476662e-18;0.930574;2.220446e-16;-2.220446e-16;0
0.636344;2.81999;0.934026;8.39567e-13;0;0;8.39567e-13;0;0;5.924793e-18;0;0;0;0;5.924793e-18;-5.924793e-18;5.924793e-18;45;0;7.899724e-18;6.841361e-18;0;2.803134e-18;9.046452e-18;0;6.243318e-18;0.934026;0;0;0
0.703509;2.81999;0.94091;8.39567e-13;0;0;8.39567e-13;-1.110223e-16;2.220446e-16;-2.110051e-17;0;0;0;0;2.23376e-16;-1.123537e-16;1.678649e-16;45;0;2.238199e-16;1.973349e-16;-1.110223e-16;-2.607123e-17;-1.612978e-17;2.220446e-16;9.94145e-18;0.94091;1.110223e-16;-1.110223e-16;0
0.770674;2.81999;0.941486;8.39567e-13;0;0;8.39567e-13;-3.330669e-16;2.220446e-16;-6.586599e-18;0;0;0;0;2.221227e-16;-3.33145e-16;2.776339e-16;45;0;3.701785e-16;3.22713e-16;-3.330669e-16;-2.586355e-17;1.269035e-17;2.220446e-16;3.855389e-17;0.941486;-1.110223e-16;1.110223e-16;0
0.83784;2.81999;0.906827;8.39567e-13;0;0;8.39567e-13;0;2.220446e-16;1.784159e-17;0;0;0;0;2.234691e-16;-1.424458e-18;1.124468e-16;45;0;1.49929e-16;1.494565e-16;0;1.2426e-17;2.325719e-17;2.220446e-16;1.083119e-17;0.906827;2.220446e-16;-2.220446e-16;0
0.905005;2.81999;0.871566;8.39567e-13;0;0;8.39567e-13;2.220446e-16;0;2.653296e-17;0;0;0;0;2.251711e-16;-3.126503e-18;1.141488e-16;45;0;1.521984e-16;1.51167e-16;2.220446e-16;1.492918e-17;3.813674e-17;0;2.320756e-17;0.871566;2.220446e-16;-2.220446e-16;0
0.97217;2.81999;0.853241;8.39567e-13;0;0;8.39567e-13;2.220446e-16;-1.110223e-16;1.459703e-17;0;0;0;0;2.226831e-16;-1.116608e-16;1.67172e-16;45;0;2.22896e-16;1.96549e-16;2.220446e-16;3.165279e-17;-2.458733e-18;-1.110223e-16;-3.411153e-17;0.853241;1.110223e-16;-1.110223e-16;0
1.039336;2.81999;0.829807;8.39567e-13;0;0;8.39567e-13;2.220446e-16;0;2.974364e-17;0;0;0;0;2.259598e-16;-3.915228e-18;1.149375e-16;45;0;1.5325e-16;1.519618e-16;2.220446e-16;5.948728e-17;0;0;-5.948728e-17;0.829807;2.220446e-16;-2.220446e-16;0
1.106501;2.81999;0.785337;8.39567e-13;0;0;8.39567e-13;-1.110223e-16;-1.110223e-16;-8.784492e-18;0;0;0;0;-1.022378e-16;-1.198068e-16;8.784492e-18;45;0;1.171266e-17;7.47067e-17;-1.110223e-16;2.481688e-17;-4.238586e-17;-1.110223e-16;-6.720273e-17;0.785337;-2.220446e-16;2.220446e-16;0
1.173667;2.81999;0.731778;8.39567e-13;0;0;8.39567e-13;2.220446e-16;2.220446e-16;1.229322e-18;0;0;0;0;2.232739e-16;2.208153e-16;1.229322e-18;45;0;1.639096e-18;1.480365e-16;2.220446e-16;8.832943e-18;-6.374299e-18;2.220446e-16;-1.520724e-17;0.731778;4.440892e-16;-4.440892e-16;0
1.240832;2.81999;0.676535;8.39567e-13;0;0;8.39567e-13;0;2.220446e-16;-3.639346e-18;0;0;0;0;2.221042e-16;-5.963343e-20;1.110819e-16;45;0;1.481092e-16;1.480894e-16;0;6.261273e-18;-1.353996e-17;2.220446e-16;-1.980124e-17;0.676535;2.220446e-16;-2.220446e-16;0
1.307997;2.81999;0.618077;8.39567e-13;0;0;8.39567e-13;2.220446e-16;0;-6.932723e-18;0;0;0;0;2.222608e-16;-2.162443e-19;1.112385e-16;45;0;1.483181e-16;1.48246e-16;2.220446e-16;-1.735474e-17;3.489292e-18;0;2.084403e-17;0.618077;2.220446e-16;-2.220446e-16;0
1.375163;2.81999;0.540335;8.39567e-13;0;0;8.39567e-13;0;2.220446e-16;2.462027e-17;0;0;0;0;2.247417e-16;-2.697131e-18;1.137194e-16;45;0;1.516259e-16;1.507349e-16;0;4.924054e-17;0;2.220446e-16;-4.924054e-17;0.540335;2.220446e-16;-2.220446e-16;0
1.442328;2.81999;0.433443;8.39567e-13;0;0;8.39567e-13;0;0;1.187847e-17;0;0;0;0;1.187847e-17;-1.187847e-17;1.187847e-17;45;0;1.583796e-17;1.371607e-17;0;1.421517e-17;9.541764e-18;0;-4.673411e-18;0.433443;0;0;0
1.509493;2.81999;0.368201;8.39567e-13;0;0;8.39567e-13;-1.110223e-16;0;-1.092452e-17;0;0;0;0;1.064755e-18;-1.120871e-16;5.65759e-17;45;0;7.543454e-17;7.508214e-17;-1.110223e-16;-2.248013e-17;6.310846e-19;0;2.311122e-17;0.368201;-1.110223e-16;1.110223e-16;0
-0.371137;2.752825;0.284021;8.39567e-13;0;0;8.39567e-13;0;-3.330669e-16;-1.971446e-17;0;0;0;0;1.162853e-18;-3.342298e-16;1.676963e-16;45;0;2.235951e-16;2.232085e-16;0;-5.097353e-17;1.154461e-17;-3.330669e-16;6.251813e-17;0.284021;-3.330669e-16;3.330669e-16;0
-0.303971;2.752825;0.450998;8.39567e-13;0;0;8.39567e-13;-4.440892e-16;0;7.130455e-17;0;0;0;0;1.116806e-17;-4.552573e-16;2.332127e-16;45;0;3.109502e-16;3.072952e-16;-4.440892e-16;1.192888e-16;2.332034e-17;0;-9.596842e-17;0.450998;-4.440892e-16;4.440892e-16;0
-0.236806;2.752825;0.538333;8.39567e-13;0;0;8.39567e-13;4.440892e-16;2.220446e-16;-1.160747e-17;0;0;0;0;4.446944e-16;2.214395e-16;1.116274e-16;45;0;1.488366e-16;2.567451e-16;4.440892e-16;2.706867e-18;-2.592181e-17;2.220446e-16;-2.862868e-17;0.538333;6.661338e-16;-6.661338e-16;0
-0.169641;2.752825;0.602397;8.39567e-13;0;0;8.39567e-13;2.220446e-16;-1.110223e-16;2.366955e-17;0;0;0;0;2.237183e-16;-1.12696e-16;1.682071e-16;45;0;2.242762e-16;1.97723e-16;2.220446e-16;5.433503e-19;4.679575e-17;-1.110223e-16;4.62524e-17;0.602397;1.110223e-16;-1.110223e-16;0
-0.102475;2.752825;0.653737;8.39567e-13;0;0;8.39567e-13;2.220446e-16;2.220446e-16;-7.077838e-18;0;0;0;0;2.291224e-16;2.149668e-16;7.077838e-18;45;0;9.437117e-18;1.482552e-16;2.220446e-16;-1.415568e-17;0;2.220446e-16;1.415568e-17;0.653737;4.440892e-16;-4.440892e-16;0
-0.03531;2.752825;0.716429;8.39567e-13;0;0;8.39567e-13;-1.110223e-16;0;5.074099e-18;0;0;0;0;2.314213e-19;-1.112537e-16;5.574257e-17;45;0;7.432343e-17;7.424641e-17;-1.110223e-16;1.01482e-17;0;0;-1.01482e-17;0.716429;-1.110223e-16;1.110223e-16;0
0.031855;2.752825;0.755885;8.39567e-13;0;0;8.39567e-13;2.220446e-16;0;-1.204989e-17;0;0;0;0;2.226966e-16;-6.520076e-19;1.116743e-16;45;0;1.488991e-16;1.486822e-16;2.220446e-16;-5.562133e-17;3.152155e-17;0;8.714288e-17;0.755885;2.220446e-16;-2.220446e-16;0
0.099021;2.752825;0.787011;8.39567e-13;0;0;8.39567e-13;-3.330669e-16;2.220446e-16;-1.469768e-17;0;0;0;0;2.224335e-16;-3.334558e-16;2.779446e-16;45;0;3.705928e-16;3.230694e-16;-3.330669e-16;1.848641e-17;-4.788177e-17;2.220446e-16;-6.636817e-17;0.787011;-1.110223e-16;1.110223e-16;0
0.166186;2.752825;0.808663;8.39567e-13;0;0;8.39567e-13;0;0;5.688185e-19;0;0;0;0;5.688185e-19;-5.688185e-19;5.688185e-19;45;0;7.584246e-19;6.56815e-19;0;2.045791e-17;-1.932027e-17;0;-3.977818e-17;0.808663;0;0;0
0.233352;2.752825;0.835166;8.39567e-13;0;0;8.39567e-13;-1.110223e-16;2.220446e-16;1.011273e-17;0;0;0;0;2.223514e-16;-1.113291e-16;1.668402e-16;45;0;2.224536e-16;1.961728e-16;-1.110223e-16;2.346227e-18;1.787924e-17;2.220446e-16;1.553302e-17;0.835166;1.110223e-16;-1.110223e-16;0
0.300517;2.752825;0.886457;8.39567e-13;0;0;8.39567e-13;2.220446e-16;2.220446e-16;5.112804e-18;0;0;0;0;2.271574e-16;2.169318e-16;5.112804e-18;45;0;6.817072e-18;1.481474e-16;2.220446e-16;-4.199746e-18;1.442535e-17;2.220446e-16;1.86251e-17;0.886457;4.440892e-16;-4.440892e-16;0
0.367682;2.752825;0.922746;8.39567e-13;0;0;8.39567e-13;2.220446e-16;0;-9.648459e-18;0;0;0;0;2.224631e-16;-4.184639e-19;1.114408e-16;45;0;1.485877e-16;1.484484e-16;2.220446e-16;-4.985731e-18;-1.431119e-17;0;-9.325457e-18;0.922746;2.220446e-16;-2.220446e-16;0
0.434848;2.752825;0.943293;8.39567e-13;0;0;8.39567e-13;-1.110223e-16;2.220446e-16;-3.299884e-17;0;0;0;0;2.252825e-16;-1.142602e-16;1.697714e-16;45;0;2.263618e-16;1.994976e-16;-1.110223e-16;-1.303453e-17;-5.296315e-17;2.220446e-16;-3.992862e-17;0.943293;1.110223e-16;-1.110223e-16;0
0.502013;2.752825;0.954764;8.39567e-13;0;0;8.39567e-13;2.220446e-16;0;-5.249658e-18;0;0;0;0;2.221686e-16;-1.24045e-19;1.111464e-16;45;0;1.481951e-16;1.481538e-16;2.220446e-16;-1.775148e-17;7.252166e-18;0;2.500365e-17;0.954764;2.220446e-16;-2.220446e-16;0
0.569178;2.752825;0.951674;8.39567e-13;0;0;8.39567e-13;0;-1.110223e-16;3.952761e-17;0;0;0;0;1.263516e-17;-1.236575e-16;6.814631e-17;45;0;9.086175e-17;8.695656e-17;0;3.024211e-17;4.88131e-17;-1.110223e-16;1.857099e-17;0.951674;-1.110223e-16;1.110223e-16;0
0.636344;2.752825;0.93734;8.39567e-13;0;0;8.39567e-13;2.220446e-16;-1.110223e-16;-3.422744e-17;0;0;0;0;2.255256e-16;-1.145033e-16;1.700144e-16;45;0;2.266859e-16;1.997734e-16;2.220446e-16;-1.253508e-17;-5.591979e-17;-1.110223e-16;-4.338471e-17;0.93734;1.110223e-16;-1.110223e-16;0
0.703509;2.752825;0.918656;8.39567e-13;0;0;8.39567e-13;2.220446e-16;0;-9.391807e-18;0;0;0;0;2.224411e-16;-3.965365e-19;1.114188e-16;45;0;1.485584e-16;1.484264e-16;2.220446e-16;6.776936e-18;-2.556055e-17;0;-3.233748e-17;0.918656;2.220446e-16;-2.220446e-16;0
0.770674;2.752825;0.918537;8.39567e-13;0;0;8.39567e-13;-1.110223e-16;2.220446e-16;7.838191e-18;0;0;0;0;2.22229e-16;-1.112067e-16;1.667178e-16;45;0;2.222904e-16;1.96034e-16;-1.110223e-16;-2.044722e-17;3.61236e-17;2.220446e-16;5.657082e-17;0.918537;1.110223e-16;-1.110223e-16;0
0.83784;2.752825;0.916584;8.39567e-13;0;0;8.39567e-13;2.220446e-16;0;-1.16417e-17;0;0;0;0;2.226533e-16;-6.087003e-19;1.11631e-16;45;0;1.488413e-16;1.486389e-16;2.220446e-16;2.498187e-17;-4.826526e-17;0;-7.324713e-17;0.916584;2.220446e-16;-2.220446e-16;0
0.905005;2.752825;0.897093;8.39567e-13;0;0;8.39567e-13;0;0;-1.499503e-17;0;0;0;0;1.499503e-17;-1.499503e-17;1.499503e-17;45;0;1.999338e-17;1.731477e-17;0;-2.999007e-17;0;0;2.999007e-17;0.897093;0;0;0
0.97217;2.752825;0.858031;8.39567e-13;0;0;8.39567e-13;-1.110223e-16;2.220446e-16;-2.50197e-17;0;0;0;0;2.239136e-16;-1.128913e-16;1.684024e-16;45;0;2.245366e-16;1.979446e-16;-1.110223e-16;-1.388476e-17;-3.615464e-17;2.220446e-16;-2.226988e-17;0.858031;1.110223e-16;-1.110223e-16;0
1.039336;2.752825;0.817397;8.39567e-13;0;0;8.39567e-13;0;0;7.43021e-18;0;0;0;0;7.43021e-18;-7.43021e-18;7.43021e-18;45;0;9.906946e-18;8.579667e-18;0;-1.728944e-17;3.214986e-17;0;4.943929e-17;0.817397;0;0;0
1.106501;2.752825;0.783164;8.39567e-13;0;0;8.39567e-13;-3.330669e-16;-1.110223e-16;-2.047175e-17;0;0;0;0;-1.091507e-16;-3.349386e-16;1.12894e-16;45;0;1.505253e-16;1.972465e-16;-3.330669e-16;-5.197906e-18;-3.57456e-17;-1.110223e-16;-3.054769e-17;0.783164;-4.440892e-16;4.440892e-16;0
1.173667;2.752825;0.748014;8.39567e-13;0;0;8.39567e-13;-3.330669e-16;-1.110223e-16;1.079701e-17;0;0;0;0;-1.104985e-16;-3.335907e-16;1.115461e-16;45;0;1.487281e-16;1.962214e-16;-3.330669e-16;-4.811796e-18;2.640582e-17;-1.110223e-16;3.121762e-17;0.748014;-4.440892e-16;4.440892e-16;0
1.240832;2.752825;0.706336;8.39567e-13;0;0;8.39567e-13;0;0;9.162721e-18;0;0;0;0;9.162721e-18;-9.162721e-18;9.162721e-18;45;0;1.221696e-17;1.05802e-17;0;-2.730872e-17;4.563416e-17;0;7.294288e-17;0.706336;0;0;0
1.307997;2.752825;0.623658;8.39567e-13;0;0;8.39567e-13;2.220446e-16;-1.110223e-16;-4.396524e-17;0;0;0;0;2.277503e-16;-1.16728e-16;1.722392e-16;45;0;2.296522e-16;2.022985e-16;2.220446e-16;-5.532497e-17;-3.260552e-17;-1.110223e-16;2.271945e-17;0.623658;1.110223e-16;-1.110223e-16;0
1.375163;2.752825;0.532177;8.39567e-13;0;0;8.39567e-13;-2.220446e-16;0;1.180899e-17;0;0;0;0;6.262709e-19;-2.226709e-16;1.116486e-16;45;0;1.488648e-16;1.486565e-16;-2.220446e-16;2.214852e-17;1.46947e-18;0;-2.067905e-17;0.532177;-2.220446e-16;2.220446e-16;0
1.442328;2.752825;0.44014;8.39567e-13;0;0;8.39567e-13;2.220446e-16;0;2.209581e-17;0;0;0;0;2.24222e-16;-2.177417e-18;1.131997e-16;45;0;1.50933e-16;1.502124e-16;2.220446e-16;6.31906e-17;-1.899897e-17;0;-8.218957e-17;0.44014;2.220446e-16;-2.220446e-16;0
1.509493;2.752825;0.383955;8.39567e-13;0;0;8.39567e-13;2.220446e-16;4.440892e-16;3.027611e-17;0;0;0;0;4.481434e-16;2.179904e-16;1.150765e-16;45;0;1.534353e-16;2.587675e-16;2.220446e-16;6.055223e-17;0;4.440892e-16;-6.055223e-17;0.383955;6.661338e-16;-6.661338e-16;0
-0.371137;2.68566;0.271745;8.39567e-13;0;0;8.39567e-13;4.440892e-16;2.220446e-16;-8.486575e-17;0;0;0;0;4.7281e-16;1.933238e-16;1.397432e-16;45;0;1.863242e-16;2.744838e-16;4.440892e-16;-1.758169e-16;6.085354e-18;2.220446e-16;1.819022e-16;0.271745;6.661338e-16;-6.661338e-16;0
-0.303971;2.68566;0.414253;8.39567e-13;0;0;8.39567e-13;0;0;-4.788367e-17;0;0;0;0;4.788367e-17;-4.788367e-17;4.788367e-17;45;0;6.384489e-17;5.52913e-17;0;-8.623256e-17;-9.534774e-18;0;7.669779e-17;0.414253;0;0;0
-0.236806;2.68566;0.530815;8.39567e-13;0;0;8.39567e-13;-5.551115e-16;2.220446e-16;-3.07261e-18;0;0;0;0;2.220568e-16;-5.551236e-16;3.885902e-16;45;0;5.181203e-16;4.622363e-16;-5.551115e-16;3.068627e-17;-3.683149e-17;2.220446e-16;-6.751775e-17;0.530815;-3.330669e-16;3.330669e-16;0
-0.169641;2.68566;0.588671;8.39567e-13;0;0;8.39567e-13;2.220446e-16;0;-6.506106e-17;0;0;0;0;2.397037e-16;-1.765906e-17;1.286814e-16;45;0;1.715752e-16;1.660022e-16;2.220446e-16;-9.747475e-17;-3.264738e-17;0;6.482737e-17;0.588671;2.220446e-16;-2.220446e-16;0
-0.102475;2.68566;0.634148;8.39567e-13;0;0;8.39567e-13;2.220446e-16;0;3.867442e-17;0;0;0;0;2.285879e-16;-6.543262e-18;1.175656e-16;45;0;1.567541e-16;1.546192e-16;2.220446e-16;4.604284e-17;3.130599e-17;0;-1.473685e-17;0.634148;2.220446e-16;-2.220446e-16;0
-0.03531;2.68566;0.704423;8.39567e-13;0;0;8.39567e-13;-1.110223e-16;2.220446e-16;3.476019e-17;0;0;0;0;2.256336e-16;-1.146113e-16;1.701225e-16;45;0;2.2683e-16;1.998961e-16;-1.110223e-16;7.724071e-17;-7.720323e-18;2.220446e-16;-8.496103e-17;0.704423;1.110223e-16;-1.110223e-16;0
0.031855;2.68566;0.751391;8.39567e-13;0;0;8.39567e-13;-1.110223e-16;-1.110223e-16;1.901048e-17;0;0;0;0;-9.201183e-17;-1.300328e-16;1.901048e-17;45;0;2.53473e-17;7.720145e-17;-1.110223e-16;-6.881921e-18;4.490287e-17;-1.110223e-16;5.17848e-17;0.751391;-2.220446e-16;2.220446e-16;0
0.099021;2.68566;0.778075;8.39567e-13;0;0;8.39567e-13;-1.110223e-16;0;-3.55326e-17;0;0;0;0;1.039828e-17;-1.214206e-16;6.590943e-17;45;0;8.787924e-17;8.462636e-17;-1.110223e-16;-4.18366e-17;-2.92286e-17;0;1.2608e-17;0.778075;-1.110223e-16;1.110223e-16;0
0.166186;2.68566;0.79352;8.39567e-13;0;0;8.39567e-13;0;-1.110223e-16;1.892866e-17;0;0;0;0;3.138505e-18;-1.141608e-16;5.864965e-17;45;0;7.819954e-17;7.717465e-17;0;6.019182e-17;-2.233449e-17;-1.110223e-16;-8.252631e-17;0.79352;-1.110223e-16;1.110223e-16;0
0.233352;2.68566;0.834141;8.39567e-13;0;0;8.39567e-13;0;0;-3.776328e-18;0;0;0;0;3.776328e-18;-3.776328e-18;3.776328e-18;45;0;5.035105e-18;4.360529e-18;0;-2.281646e-17;1.526381e-17;0;3.808027e-17;0.834141;0;0;0
0.300517;2.68566;0.883613;8.39567e-13;0;0;8.39567e-13;-3.330669e-16;-3.330669e-16;-2.465803e-17;0;0;0;0;-3.084089e-16;-3.577249e-16;2.465803e-17;45;0;3.287737e-17;2.238627e-16;-3.330669e-16;-2.252556e-17;-2.679049e-17;-3.330669e-16;-4.264931e-18;0.883613;-6.661338e-16;6.661338e-16;0
0.367682;2.68566;0.917125;8.39567e-13;0;0;8.39567e-13;0;0;-1.739159e-18;0;0;0;0;1.739159e-18;-1.739159e-18;1.739159e-18;45;0;2.318879e-18;2.008208e-18;0;1.326746e-18;-4.805064e-18;0;-6.131811e-18;0.917125;0;0;0
0.434848;2.68566;0.933782;8.39567e-13;0;0;8.39567e-13;-1.110223e-16;0;-1.234047e-17;0;0;0;0;1.35514e-18;-1.123774e-16;5.686629e-17;45;0;7.582172e-17;7.537407e-17;-1.110223e-16;-4.737086e-17;2.268992e-17;0;7.006078e-17;0.933782;-1.110223e-16;1.110223e-16;0
0.502013;2.68566;0.942613;8.39567e-13;0;0;8.39567e-13;-1.110223e-16;0;3.796501e-18;0;0;0;0;1.296731e-19;-1.11152e-16;5.564083e-17;45;0;7.418776e-17;7.414458e-17;-1.110223e-16;2.045304e-17;-1.286004e-17;0;-3.331309e-17;0.942613;-1.110223e-16;1.110223e-16;0
0.569178;2.68566;0.953972;8.39567e-13;0;0;8.39567e-13;-1.110223e-16;-3.330669e-16;-1.422983e-17;0;0;0;0;-1.101141e-16;-3.339751e-16;1.119305e-16;45;0;1.492407e-16;1.965131e-16;-1.110223e-16;1.160616e-18;-2.962028e-17;-3.330669e-16;-3.07809e-17;0.953972;-4.440892e-16;4.440892e-16;0
0.636344;2.68566;0.938116;8.39567e-13;0;0;8.39567e-13;2.220446e-16;0;-2.136705e-18;0;0;0;0;2.220652e-16;-2.055931e-20;1.110429e-16;45;0;1.480572e-16;1.480503e-16;2.220446e-16;5.569744e-18;-9.843153e-18;0;-1.54129e-17;0.938116;2.220446e-16;-2.220446e-16;0
0.703509;2.68566;0.900669;8.39567e-13;0;0;8.39567e-13;-1.110223e-16;2.220446e-16;1.379006e-18;0;0;0;0;2.220503e-16;-1.11028e-16;1.665392e-16;45;0;2.220522e-16;1.958314e-16;-1.110223e-16;-2.199502e-17;2.475304e-17;2.220446e-16;4.674806e-17;0.900669;1.110223e-16;-1.110223e-16;0
0.770674;2.68566;0.894454;8.39567e-13;0;0;8.39567e-13;-3.330669e-16;2.220446e-16;-1.739052e-17;0;0;0;0;2.225889e-16;-3.336112e-16;2.781e-16;45;0;3.708001e-16;3.232477e-16;-3.330669e-16;3.918153e-18;-3.869919e-17;2.220446e-16;-4.261734e-17;0.894454;-1.110223e-16;1.110223e-16;0
0.83784;2.68566;0.915645;8.39567e-13;0;0;8.39567e-13;-1.110223e-16;-3.330669e-16;5.809227e-18;0;0;0;0;-1.108704e-16;-3.332188e-16;1.111742e-16;45;0;1.482322e-16;1.959398e-16;-1.110223e-16;1.290871e-17;-1.290255e-18;-3.330669e-16;-1.419896e-17;0.915645;-4.440892e-16;4.440892e-16;0
0.905005;2.68566;0.911605;8.39567e-13;0;0;8.39567e-13;0;2.220446e-16;-2.671592e-17;0;0;0;0;2.252138e-16;-3.169168e-18;1.141915e-16;45;0;1.522553e-16;1.5121e-16;0;-3.999196e-17;-1.343987e-17;2.220446e-16;2.655209e-17;0.911605;2.220446e-16;-2.220446e-16;0
0.97217;2.68566;0.877084;8.39567e-13;0;0;8.39567e-13;-2.220446e-16;2.220446e-16;-7.280652e-18;0;0;0;0;2.221639e-16;-2.221639e-16;2.221639e-16;45;0;2.962186e-16;2.565328e-16;-2.220446e-16;-1.835125e-17;3.789948e-18;2.220446e-16;2.21412e-17;0.877084;0;0;0
1.039336;2.68566;0.823351;8.39567e-13;0;0;8.39567e-13;-1.110223e-16;0;-2.041827e-17;0;0;0;0;3.63607e-18;-1.146584e-16;5.914722e-17;45;0;7.886296e-17;7.767931e-17;-1.110223e-16;-1.982464e-17;-2.101191e-17;0;-1.187264e-18;0.823351;-1.110223e-16;1.110223e-16;0
1.106501;2.68566;0.774834;8.39567e-13;0;0;8.39567e-13;-1.110223e-16;2.220446e-16;-3.017016e-17;0;0;0;0;2.247555e-16;-1.137331e-16;1.692443e-16;45;0;2.256591e-16;1.988996e-16;-1.110223e-16;-2.452867e-17;-3.581165e-17;2.220446e-16;-1.128299e-17;0.774834;1.110223e-16;-1.110223e-16;0
1.173667;2.68566;0.746196;8.39567e-13;0;0;8.39567e-13;2.220446e-16;-1.110223e-16;-1.1298e-17;0;0;0;0;2.224274e-16;-1.114051e-16;1.669163e-16;45;0;2.22555e-16;1.96259e-16;2.220446e-16;-4.23387e-18;-1.836213e-17;-1.110223e-16;-1.412826e-17;0.746196;1.110223e-16;-1.110223e-16;0
1.240832;2.68566;0.711103;8.39567e-13;0;0;8.39567e-13;-1.110223e-16;0;-1.053732e-17;0;0;0;0;9.912643e-19;-1.120136e-16;5.650242e-17;45;0;7.533655e-17;7.500831e-17;-1.110223e-16;-3.704151e-17;1.596687e-17;0;5.300838e-17;0.711103;-1.110223e-16;1.110223e-16;0
1.307997;2.68566;0.639086;8.39567e-13;0;0;8.39567e-13;-2.220446e-16;-1.110223e-16;4.860407e-17;0;0;0;0;-9.275105e-17;-2.403158e-16;7.378241e-17;45;0;9.837654e-17;1.399443e-16;-2.220446e-16;1.037892e-16;-6.581027e-18;-1.110223e-16;-1.103702e-16;0.639086;-3.330669e-16;3.330669e-16;0
1.375163;2.68566;0.545691;8.39567e-13;0;0;8.39567e-13;0;-1.110223e-16;1.862668e-17;0;0;0;0;3.041739e-18;-1.14064e-16;5.855289e-17;45;0;7.807052e-17;7.707662e-17;0;1.006999e-17;2.718337e-17;-1.110223e-16;1.711338e-17;0.545691;-1.110223e-16;1.110223e-16;0
1.442328;2.68566;0.414437;8.39567e-13;0;0;8.39567e-13;4.440892e-16;-1.110223e-16;1.570992e-17;0;0;0;0;4.445335e-16;-1.114665e-16;2.78e-16;45;0;3.706667e-16;3.396635e-16;4.440892e-16;4.260351e-17;-1.118367e-17;-1.110223e-16;-5.378718e-17;0.414437;3.330669e-16;-3.330669e-16;0
1.509493;2.68566;0.330249;8.39567e-13;0;0;8.39567e-13;8.881784e-16;2.220446e-16;5.882535e-17;0;0;0;0;8.933334e-16;2.168897e-16;3.382218e-16;45;0;4.509624e-16;5.380338e-16;8.881784e-16;1.176507e-16;0;2.220446e-16;-1.176507e-16;0.330249;1.110223e-15;-1.110223e-15;0
-0.371137;2.618494;0.285849;8.39567e-13;0;0;8.39567e-13;0;0;4.666892e-17;0;0;0;0;4.666892e-17;-4.666892e-17;4.666892e-17;45;0;6.222523e-17;5.388863e-17;0;2.616583e-17;6.717201e-17;0;4.100618e-17;0.285849;0;0;0
-0.303971;2.618494;0.387485;8.39567e-13;0;0;8.39567e-13;0;2.220446e-16;-1.400741e-17;0;0;0;0;2.229248e-16;-8.801518e-19;1.119024e-16;45;0;1.492033e-16;1.489108e-16;0;-1.809483e-17;-9.919994e-18;2.220446e-16;8.174839e-18;0.387485;2.220446e-16;-2.220446e-16;0
-0.236806;2.618494;0.527263;8.39567e-13;0;0;8.39567e-13;-2.220446e-16;0;2.939982e-17;0;0;0;0;3.826732e-18;-2.258713e-16;1.14849e-16;45;0;1.53132e-16;1.518725e-16;-2.220446e-16;5.879963e-17;0;0;-5.879963e-17;0.527263;-2.220446e-16;2.220446e-16;0
-0.169641;2.618494;0.58592;8.39567e-13;0;0;8.39567e-13;2.220446e-16;0;-6.036033e-17;0;0;0;0;2.373921e-16;-1.534748e-17;1.263698e-16;45;0;1.68493e-16;1.636173e-16;2.220446e-16;-9.209781e-17;-2.862284e-17;0;6.347497e-17;0.58592;2.220446e-16;-2.220446e-16;0
-0.102475;2.618494;0.617087;8.39567e-13;0;0;8.39567e-13;-1.110223e-16;-1.110223e-16;-7.209997e-18;0;0;0;0;-1.038123e-16;-1.182323e-16;7.209997e-18;45;0;9.61333e-18;7.448163e-17;-1.110223e-16;5.149091e-18;-1.956908e-17;-1.110223e-16;-2.471818e-17;0.617087;-2.220446e-16;2.220446e-16;0
-0.03531;2.618494;0.689734;8.39567e-13;0;0;8.39567e-13;0;0;3.571706e-17;0;0;0;0;3.571706e-17;-3.571706e-17;3.571706e-17;45;0;4.762275e-17;4.124251e-17;0;6.862885e-17;2.805266e-18;0;-6.582359e-17;0.689734;0;0;0
0.031855;2.618494;0.749236;8.39567e-13;0;0;8.39567e-13;0;0;-3.762908e-17;0;0;0;0;3.762908e-17;-3.762908e-17;3.762908e-17;45;0;5.017211e-17;4.345033e-17;0;-4.170869e-17;-3.354948e-17;0;8.159216e-18;0.749236;0;0;0
0.099021;2.618494;0.773997;8.39567e-13;0;0;8.39567e-13;2.220446e-16;-1.110223e-16;2.637197e-17;0;0;0;0;2.241198e-16;-1.130975e-16;1.686086e-16;45;0;2.248115e-16;1.981785e-16;2.220446e-16;2.20849e-18;5.053544e-17;-1.110223e-16;4.832696e-17;0.773997;1.110223e-16;-1.110223e-16;0
0.166186;2.618494;0.802768;8.39567e-13;0;0;8.39567e-13;0;0;-1.182588e-19;0;0;0;0;1.182588e-19;-1.182588e-19;1.182588e-19;45;0;1.576784e-19;1.365535e-19;0;-1.806678e-17;1.783026e-17;0;3.589704e-17;0.802768;0;0;0
0.233352;2.618494;0.851282;8.39567e-13;0;0;8.39567e-13;-3.330669e-16;-1.110223e-16;2.881188e-17;0;0;0;0;-1.073447e-16;-3.367445e-16;1.146999e-16;45;0;1.529333e-16;1.986309e-16;-3.330669e-16;5.762376e-17;0;-1.110223e-16;-5.762376e-17;0.851282;-4.440892e-16;4.440892e-16;0
0.300517;2.618494;0.879341;8.39567e-13;0;0;8.39567e-13;-4.440892e-16;2.220446e-16;1.098924e-17;0;0;0;0;2.222258e-16;-4.442705e-16;3.332481e-16;45;0;4.443309e-16;3.918554e-16;-4.440892e-16;7.713548e-18;1.426493e-17;2.220446e-16;6.551381e-18;0.879341;-2.220446e-16;2.220446e-16;0
0.367682;2.618494;0.905524;8.39567e-13;0;0;8.39567e-13;-1.110223e-16;-1.110223e-16;-7.747069e-18;0;0;0;0;-1.032752e-16;-1.187694e-16;7.747069e-18;45;0;1.032943e-17;7.45535e-17;-1.110223e-16;-2.50958e-17;9.601664e-18;-1.110223e-16;3.469747e-17;0.905524;-2.220446e-16;2.220446e-16;0
0.434848;2.618494;0.932571;8.39567e-13;0;0;8.39567e-13;0;0;3.49202e-17;0;0;0;0;3.49202e-17;-3.49202e-17;3.49202e-17;45;0;4.656027e-17;4.032237e-17;0;2.47773e-17;4.50631e-17;0;2.02858e-17;0.932571;0;0;0
0.502013;2.618494;0.942962;8.39567e-13;0;0;8.39567e-13;-1.110223e-16;0;2.172636e-17;0;0;0;0;4.100278e-18;-1.151226e-16;5.961143e-17;45;0;7.948191e-17;7.815101e-17;-1.110223e-16;-2.37135e-18;4.582407e-17;0;4.819542e-17;0.942962;-1.110223e-16;1.110223e-16;0
0.569178;2.618494;0.930804;8.39567e-13;0;0;8.39567e-13;-3.330669e-16;-1.110223e-16;2.027233e-17;0;0;0;0;-1.091866e-16;-3.349026e-16;1.12858e-16;45;0;1.504773e-16;1.972191e-16;-3.330669e-16;-8.42774e-18;4.89724e-17;-1.110223e-16;5.740014e-17;0.930804;-4.440892e-16;4.440892e-16;0
0.636344;2.618494;0.92913;8.39567e-13;0;0;8.39567e-13;-1.110223e-16;-1.110223e-16;1.080354e-17;0;0;0;0;-1.002188e-16;-1.218258e-16;1.080354e-17;45;0;1.440472e-17;7.505879e-17;-1.110223e-16;-1.635964e-17;3.796671e-17;-1.110223e-16;5.432635e-17;0.92913;-2.220446e-16;2.220446e-16;0
0.703509;2.618494;0.906061;8.39567e-13;0;0;8.39567e-13;0;2.220446e-16;-1.789899e-17;0;0;0;0;2.234782e-16;-1.43358e-18;1.124559e-16;45;0;1.499412e-16;1.494656e-16;0;-1.229272e-17;-2.350525e-17;2.220446e-16;-1.121253e-17;0.906061;2.220446e-16;-2.220446e-16;0
0.770674;2.618494;0.883632;8.39567e-13;0;0;8.39567e-13;-1.110223e-16;2.220446e-16;2.57361e-18;0;0;0;0;2.220645e-16;-1.110422e-16;1.665533e-16;45;0;2.220711e-16;1.958475e-16;-1.110223e-16;1.016106e-17;-5.013844e-18;2.220446e-16;-1.517491e-17;0.883632;1.110223e-16;-1.110223e-16;0
0.83784;2.618494;0.90257;8.39567e-13;0;0;8.39567e-13;0;-1.110223e-16;-1.936159e-18;0;0;0;0;3.375512e-20;-1.110561e-16;5.554491e-17;45;0;7.405988e-17;7.404863e-17;0;4.523245e-18;-8.395562e-18;-1.110223e-16;-1.291881e-17;0.90257;-1.110223e-16;1.110223e-16;0
0.905005;2.618494;0.894608;8.39567e-13;0;0;8.39567e-13;0;2.220446e-16;2.432104e-17;0;0;0;0;2.246773e-16;-2.632723e-18;1.13655e-16;45;0;1.5154e-16;1.506701e-16;0;1.944415e-17;2.919794e-17;2.220446e-16;9.753794e-18;0.894608;2.220446e-16;-2.220446e-16;0
0.97217;2.618494;0.863615;8.39567e-13;0;0;8.39567e-13;-3.330669e-16;-1.110223e-16;-6.718187e-17;0;0;0;0;-9.227807e-17;-3.518111e-16;1.297665e-16;45;0;1.730221e-16;2.106307e-16;-3.330669e-16;-8.065288e-17;-5.371086e-17;-1.110223e-16;2.694202e-17;0.863615;-4.440892e-16;4.440892e-16;0
1.039336;2.618494;0.814074;8.39567e-13;0;0;8.39567e-13;-2.220446e-16;2.220446e-16;-1.004732e-18;0;0;0;0;2.220469e-16;-2.220469e-16;2.220469e-16;45;0;2.960625e-16;2.563976e-16;-2.220446e-16;-3.648176e-17;3.447229e-17;2.220446e-16;7.095404e-17;0.814074;0;0;0
1.106501;2.618494;0.764352;8.39567e-13;0;0;8.39567e-13;2.220446e-16;-1.110223e-16;4.28047e-17;0;0;0;0;2.274578e-16;-1.164355e-16;1.719466e-16;45;0;2.292621e-16;2.019663e-16;2.220446e-16;5.043825e-17;3.517114e-17;-1.110223e-16;-1.526711e-17;0.764352;1.110223e-16;-1.110223e-16;0
1.173667;2.618494;0.731919;8.39567e-13;0;0;8.39567e-13;0;2.220446e-16;-2.314486e-17;0;0;0;0;2.244315e-16;-2.386852e-18;1.134091e-16;45;0;1.512122e-16;1.504229e-16;0;8.026692e-20;-4.636999e-17;2.220446e-16;-4.645025e-17;0.731919;2.220446e-16;-2.220446e-16;0
1.240832;2.618494;0.692935;8.39567e-13;0;0;8.39567e-13;2.220446e-16;-3.330669e-16;2.928471e-17;0;0;0;0;2.235852e-16;-3.346075e-16;2.790964e-16;45;0;3.721285e-16;3.243906e-16;2.220446e-16;5.027667e-17;8.292747e-18;-3.330669e-16;-4.198392e-17;0.692935;-1.110223e-16;1.110223e-16;0
1.307997;2.618494;0.646508;8.39567e-13;0;0;8.39567e-13;-2.220446e-16;2.220446e-16;1.309782e-17;0;0;0;0;2.224306e-16;-2.224306e-16;2.224306e-16;45;0;2.965741e-16;2.568407e-16;-2.220446e-16;-1.154125e-18;2.734977e-17;2.220446e-16;2.85039e-17;0.646508;0;0;0
1.375163;2.618494;0.559515;8.39567e-13;0;0;8.39567e-13;0;0;7.205568e-17;0;0;0;0;7.205568e-17;-7.205568e-17;7.205568e-17;45;0;9.607424e-17;8.320273e-17;0;1.266198e-16;1.74916e-17;0;-1.091282e-16;0.559515;0;0;0
1.442328;2.618494;0.427099;8.39567e-13;0;0;8.39567e-13;0;-3.330669e-16;-8.984163e-18;0;0;0;0;2.421632e-19;-3.333091e-16;1.667756e-16;45;0;2.223675e-16;2.222868e-16;0;-2.931274e-17;1.134441e-17;-3.330669e-16;4.065714e-17;0.427099;-3.330669e-16;3.330669e-16;0
1.509493;2.618494;0.352774;8.39567e-13;0;0;8.39567e-13;2.220446e-16;2.220446e-16;1.152277e-17;0;0;0;0;2.335674e-16;2.105218e-16;1.152277e-17;45;0;1.536369e-17;1.486265e-16;2.220446e-16;3.576353e-18;1.946918e-17;2.220446e-16;1.589283e-17;0.352774;4.440892e-16;-4.440892e-16;0
-0.371137;2.551329;0.27489;8.39567e-13;0;0;8.39567e-13;2.220446e-16;0;-1.345583e-17;0;0;0;0;2.22857e-16;-8.124461e-19;1.118348e-16;45;0;1.49113e-16;1.488429e-16;2.220446e-16;-7.686474e-18;-1.922518e-17;0;-1.153871e-17;0.27489;2.220446e-16;-2.220446e-16;0
-0.303971;2.551329;0.367065;8.39567e-13;0;0;8.39567e-13;2.220446e-16;-3.330669e-16;8.661262e-17;0;0;0;0;2.352447e-16;-3.46267e-16;2.907558e-16;45;0;3.876744e-16;3.377694e-16;2.220446e-16;1.47061e-16;2.616428e-17;-3.330669e-16;-1.208967e-16;0.367065;-1.110223e-16;1.110223e-16;0
-0.236806;2.551329;0.499967;8.39567e-13;0;0;8.39567e-13;0;2.220446e-16;1.34851e-18;0;0;0;0;2.220528e-16;-8.189406e-21;1.110305e-16;45;0;1.480407e-16;1.480379e-16;0;4.71722e-17;-4.447519e-17;2.220446e-16;-9.164739e-17;0.499967;2.220446e-16;-2.220446e-16;0
-0.169641;2.551329;0.580347;8.39567e-13;0;0;8.39567e-13;0;0;3.941493e-18;0;0;0;0;3.941493e-18;-3.941493e-18;3.941493e-18;45;0;5.255325e-18;4.551245e-18;0;3.52694e-19;7.530292e-18;0;7.177598e-18;0.580347;0;0;0
-0.102475;2.551329;0.628628;8.39567e-13;0;0;8.39567e-13;-1.110223e-16;0;2.806803e-19;0;0;0;0;7.095956e-22;-1.11023e-16;5.551186e-17;45;0;7.401582e-17;7.401558e-17;-1.110223e-16;5.613606e-19;0;0;-5.613606e-19;0.628628;-1.110223e-16;1.110223e-16;0
-0.03531;2.551329;0.701961;8.39567e-13;0;0;8.39567e-13;-3.330669e-16;0;-5.848028e-17;0;0;0;0;9.969617e-18;-3.430365e-16;1.765031e-16;45;0;2.353374e-16;2.320856e-16;-3.330669e-16;-1.01984e-16;-1.497658e-17;0;8.700739e-17;0.701961;-3.330669e-16;3.330669e-16;0
0.031855;2.551329;0.752543;8.39567e-13;0;0;8.39567e-13;0;0;1.203251e-17;0;0;0;0;1.203251e-17;-1.203251e-17;1.203251e-17;45;0;1.604335e-17;1.389395e-17;0;2.057177e-17;3.493253e-18;0;-1.707852e-17;0.752543;0;0;0
0.099021;2.551329;0.759397;8.39567e-13;0;0;8.39567e-13;-4.440892e-16;-1.110223e-16;1.039733e-17;0;0;0;0;-1.10698e-16;-4.444135e-16;1.668577e-16;45;0;2.224769e-16;2.671343e-16;-4.440892e-16;-7.690204e-18;2.848486e-17;-1.110223e-16;3.617506e-17;0.759397;-5.551115e-16;5.551115e-16;0
0.166186;2.551329;0.810178;8.39567e-13;0;0;8.39567e-13;-1.110223e-16;0;4.029095e-17;0;0;0;0;1.308075e-17;-1.24103e-16;6.85919e-17;45;0;9.145586e-17;8.742243e-17;-1.110223e-16;5.12712e-17;2.93107e-17;0;-2.19605e-17;0.810178;-1.110223e-16;1.110223e-16;0
0.233352;2.551329;0.859251;8.39567e-13;0;0;8.39567e-13;2.220446e-16;-3.330669e-16;-6.385107e-17;0;0;0;0;2.292943e-16;-3.403166e-16;2.848055e-16;45;0;3.797406e-16;3.309407e-16;2.220446e-16;-6.752981e-17;-6.017232e-17;-3.330669e-16;7.357492e-18;0.859251;-1.110223e-16;1.110223e-16;0
0.300517;2.551329;0.862962;8.39567e-13;0;0;8.39567e-13;2.220446e-16;0;9.759357e-18;0;0;0;0;2.224727e-16;-4.281201e-19;1.114504e-16;45;0;1.486006e-16;1.484581e-16;2.220446e-16;-3.500185e-18;2.30189e-17;0;2.651908e-17;0.862962;2.220446e-16;-2.220446e-16;0
0.367682;2.551329;0.893203;8.39567e-13;0;0;8.39567e-13;-1.110223e-16;2.220446e-16;-2.785515e-17;0;0;0;0;2.243581e-16;-1.133358e-16;1.68847e-16;45;0;2.251293e-16;1.984489e-16;-1.110223e-16;-1.656436e-17;-3.914595e-17;2.220446e-16;-2.258159e-17;0.893203;1.110223e-16;-1.110223e-16;0
0.434848;2.551329;0.916518;8.39567e-13;0;0;8.39567e-13;2.220446e-16;2.220446e-16;-2.164673e-17;0;0;0;0;2.436913e-16;2.003979e-16;2.164673e-17;45;0;2.88623e-17;1.501252e-16;2.220446e-16;-2.314254e-17;-2.015092e-17;2.220446e-16;2.991623e-18;0.916518;4.440892e-16;-4.440892e-16;0
0.502013;2.551329;0.924192;8.39567e-13;0;0;8.39567e-13;-3.330669e-16;0;-9.13902e-18;0;0;0;0;2.50577e-19;-3.333175e-16;1.66784e-16;45;0;2.223787e-16;2.222952e-16;-3.330669e-16;-2.783165e-18;-1.549487e-17;0;-1.271171e-17;0.924192;-3.330669e-16;3.330669e-16;0
0.569178;2.551329;0.918501;8.39567e-13;0;0;8.39567e-13;0;2.220446e-16;-7.762983e-18;0;0;0;0;2.223157e-16;-2.710735e-19;1.112934e-16;45;0;1.483912e-16;1.483009e-16;0;-1.165318e-17;-3.872782e-18;2.220446e-16;7.7804e-18;0.918501;2.220446e-16;-2.220446e-16;0
0.636344;2.551329;0.924261;8.39567e-13;0;0;8.39567e-13;-1.110223e-16;2.220446e-16;2.288401e-18;0;0;0;0;2.220603e-16;-1.11038e-16;1.665492e-16;45;0;2.220656e-16;1.958428e-16;-1.110223e-16;4.576801e-18;0;2.220446e-16;-4.576801e-18;0.924261;1.110223e-16;-1.110223e-16;0
0.703509;2.551329;0.913981;8.39567e-13;0;0;8.39567e-13;-1.110223e-16;2.220446e-16;1.206777e-17;0;0;0;0;2.224813e-16;-1.11459e-16;1.669701e-16;45;0;2.226268e-16;1.963201e-16;-1.110223e-16;-1.339739e-18;2.547527e-17;2.220446e-16;2.681501e-17;0.913981;1.110223e-16;-1.110223e-16;0
0.770674;2.551329;0.901646;8.39567e-13;0;0;8.39567e-13;0;0;-3.429928e-17;0;0;0;0;3.429928e-17;-3.429928e-17;3.429928e-17;45;0;4.573238e-17;3.96054e-17;0;-5.043187e-17;-1.81667e-17;0;3.226517e-17;0.901646;0;0;0
0.83784;2.551329;0.904874;8.39567e-13;0;0;8.39567e-13;0;2.220446e-16;3.2963e-19;0;0;0;0;2.220451e-16;-4.893419e-22;1.110228e-16;45;0;1.480304e-16;1.480302e-16;0;1.851656e-17;-1.78573e-17;2.220446e-16;-3.637386e-17;0.904874;2.220446e-16;-2.220446e-16;0
0.905005;2.551329;0.868751;8.39567e-13;0;0;8.39567e-13;0;2.220446e-16;-1.073615e-17;0;0;0;0;2.225625e-16;-5.178994e-19;1.115402e-16;45;0;1.487203e-16;1.485479e-16;0;-7.461081e-18;-1.401122e-17;2.220446e-16;-6.550143e-18;0.868751;2.220446e-16;-2.220446e-16;0
0.97217;2.551329;0.837051;8.39567e-13;0;0;8.39567e-13;2.220446e-16;0;3.966441e-17;0;0;0;0;2.289172e-16;-6.872638e-18;1.178949e-16;45;0;1.571932e-16;1.549532e-16;2.220446e-16;2.070647e-17;5.862234e-17;0;3.791587e-17;0.837051;2.220446e-16;-2.220446e-16;0
1.039336;2.551329;0.821457;8.39567e-13;0;0;8.39567e-13;2.220446e-16;2.220446e-16;-5.19506e-17;0;0;0;0;2.739952e-16;1.70094e-16;5.19506e-17;45;0;6.926746e-17;1.597225e-16;2.220446e-16;-8.47626e-17;-1.913859e-17;2.220446e-16;6.562401e-17;0.821457;4.440892e-16;-4.440892e-16;0
1.106501;2.551329;0.793084;8.39567e-13;0;0;8.39567e-13;0;2.220446e-16;-4.730746e-17;0;0;0;0;2.317035e-16;-9.658879e-18;1.206812e-16;45;0;1.609082e-16;1.577872e-16;0;-2.508986e-17;-6.952506e-17;2.220446e-16;-4.44352e-17;0.793084;2.220446e-16;-2.220446e-16;0
1.173667;2.551329;0.744801;8.39567e-13;0;0;8.39567e-13;2.220446e-16;0;8.953171e-18;0;0;0;0;2.22405e-16;-3.604202e-19;1.113827e-16;45;0;1.485103e-16;1.483903e-16;2.220446e-16;1.365206e-18;1.654114e-17;0;1.517593e-17;0.744801;2.220446e-16;-2.220446e-16;0
1.240832;2.551329;0.691615;8.39567e-13;0;0;8.39567e-13;0;2.220446e-16;-2.584022e-17;0;0;0;0;2.250121e-16;-2.967471e-18;1.139898e-16;45;0;1.519864e-16;1.510069e-16;0;-2.807708e-17;-2.360335e-17;2.220446e-16;4.473737e-18;0.691615;2.220446e-16;-2.220446e-16;0
1.307997;2.551329;0.62269;8.39567e-13;0;0;8.39567e-13;0;-3.330669e-16;-1.323341e-18;0;0;0;0;5.257815e-21;-3.330722e-16;1.665387e-16;45;0;2.220516e-16;2.220499e-16;0;2.423261e-17;-2.687929e-17;-3.330669e-16;-5.11119e-17;0.62269;-3.330669e-16;3.330669e-16;0
1.375163;2.551329;0.53335;8.39567e-13;0;0;8.39567e-13;-2.220446e-16;0;-1.594288e-17;0;0;0;0;1.138863e-18;-2.231835e-16;1.121612e-16;45;0;1.495482e-16;1.4917e-16;-2.220446e-16;-2.048036e-17;-1.14054e-17;0;9.074964e-18;0.53335;-2.220446e-16;2.220446e-16;0
1.442328;2.551329;0.435625;8.39567e-13;0;0;8.39567e-13;2.220446e-16;0;2.511602e-17;0;0;0;0;2.248501e-16;-2.805488e-18;1.138278e-16;45;0;1.517704e-16;1.508439e-16;2.220446e-16;5.023203e-17;0;0;-5.023203e-17;0.435625;2.220446e-16;-2.220446e-16;0
1.509493;2.551329;0.368896;8.39567e-13;0;0;8.39567e-13;-3.330669e-16;-2.220446e-16;-7.204625e-17;0;0;0;0;-1.866044e-16;-3.685071e-16;9.095137e-17;45;0;1.212685e-16;2.127635e-16;-3.330669e-16;-1.231679e-16;-2.092465e-17;-2.220446e-16;1.022432e-16;0.368896;-5.551115e-16;5.551115e-16;0
-0.371137;2.484163;0.286075;8.39567e-13;0;0;8.39567e-13;2.220446e-16;-2.220446e-16;-2.050244e-18;0;0;0;0;2.220541e-16;-2.220541e-16;2.220541e-16;45;0;2.960721e-16;2.56406e-16;2.220446e-16;-1.350418e-17;9.403687e-18;-2.220446e-16;2.290786e-17;0.286075;0;0;0
-0.303971;2.484163;0.382128;8.39567e-13;0;0;8.39567e-13;2.220446e-16;0;-5.121907e-17;0;0;0;0;2.332898e-16;-1.124521e-17;1.222675e-16;45;0;1.630233e-16;1.594072e-16;2.220446e-16;-6.976118e-17;-3.267696e-17;0;3.708421e-17;0.382128;2.220446e-16;-2.220446e-16;0
-0.236806;2.484163;0.484977;8.39567e-13;0;0;8.39567e-13;0;2.220446e-16;-1.747307e-17;0;0;0;0;2.234112e-16;-1.366576e-18;1.123889e-16;45;0;1.498518e-16;1.493984e-16;0;-4.37066e-17;8.760453e-18;2.220446e-16;5.246705e-17;0.484977;2.220446e-16;-2.220446e-16;0
-0.169641;2.484163;0.572788;8.39567e-13;0;0;8.39567e-13;0;0;-1.021325e-17;0;0;0;0;1.021325e-17;-1.021325e-17;1.021325e-17;45;0;1.361767e-17;1.179325e-17;0;-5.124602e-17;3.081952e-17;0;8.206553e-17;0.572788;0;0;0
-0.102475;2.484163;0.628353;8.39567e-13;0;0;8.39567e-13;0;0;5.183806e-17;0;0;0;0;5.183806e-17;-5.183806e-17;5.183806e-17;45;0;6.911741e-17;5.985744e-17;0;6.255282e-17;4.11233e-17;0;-2.142952e-17;0.628353;0;0;0
-0.03531;2.484163;0.706088;8.39567e-13;0;0;8.39567e-13;2.220446e-16;2.220446e-16;1.404924e-17;0;0;0;0;2.360938e-16;2.079954e-16;1.404924e-17;45;0;1.873232e-17;1.48916e-16;2.220446e-16;-1.465265e-17;4.275112e-17;2.220446e-16;5.740377e-17;0.706088;4.440892e-16;-4.440892e-16;0
0.031855;2.484163;0.753033;8.39567e-13;0;0;8.39567e-13;2.220446e-16;2.220446e-16;1.249207e-17;0;0;0;0;2.345367e-16;2.095525e-16;1.249207e-17;45;0;1.66561e-17;1.487309e-16;2.220446e-16;1.541483e-17;9.569319e-18;2.220446e-16;-5.845512e-18;0.753033;4.440892e-16;-4.440892e-16;0
0.099021;2.484163;0.753906;8.39567e-13;0;0;8.39567e-13;-1.110223e-16;0;-5.932036e-18;0;0;0;0;3.160551e-19;-1.113384e-16;5.582721e-17;45;0;7.443628e-17;7.433114e-17;-1.110223e-16;3.342269e-17;-4.528677e-17;0;-7.870946e-17;0.753906;-1.110223e-16;1.110223e-16;0
0.166186;2.484163;0.803602;8.39567e-13;0;0;8.39567e-13;-1.110223e-16;-1.110223e-16;2.836332e-17;0;0;0;0;-8.265898e-17;-1.393856e-16;2.836332e-17;45;0;3.781776e-17;8.093725e-17;-1.110223e-16;4.661462e-17;1.011202e-17;-1.110223e-16;-3.65026e-17;0.803602;-2.220446e-16;2.220446e-16;0
0.233352;2.484163;0.861881;8.39567e-13;0;0;8.39567e-13;2.220446e-16;0;4.746576e-17;0;0;0;0;2.317656e-16;-9.721022e-18;1.207433e-16;45;0;1.609911e-16;1.578506e-16;2.220446e-16;6.780288e-17;2.712865e-17;0;-4.067423e-17;0.861881;2.220446e-16;-2.220446e-16;0
0.300517;2.484163;0.880641;8.39567e-13;0;0;8.39567e-13;-1.110223e-16;-1.110223e-16;1.578451e-17;0;0;0;0;-9.52378e-17;-1.268068e-16;1.578451e-17;45;0;2.104601e-17;7.622599e-17;-1.110223e-16;4.430085e-17;-1.273183e-17;-1.110223e-16;-5.703269e-17;0.880641;-2.220446e-16;2.220446e-16;0
0.367682;2.484163;0.88401;8.39567e-13;0;0;8.39567e-13;0;2.220446e-16;2.149086e-17;0;0;0;0;2.241055e-16;-2.060891e-18;1.130832e-16;45;0;1.507776e-16;1.500953e-16;0;3.662746e-17;6.354257e-18;2.220446e-16;-3.02732e-17;0.88401;2.220446e-16;-2.220446e-16;0
0.434848;2.484163;0.895776;8.39567e-13;0;0;8.39567e-13;-1.110223e-16;0;-3.460441e-18;0;0;0;0;1.077535e-19;-1.111301e-16;5.56189e-17;45;0;7.415854e-17;7.412265e-17;-1.110223e-16;1.330915e-17;-2.023003e-17;0;-3.353918e-17;0.895776;-1.110223e-16;1.110223e-16;0
0.502013;2.484163;0.900972;8.39567e-13;0;0;8.39567e-13;0;-1.110223e-16;-2.837199e-17;0;0;0;0;6.830309e-18;-1.178526e-16;6.234146e-17;45;0;8.312194e-17;8.09413e-17;0;-5.012888e-17;-6.615097e-18;-1.110223e-16;4.351378e-17;0.900972;-1.110223e-16;1.110223e-16;0
0.569178;2.484163;0.895391;8.39567e-13;0;0;8.39567e-13;2.220446e-16;0;-1.100542e-17;0;0;0;0;2.225887e-16;-5.441392e-19;1.115664e-16;45;0;1.487553e-16;1.485742e-16;2.220446e-16;-8.539263e-18;-1.347158e-17;0;-4.932315e-18;0.895391;2.220446e-16;-2.220446e-16;0
0.636344;2.484163;0.901094;8.39567e-13;0;0;8.39567e-13;0;-1.110223e-16;-1.520029e-17;0;0;0;0;2.04349e-18;-1.130658e-16;5.755464e-17;45;0;7.673952e-17;7.606751e-17;0;-7.649708e-18;-2.275087e-17;-1.110223e-16;-1.510117e-17;0.901094;-1.110223e-16;1.110223e-16;0
0.703509;2.484163;0.894264;8.39567e-13;0;0;8.39567e-13;2.220446e-16;0;-2.97057e-17;0;0;0;0;2.2595e-16;-3.905415e-18;1.149277e-16;45;0;1.53237e-16;1.519519e-16;2.220446e-16;-1.561986e-17;-4.379154e-17;0;-2.817168e-17;0.894264;2.220446e-16;-2.220446e-16;0
0.770674;2.484163;0.905099;8.39567e-13;0;0;8.39567e-13;2.220446e-16;2.220446e-16;1.990383e-17;0;0;0;0;2.419484e-16;2.021408e-16;1.990383e-17;45;0;2.653844e-17;1.498033e-16;2.220446e-16;2.729539e-18;3.707812e-17;2.220446e-16;3.434858e-17;0.905099;4.440892e-16;-4.440892e-16;0
0.83784;2.484163;0.918025;8.39567e-13;0;0;8.39567e-13;2.220446e-16;-1.110223e-16;2.615179e-17;0;0;0;0;2.240855e-16;-1.130632e-16;1.685743e-16;45;0;2.247658e-16;1.981396e-16;2.220446e-16;-3.265296e-18;5.556887e-17;-1.110223e-16;5.883417e-17;0.918025;1.110223e-16;-1.110223e-16;0
0.905005;2.484163;0.880608;8.39567e-13;0;0;8.39567e-13;0;-1.110223e-16;1.680941e-17;0;0;0;0;2.489228e-18;-1.135115e-16;5.800038e-17;45;0;7.733384e-17;7.651759e-17;0;1.502478e-17;1.859403e-17;-1.110223e-16;3.569245e-18;0.880608;-1.110223e-16;1.110223e-16;0
0.97217;2.484163;0.849184;8.39567e-13;0;0;8.39567e-13;0;0;1.196789e-17;0;0;0;0;1.196789e-17;-1.196789e-17;1.196789e-17;45;0;1.595719e-17;1.381933e-17;0;-5.781944e-18;2.971773e-17;0;3.549967e-17;0.849184;0;0;0
1.039336;2.484163;0.847895;8.39567e-13;0;0;8.39567e-13;0;0;5.270241e-18;0;0;0;0;5.270241e-18;-5.270241e-18;5.270241e-18;45;0;7.026987e-18;6.08555e-18;0;5.542256e-18;4.998225e-18;0;-5.440313e-19;0.847895;0;0;0
1.106501;2.484163;0.824304;8.39567e-13;0;0;8.39567e-13;0;0;2.549498e-17;0;0;0;0;2.549498e-17;-2.549498e-17;2.549498e-17;45;0;3.399331e-17;2.943907e-17;0;1.755704e-18;4.923426e-17;0;4.747856e-17;0.824304;0;0;0
1.173667;2.484163;0.753917;8.39567e-13;0;0;8.39567e-13;0;2.220446e-16;3.116817e-17;0;0;0;0;2.263367e-16;-4.292077e-18;1.153144e-16;45;0;1.537525e-16;1.52342e-16;0;4.714499e-17;1.519134e-17;2.220446e-16;-3.195365e-17;0.753917;2.220446e-16;-2.220446e-16;0
1.240832;2.484163;0.705981;8.39567e-13;0;0;8.39567e-13;-2.220446e-16;2.220446e-16;-4.974558e-17;0;0;0;0;2.275487e-16;-2.275487e-16;2.275487e-16;45;0;3.033983e-16;2.627507e-16;-2.220446e-16;-9.949116e-17;0;2.220446e-16;9.949116e-17;0.705981;0;0;0
1.307997;2.484163;0.634466;8.39567e-13;0;0;8.39567e-13;2.220446e-16;2.220446e-16;-1.884367e-18;0;0;0;0;2.23929e-16;2.201602e-16;1.884367e-18;45;0;2.512489e-18;1.480457e-16;2.220446e-16;6.230378e-18;-9.999112e-18;2.220446e-16;-1.622949e-17;0.634466;4.440892e-16;-4.440892e-16;0
1.375163;2.484163;0.538682;8.39567e-13;0;0;8.39567e-13;-3.330669e-16;-1.110223e-16;1.928916e-17;0;0;0;0;-1.093591e-16;-3.347301e-16;1.126855e-16;45;0;1.502473e-16;1.970875e-16;-3.330669e-16;4.428264e-17;-5.704333e-18;-1.110223e-16;-4.998698e-17;0.538682;-4.440892e-16;4.440892e-16;0
1.442328;2.484163;0.418042;8.39567e-13;0;0;8.39567e-13;4.440892e-16;2.220446e-16;-1.485578e-17;0;0;0;0;4.450787e-16;2.210551e-16;1.120118e-16;45;0;1.493491e-16;2.569682e-16;4.440892e-16;-3.401497e-17;4.303401e-18;2.220446e-16;3.831837e-17;0.418042;6.661338e-16;-6.661338e-16;0
1.509493;2.484163;0.324461;8.39567e-13;0;0;8.39567e-13;-3.330669e-16;-2.220446e-16;3.964198e-17;0;0;0;0;-2.09343e-16;-3.457685e-16;6.821271e-17;45;0;9.095028e-17;2.011038e-16;-3.330669e-16;4.569455e-17;3.35894e-17;-2.220446e-16;-1.210515e-17;0.324461;-5.551115e-16;5.551115e-16;0
-0.371137;2.416998;0.263439;8.39567e-13;0;0;8.39567e-13;-2.220446e-16;0;-9.688665e-17;0;0;0;0;3.633093e-17;-2.583755e-16;1.473532e-16;45;0;1.96471e-16;1.855501e-16;-2.220446e-16;-1.56534e-16;-3.723925e-17;0;1.192948e-16;0.263439;-2.220446e-16;2.220446e-16;0
-0.303971;2.416998;0.392201;8.39567e-13;0;0;8.39567e-13;-3.330669e-16;2.220446e-16;6.477379e-17;0;0;0;0;2.295026e-16;-3.405249e-16;2.850137e-16;45;0;3.800183e-16;3.311797e-16;-3.330669e-16;7.95551e-17;4.999249e-17;2.220446e-16;-2.956261e-17;0.392201;-1.110223e-16;1.110223e-16;0
-0.236806;2.416998;0.508432;8.39567e-13;0;0;8.39567e-13;4.440892e-16;2.220446e-16;6.822615e-17;0;0;0;0;4.633772e-16;2.027567e-16;1.303102e-16;45;0;1.73747e-16;2.682253e-16;4.440892e-16;8.681533e-17;4.963697e-17;2.220446e-16;-3.717836e-17;0.508432;6.661338e-16;-6.661338e-16;0
-0.169641;2.416998;0.574415;8.39567e-13;0;0;8.39567e-13;-1.110223e-16;-1.110223e-16;-1.775943e-17;0;0;0;0;-9.326287e-17;-1.287817e-16;1.775943e-17;45;0;2.367924e-17;7.680319e-17;-1.110223e-16;-1.789715e-17;-1.762171e-17;-1.110223e-16;2.754382e-19;0.574415;-2.220446e-16;2.220446e-16;0
-0.102475;2.416998;0.628537;8.39567e-13;0;0;8.39567e-13;-1.110223e-16;0;-1.181746e-17;0;0;0;0;1.243939e-18;-1.122662e-16;5.675509e-17;45;0;7.567345e-17;7.526223e-17;-1.110223e-16;-2.729345e-17;3.658531e-18;0;3.095198e-17;0.628537;-1.110223e-16;1.110223e-16;0
-0.03531;2.416998;0.705071;8.39567e-13;0;0;8.39567e-13;2.220446e-16;0;3.566751e-18;0;0;0;0;2.221019e-16;-5.727871e-20;1.110796e-16;45;0;1.481061e-16;1.48087e-16;2.220446e-16;-8.211338e-18;1.534484e-17;0;2.355618e-17;0.705071;2.220446e-16;-2.220446e-16;0
0.031855;2.416998;0.739419;8.39567e-13;0;0;8.39567e-13;2.220446e-16;0;-8.397859e-18;0;0;0;0;2.223618e-16;-3.171591e-19;1.113395e-16;45;0;1.484526e-16;1.48347e-16;2.220446e-16;-8.580796e-18;-8.214923e-18;0;3.658731e-19;0.739419;2.220446e-16;-2.220446e-16;0
0.099021;2.416998;0.760582;8.39567e-13;0;0;8.39567e-13;2.220446e-16;2.220446e-16;-8.027411e-18;0;0;0;0;2.30072e-16;2.140172e-16;8.027411e-18;45;0;1.070322e-17;1.483197e-16;2.220446e-16;-1.605482e-17;0;2.220446e-16;1.605482e-17;0.760582;4.440892e-16;-4.440892e-16;0
0.166186;2.416998;0.812058;8.39567e-13;0;0;8.39567e-13;-2.220446e-16;2.220446e-16;-2.846512e-17;0;0;0;0;2.238617e-16;-2.238617e-16;2.238617e-16;45;0;2.984823e-16;2.584933e-16;-2.220446e-16;-7.314654e-17;1.621631e-17;2.220446e-16;8.936284e-17;0.812058;0;0;0
0.233352;2.416998;0.868398;8.39567e-13;0;0;8.39567e-13;0;0;-2.269148e-18;0;0;0;0;2.269148e-18;-2.269148e-18;2.269148e-18;45;0;3.025531e-18;2.620186e-18;0;-4.090845e-17;3.637015e-17;0;7.72786e-17;0.868398;0;0;0
0.300517;2.416998;0.889311;8.39567e-13;0;0;8.39567e-13;-1.110223e-16;0;4.973144e-17;0;0;0;0;1.901874e-17;-1.30041e-16;7.452989e-17;45;0;9.937318e-17;9.367936e-17;-1.110223e-16;5.028719e-17;4.917569e-17;0;-1.111507e-18;0.889311;-1.110223e-16;1.110223e-16;0
0.367682;2.416998;0.879416;8.39567e-13;0;0;8.39567e-13;0;-1.110223e-16;2.297992e-18;0;0;0;0;4.754455e-20;-1.110698e-16;5.55587e-17;45;0;7.407826e-17;7.406242e-17;0;-7.414119e-18;1.20101e-17;-1.110223e-16;1.942422e-17;0.879416;-1.110223e-16;1.110223e-16;0
0.434848;2.416998;0.905766;8.39567e-13;0;0;8.39567e-13;0;-1.110223e-16;1.295787e-17;0;0;0;0;1.492308e-18;-1.125146e-16;5.700346e-17;45;0;7.600461e-17;7.551209e-17;0;2.83812e-17;-2.465449e-18;-1.110223e-16;-3.084665e-17;0.905766;-1.110223e-16;1.110223e-16;0
0.502013;2.416998;0.928547;8.39567e-13;0;0;8.39567e-13;0;0;-1.260855e-17;0;0;0;0;1.260855e-17;-1.260855e-17;1.260855e-17;45;0;1.68114e-17;1.45591e-17;0;-2.521709e-17;0;0;2.521709e-17;0.928547;0;0;0
0.569178;2.416998;0.921799;8.39567e-13;0;0;8.39567e-13;-1.110223e-16;-1.110223e-16;-3.13948e-17;0;0;0;0;-7.96275e-17;-1.424171e-16;3.13948e-17;45;0;4.185973e-17;8.241589e-17;-1.110223e-16;-4.214783e-17;-2.064176e-17;-1.110223e-16;2.150607e-17;0.921799;-2.220446e-16;2.220446e-16;0
0.636344;2.416998;0.911347;8.39567e-13;0;0;8.39567e-13;-3.330669e-16;2.220446e-16;-1.993851e-17;0;0;0;0;2.227598e-16;-3.337821e-16;2.78271e-16;45;0;3.71028e-16;3.234438e-16;-3.330669e-16;-1.925091e-17;-2.062611e-17;2.220446e-16;-1.375206e-18;0.911347;-1.110223e-16;1.110223e-16;0
0.703509;2.416998;0.914076;8.39567e-13;0;0;8.39567e-13;-1.110223e-16;2.220446e-16;-2.655029e-17;0;0;0;0;2.241478e-16;-1.131255e-16;1.686366e-16;45;0;2.248488e-16;1.982102e-16;-1.110223e-16;-2.341194e-17;-2.968864e-17;2.220446e-16;-6.276699e-18;0.914076;1.110223e-16;-1.110223e-16;0
0.770674;2.416998;0.912334;8.39567e-13;0;0;8.39567e-13;0;2.220446e-16;-2.390837e-17;0;0;0;0;2.245897e-16;-2.54513e-18;1.135674e-16;45;0;1.514232e-16;1.50582e-16;0;-3.879326e-17;-9.023476e-18;2.220446e-16;2.976978e-17;0.912334;2.220446e-16;-2.220446e-16;0
0.83784;2.416998;0.907351;8.39567e-13;0;0;8.39567e-13;2.220446e-16;-1.110223e-16;-3.552697e-17;0;0;0;0;2.25792e-16;-1.147697e-16;1.702808e-16;45;0;2.270411e-16;2.000757e-16;2.220446e-16;-3.062125e-17;-4.043268e-17;-1.110223e-16;-9.811423e-18;0.907351;1.110223e-16;-1.110223e-16;0
0.905005;2.416998;0.887854;8.39567e-13;0;0;8.39567e-13;2.220446e-16;2.220446e-16;2.983696e-17;0;0;0;0;2.518816e-16;1.922076e-16;2.983696e-17;45;0;3.978262e-17;1.519862e-16;2.220446e-16;1.666325e-17;4.301068e-17;2.220446e-16;2.634743e-17;0.887854;4.440892e-16;-4.440892e-16;0
0.97217;2.416998;0.856478;8.39567e-13;0;0;8.39567e-13;2.220446e-16;-1.110223e-16;1.463525e-17;0;0;0;0;2.226864e-16;-1.116642e-16;1.671753e-16;45;0;2.229004e-16;1.965528e-16;2.220446e-16;9.70603e-18;1.956446e-17;-1.110223e-16;9.858434e-18;0.856478;1.110223e-16;-1.110223e-16;0
1.039336;2.416998;0.843215;8.39567e-13;0;0;8.39567e-13;0;-1.110223e-16;1.548257e-17;0;0;0;0;2.118683e-18;-1.13141e-16;5.762983e-17;45;0;7.683978e-17;7.614338e-17;0;1.605308e-17;1.491206e-17;-1.110223e-16;-1.141017e-18;0.843215;-1.110223e-16;1.110223e-16;0
1.106501;2.416998;0.815217;8.39567e-13;0;0;8.39567e-13;0;0;5.279566e-18;0;0;0;0;5.279566e-18;-5.279566e-18;5.279566e-18;45;0;7.039421e-18;6.096318e-18;0;1.055913e-17;0;0;-1.055913e-17;0.815217;0;0;0
1.173667;2.416998;0.733403;8.39567e-13;0;0;8.39567e-13;2.220446e-16;0;-2.404614e-18;0;0;0;0;2.220707e-16;-2.603752e-20;1.110483e-16;45;0;1.480645e-16;1.480558e-16;2.220446e-16;2.220503e-18;-7.029732e-18;0;-9.250235e-18;0.733403;2.220446e-16;-2.220446e-16;0
1.240832;2.416998;0.666976;8.39567e-13;0;0;8.39567e-13;2.220446e-16;0;7.656501e-17;0;0;0;0;2.458858e-16;-2.384116e-17;1.348635e-16;45;0;1.798179e-16;1.724212e-16;2.220446e-16;1.088618e-16;4.426819e-17;0;-6.459364e-17;0.666976;2.220446e-16;-2.220446e-16;0
1.307997;2.416998;0.619062;8.39567e-13;0;0;8.39567e-13;-1.110223e-16;-1.110223e-16;-2.286238e-17;0;0;0;0;-8.815992e-17;-1.338847e-16;2.286238e-17;45;0;3.048317e-17;7.858192e-17;-1.110223e-16;-4.572476e-17;0;-1.110223e-16;4.572476e-17;0.619062;-2.220446e-16;2.220446e-16;0
1.375163;2.416998;0.545028;8.39567e-13;0;0;8.39567e-13;0;2.220446e-16;4.58259e-17;0;0;0;0;2.311304e-16;-9.085836e-18;1.201081e-16;45;0;1.601442e-16;1.572031e-16;0;6.779433e-17;2.385747e-17;2.220446e-16;-4.393686e-17;0.545028;2.220446e-16;-2.220446e-16;0
1.442328;2.416998;0.439911;8.39567e-13;0;0;8.39567e-13;2.220446e-16;0;-1.390204e-17;0;0;0;0;2.229116e-16;-8.670109e-19;1.118893e-16;45;0;1.491858e-16;1.488976e-16;2.220446e-16;-2.780408e-17;0;0;2.780408e-17;0.439911;2.220446e-16;-2.220446e-16;0
1.509493;2.416998;0.370316;8.39567e-13;0;0;8.39567e-13;0;0;1.553036e-17;0;0;0;0;1.553036e-17;-1.553036e-17;1.553036e-17;45;0;2.070714e-17;1.793291e-17;0;-1.02423e-17;4.130302e-17;0;5.154532e-17;0.370316;0;0;0
-0.371137;2.349833;0.300276;8.39567e-13;0;0;8.39567e-13;4.440892e-16;0;1.292448e-17;0;0;0;0;4.44465e-16;-3.758274e-19;2.224204e-16;45;0;2.965606e-16;2.964354e-16;4.440892e-16;5.230555e-17;-2.64566e-17;0;-7.876215e-17;0.300276;4.440892e-16;-4.440892e-16;0
-0.303971;2.349833;0.446184;8.39567e-13;0;0;8.39567e-13;-3.330669e-16;2.220446e-16;-1.053372e-16;0;0;0;0;2.413611e-16;-3.523834e-16;2.968722e-16;45;0;3.958296e-16;3.447903e-16;-3.330669e-16;-1.914188e-16;-1.925549e-17;2.220446e-16;1.721634e-16;0.446184;-1.110223e-16;1.110223e-16;0
-0.236806;2.349833;0.54877;8.39567e-13;0;0;8.39567e-13;0;-1.110223e-16;3.204797e-17;0;0;0;0;8.586904e-18;-1.196092e-16;6.409805e-17;45;0;8.546408e-17;8.275041e-17;0;8.057774e-17;-1.648179e-17;-1.110223e-16;-9.705953e-17;0.54877;-1.110223e-16;1.110223e-16;0
-0.169641;2.349833;0.56131;8.39567e-13;0;0;8.39567e-13;0;-1.110223e-16;-3.041944e-17;0;0;0;0;7.788375e-18;-1.188107e-16;6.329953e-17;45;0;8.439937e-17;8.192673e-17;0;-1.803742e-17;-4.280145e-17;-1.110223e-16;-2.476403e-17;0.56131;-1.110223e-16;1.110223e-16;0
-0.102475;2.349833;0.614364;8.39567e-13;0;0;8.39567e-13;4.440892e-16;2.220446e-16;3.795415e-17;0;0;0;0;4.503975e-16;2.157363e-16;1.173306e-16;45;0;1.564408e-16;2.601136e-16;4.440892e-16;3.848717e-17;3.742113e-17;2.220446e-16;-1.066037e-18;0.614364;6.661338e-16;-6.661338e-16;0
-0.03531;2.349833;0.69847;8.39567e-13;0;0;8.39567e-13;2.220446e-16;0;2.533658e-17;0;0;0;0;2.24899e-16;-2.854358e-18;1.138767e-16;45;0;1.518356e-16;1.508931e-16;2.220446e-16;5.2586e-17;-1.912844e-18;0;-5.449884e-17;0.69847;2.220446e-16;-2.220446e-16;0
0.031855;2.349833;0.740504;8.39567e-13;0;0;8.39567e-13;2.220446e-16;-1.110223e-16;3.567965e-17;0;0;0;0;2.258239e-16;-1.148016e-16;1.703127e-16;45;0;2.270837e-16;2.001119e-16;2.220446e-16;6.913918e-17;2.220125e-18;-1.110223e-16;-6.691906e-17;0.740504;1.110223e-16;-1.110223e-16;0
0.099021;2.349833;0.785316;8.39567e-13;0;0;8.39567e-13;-1.110223e-16;-1.110223e-16;9.199279e-18;0;0;0;0;-1.01823e-16;-1.202216e-16;9.199279e-18;45;0;1.226571e-17;7.477324e-17;-1.110223e-16;1.101945e-18;1.729661e-17;-1.110223e-16;1.619467e-17;0.785316;-2.220446e-16;2.220446e-16;0
0.166186;2.349833;0.834661;8.39567e-13;0;0;8.39567e-13;2.220446e-16;2.220446e-16;1.015717e-17;0;0;0;0;2.322018e-16;2.118874e-16;1.015717e-17;45;0;1.35429e-17;1.484936e-16;2.220446e-16;3.268642e-18;1.70457e-17;2.220446e-16;1.377706e-17;0.834661;4.440892e-16;-4.440892e-16;0
0.233352;2.349833;0.876982;8.39567e-13;0;0;8.39567e-13;2.220446e-16;0;-1.163303e-17;0;0;0;0;2.226524e-16;-6.077964e-19;1.116301e-16;45;0;1.488401e-16;1.48638e-16;2.220446e-16;-5.159537e-17;2.832931e-17;0;7.992469e-17;0.876982;2.220446e-16;-2.220446e-16;0
0.300517;2.349833;0.879604;8.39567e-13;0;0;8.39567e-13;0;0;4.505402e-18;0;0;0;0;4.505402e-18;-4.505402e-18;4.505402e-18;45;0;6.007202e-18;5.20239e-18;0;1.479084e-17;-5.780032e-18;0;-2.057087e-17;0.879604;0;0;0
0.367682;2.349833;0.882019;8.39567e-13;0;0;8.39567e-13;2.220446e-16;0;3.701902e-17;0;0;0;0;2.280537e-16;-6.009144e-18;1.170314e-16;45;0;1.560419e-16;1.540779e-16;2.220446e-16;2.232147e-17;5.171656e-17;0;2.939509e-17;0.882019;2.220446e-16;-2.220446e-16;0
0.434848;2.349833;0.897755;8.39567e-13;0;0;8.39567e-13;0;0;5.852594e-17;0;0;0;0;5.852594e-17;-5.852594e-17;5.852594e-17;45;0;7.803458e-17;6.757993e-17;0;7.526633e-17;4.178555e-17;0;-3.348078e-17;0.897755;0;0;0
0.502013;2.349833;0.92952;8.39567e-13;0;0;8.39567e-13;0;-1.110223e-16;-2.394871e-17;0;0;0;0;4.94568e-18;-1.15968e-16;6.045683e-17;45;0;8.060911e-17;7.901216e-17;0;-3.930096e-17;-8.596454e-18;-1.110223e-16;3.07045e-17;0.92952;-1.110223e-16;1.110223e-16;0
0.569178;2.349833;0.948727;8.39567e-13;0;0;8.39567e-13;0;2.220446e-16;1.986712e-17;0;0;0;0;2.238082e-16;-1.763575e-18;1.127859e-16;45;0;1.503812e-16;1.497968e-16;0;1.915967e-17;2.057457e-17;2.220446e-16;1.414901e-18;0.948727;2.220446e-16;-2.220446e-16;0
0.636344;2.349833;0.938996;8.39567e-13;0;0;8.39567e-13;-1.110223e-16;0;3.956494e-18;0;0;0;0;1.408187e-19;-1.111631e-16;5.565197e-17;45;0;7.420263e-17;7.415573e-17;-1.110223e-16;5.695786e-17;-4.904487e-17;0;-1.060027e-16;0.938996;-1.110223e-16;1.110223e-16;0
0.703509;2.349833;0.936393;8.39567e-13;0;0;8.39567e-13;0;2.220446e-16;1.02101e-17;0;0;0;0;2.225131e-16;-4.684942e-19;1.114908e-16;45;0;1.486544e-16;1.484985e-16;0;3.061091e-17;-1.019071e-17;2.220446e-16;-4.080162e-17;0.936393;2.220446e-16;-2.220446e-16;0
0.770674;2.349833;0.915629;8.39567e-13;0;0;8.39567e-13;2.220446e-16;-1.110223e-16;6.060701e-18;0;0;0;0;2.221549e-16;-1.111325e-16;1.666437e-16;45;0;2.221916e-16;1.959499e-16;2.220446e-16;2.161525e-18;9.959877e-18;-1.110223e-16;7.798352e-18;0.915629;1.110223e-16;-1.110223e-16;0
0.83784;2.349833;0.894939;8.39567e-13;0;0;8.39567e-13;2.220446e-16;-1.110223e-16;6.642654e-18;0;0;0;0;2.22177e-16;-1.111547e-16;1.666659e-16;45;0;2.222212e-16;1.959751e-16;2.220446e-16;1.641001e-17;-3.124701e-18;-1.110223e-16;-1.953471e-17;0.894939;1.110223e-16;-1.110223e-16;0
0.905005;2.349833;0.876716;8.39567e-13;0;0;8.39567e-13;-1.110223e-16;2.220446e-16;2.995963e-17;0;0;0;0;2.24718e-16;-1.136957e-16;1.692069e-16;45;0;2.256092e-16;1.988572e-16;-1.110223e-16;4.835688e-17;1.156238e-17;2.220446e-16;-3.67945e-17;0.876716;1.110223e-16;-1.110223e-16;0
0.97217;2.349833;0.846977;8.39567e-13;0;0;8.39567e-13;-1.110223e-16;2.220446e-16;2.392404e-17;0;0;0;0;2.237543e-16;-1.12732e-16;1.682431e-16;45;0;2.243242e-16;1.977639e-16;-1.110223e-16;1.120898e-18;4.672718e-17;2.220446e-16;4.560628e-17;0.846977;1.110223e-16;-1.110223e-16;0
1.039336;2.349833;0.8187;8.39567e-13;0;0;8.39567e-13;2.220446e-16;0;1.582236e-17;0;0;0;0;2.231664e-16;-1.121796e-18;1.121441e-16;45;0;1.495255e-16;1.491529e-16;2.220446e-16;3.164472e-17;0;0;-3.164472e-17;0.8187;2.220446e-16;-2.220446e-16;0
1.106501;2.349833;0.80822;8.39567e-13;0;0;8.39567e-13;2.220446e-16;-1.110223e-16;2.994065e-17;0;0;0;0;2.247147e-16;-1.136924e-16;1.692035e-16;45;0;2.256047e-16;1.988534e-16;2.220446e-16;3.689906e-17;2.298223e-17;-1.110223e-16;-1.391683e-17;0.80822;1.110223e-16;-1.110223e-16;0
1.173667;2.349833;0.758979;8.39567e-13;0;0;8.39567e-13;2.220446e-16;0;-1.826953e-17;0;0;0;0;2.235378e-16;-1.493152e-18;1.125154e-16;45;0;1.500206e-16;1.495254e-16;2.220446e-16;-3.653906e-17;0;0;3.653906e-17;0.758979;2.220446e-16;-2.220446e-16;0
1.240832;2.349833;0.66517;8.39567e-13;0;0;8.39567e-13;0;2.220446e-16;-1.266455e-18;0;0;0;0;2.220518e-16;-7.223127e-21;1.110295e-16;45;0;1.480394e-16;1.48037e-16;0;3.756854e-17;-4.010145e-17;2.220446e-16;-7.767e-17;0.66517;2.220446e-16;-2.220446e-16;0
1.307997;2.349833;0.598382;8.39567e-13;0;0;8.39567e-13;-2.220446e-16;-1.110223e-16;-1.007906e-17;0;0;0;0;-1.101147e-16;-2.229522e-16;5.641875e-17;45;0;7.5225e-17;1.287247e-16;-2.220446e-16;-3.538062e-17;1.522251e-17;-1.110223e-16;5.060313e-17;0.598382;-3.330669e-16;3.330669e-16;0
1.375163;2.349833;0.518702;8.39567e-13;0;0;8.39567e-13;0;2.220446e-16;2.046135e-17;0;0;0;0;2.239144e-16;-1.869764e-18;1.128921e-16;45;0;1.505228e-16;1.499034e-16;0;1.636095e-17;2.456176e-17;2.220446e-16;8.200803e-18;0.518702;2.220446e-16;-2.220446e-16;0
1.442328;2.349833;0.430637;8.39567e-13;0;0;8.39567e-13;2.220446e-16;-3.330669e-16;3.574541e-17;0;0;0;0;2.243369e-16;-3.353592e-16;2.79848e-16;45;0;3.731307e-16;3.252529e-16;2.220446e-16;8.432086e-17;-1.283005e-17;-3.330669e-16;-9.715091e-17;0.430637;-1.110223e-16;1.110223e-16;0
1.509493;2.349833;0.366002;8.39567e-13;0;0;8.39567e-13;-3.330669e-16;0;-7.367467e-17;0;0;0;0;1.556913e-17;-3.48636e-16;1.821026e-16;45;0;2.428035e-16;2.377837e-16;-3.330669e-16;-1.265699e-16;-2.077948e-17;0;1.057904e-16;0.366002;-3.330669e-16;3.330669e-16;0
-0.371137;2.282667;0.303925;8.39567e-13;0;0;8.39567e-13;0;0;-1.061524e-17;0;0;0;0;1.061524e-17;-1.061524e-17;1.061524e-17;45;0;1.415365e-17;1.225742e-17;0;2.316761e-17;-4.439809e-17;0;-6.75657e-17;0.303925;0;0;0
-0.303971;2.282667;0.423148;8.39567e-13;0;0;8.39567e-13;0;0;-1.068477e-16;0;0;0;0;1.068477e-16;-1.068477e-16;1.068477e-16;45;0;1.424636e-16;1.233771e-16;0;-1.925768e-16;-2.111858e-17;0;1.714582e-16;0.423148;0;0;0
-0.236806;2.282667;0.521724;8.39567e-13;0;0;8.39567e-13;0;0;-3.093504e-17;0;0;0;0;3.093504e-17;-3.093504e-17;3.093504e-17;45;0;4.124672e-17;3.572071e-17;0;-3.547838e-17;-2.63917e-17;0;9.086673e-18;0.521724;0;0;0
-0.169641;2.282667;0.554876;8.39567e-13;0;0;8.39567e-13;-1.110223e-16;2.220446e-16;1.553128e-17;0;0;0;0;2.227673e-16;-1.11745e-16;1.672561e-16;45;0;2.230082e-16;1.966444e-16;-1.110223e-16;2.723852e-17;3.824043e-18;2.220446e-16;-2.341448e-17;0.554876;1.110223e-16;-1.110223e-16;0
-0.102475;2.282667;0.629574;8.39567e-13;0;0;8.39567e-13;0;0;-4.282708e-17;0;0;0;0;4.282708e-17;-4.282708e-17;4.282708e-17;45;0;5.710277e-17;4.945245e-17;0;-7.868029e-17;-6.973871e-18;0;7.170641e-17;0.629574;0;0;0
-0.03531;2.282667;0.700584;8.39567e-13;0;0;8.39567e-13;0;2.220446e-16;6.915123e-18;0;0;0;0;2.222598e-16;-2.151489e-19;1.112374e-16;45;0;1.483166e-16;1.482449e-16;0;5.911301e-18;7.918946e-18;2.220446e-16;2.007644e-18;0.700584;2.220446e-16;-2.220446e-16;0
0.031855;2.282667;0.74041;8.39567e-13;0;0;8.39567e-13;2.220446e-16;2.220446e-16;-8.757419e-18;0;0;0;0;2.30802e-16;2.132872e-16;8.757419e-18;45;0;1.167656e-17;1.483747e-16;2.220446e-16;-2.40761e-17;6.561263e-18;2.220446e-16;3.063736e-17;0.74041;4.440892e-16;-4.440892e-16;0
0.099021;2.282667;0.786168;8.39567e-13;0;0;8.39567e-13;2.220446e-16;0;1.372946e-17;0;0;0;0;2.228903e-16;-8.456991e-19;1.11868e-16;45;0;1.491573e-16;1.488762e-16;2.220446e-16;7.891045e-18;1.956788e-17;0;1.167683e-17;0.786168;2.220446e-16;-2.220446e-16;0
0.166186;2.282667;0.821633;8.39567e-13;0;0;8.39567e-13;2.220446e-16;-1.110223e-16;2.942599e-17;0;0;0;0;2.246244e-16;-1.136021e-16;1.691132e-16;45;0;2.254843e-16;1.987509e-16;2.220446e-16;2.244668e-17;3.64053e-17;-1.110223e-16;1.395862e-17;0.821633;1.110223e-16;-1.110223e-16;0
0.233352;2.282667;0.851053;8.39567e-13;0;0;8.39567e-13;-1.110223e-16;2.220446e-16;-3.131797e-17;0;0;0;0;2.249638e-16;-1.139415e-16;1.694527e-16;45;0;2.259369e-16;1.99136e-16;-1.110223e-16;-4.377261e-17;-1.886334e-17;2.220446e-16;2.490927e-17;0.851053;1.110223e-16;-1.110223e-16;0
0.300517;2.282667;0.879533;8.39567e-13;0;0;8.39567e-13;2.220446e-16;-1.110223e-16;2.674296e-17;0;0;0;0;2.241782e-16;-1.131559e-16;1.686671e-16;45;0;2.248894e-16;1.982448e-16;2.220446e-16;4.346906e-17;1.001685e-17;-1.110223e-16;-3.345221e-17;0.879533;1.110223e-16;-1.110223e-16;0
0.367682;2.282667;0.89144;8.39567e-13;0;0;8.39567e-13;0;-1.110223e-16;1.071361e-17;0;0;0;0;1.024407e-18;-1.120467e-16;5.653556e-17;45;0;7.538074e-17;7.504161e-17;0;-6.926181e-18;2.835341e-17;-1.110223e-16;3.527958e-17;0.89144;-1.110223e-16;1.110223e-16;0
0.434848;2.282667;0.893869;8.39567e-13;0;0;8.39567e-13;2.220446e-16;-3.330669e-16;2.492032e-17;0;0;0;0;2.231611e-16;-3.341834e-16;2.786723e-16;45;0;3.71563e-16;3.239041e-16;2.220446e-16;1.943135e-17;3.04093e-17;-3.330669e-16;1.097795e-17;0.893869;-1.110223e-16;1.110223e-16;0
0.502013;2.282667;0.917094;8.39567e-13;0;0;8.39567e-13;-1.110223e-16;0;1.61704e-17;0;0;0;0;2.30727e-18;-1.133296e-16;5.781842e-17;45;0;7.709123e-17;7.633376e-17;-1.110223e-16;1.281088e-17;1.952992e-17;0;6.719044e-18;0.917094;-1.110223e-16;1.110223e-16;0
0.569178;2.282667;0.944364;8.39567e-13;0;0;8.39567e-13;0;0;-8.371094e-18;0;0;0;0;8.371094e-18;-8.371094e-18;8.371094e-18;45;0;1.116146e-17;9.666107e-18;0;-3.674274e-17;2.000055e-17;0;5.674329e-17;0.944364;0;0;0
0.636344;2.282667;0.961587;8.39567e-13;0;0;8.39567e-13;-1.110223e-16;0;-2.198205e-17;0;0;0;0;4.193945e-18;-1.152163e-16;5.97051e-17;45;0;7.96068e-17;7.824629e-17;-1.110223e-16;5.532128e-18;-4.949623e-17;0;-5.502836e-17;0.961587;-1.110223e-16;1.110223e-16;0
0.703509;2.282667;0.958944;8.39567e-13;0;0;8.39567e-13;2.220446e-16;-1.110223e-16;3.94494e-17;0;0;0;0;2.266533e-16;-1.15631e-16;1.711422e-16;45;0;2.281896e-16;2.010533e-16;2.220446e-16;3.335449e-17;4.554431e-17;-1.110223e-16;1.218982e-17;0.958944;1.110223e-16;-1.110223e-16;0
0.770674;2.282667;0.923451;8.39567e-13;0;0;8.39567e-13;-1.110223e-16;-1.110223e-16;-2.095092e-18;0;0;0;0;-1.089272e-16;-1.131174e-16;2.095092e-18;45;0;2.793456e-18;7.40544e-17;-1.110223e-16;2.003097e-17;-2.422115e-17;-1.110223e-16;-4.425212e-17;0.923451;-2.220446e-16;2.220446e-16;0
0.83784;2.282667;0.904944;8.39567e-13;0;0;8.39567e-13;0;0;1.707514e-19;0;0;0;0;1.707514e-19;-1.707514e-19;1.707514e-19;45;0;2.276685e-19;1.971667e-19;0;2.010034e-17;-1.975884e-17;0;-3.985918e-17;0.904944;0;0;0
0.905005;2.282667;0.889596;8.39567e-13;0;0;8.39567e-13;0;0;-1.726303e-17;0;0;0;0;1.726303e-17;-1.726303e-17;1.726303e-17;45;0;2.301737e-17;1.993363e-17;0;-3.08544e-17;-3.671653e-18;0;2.718274e-17;0.889596;0;0;0
0.97217;2.282667;0.863986;8.39567e-13;0;0;8.39567e-13;4.440892e-16;0;1.161815e-17;0;0;0;0;4.44393e-16;-3.037435e-19;2.223483e-16;45;0;2.964645e-16;2.963633e-16;4.440892e-16;1.385661e-17;9.3797e-18;0;-4.476906e-18;0.863986;4.440892e-16;-4.440892e-16;0
1.039336;2.282667;0.82001;8.39567e-13;0;0;8.39567e-13;0;2.220446e-16;-1.36045e-17;0;0;0;0;2.22875e-16;-8.304312e-19;1.118527e-16;45;0;1.49137e-16;1.488609e-16;0;-5.785438e-17;3.064538e-17;2.220446e-16;8.849977e-17;0.82001;2.220446e-16;-2.220446e-16;0
1.106501;2.282667;0.796927;8.39567e-13;0;0;8.39567e-13;0;2.220446e-16;3.165635e-17;0;0;0;0;2.264696e-16;-4.424984e-18;1.154473e-16;45;0;1.539297e-16;1.524761e-16;0;2.450479e-17;3.880791e-17;2.220446e-16;1.430312e-17;0.796927;2.220446e-16;-2.220446e-16;0
1.173667;2.282667;0.784105;8.39567e-13;0;0;8.39567e-13;-1.110223e-16;2.220446e-16;-5.260942e-18;0;0;0;0;2.221277e-16;-1.111054e-16;1.666165e-16;45;0;2.221554e-16;1.959191e-16;-1.110223e-16;1.324433e-17;-2.376621e-17;2.220446e-16;-3.701054e-17;0.784105;1.110223e-16;-1.110223e-16;0
1.240832;2.282667;0.709205;8.39567e-13;0;0;8.39567e-13;-2.220446e-16;0;5.880266e-17;0;0;0;0;1.461091e-17;-2.366555e-16;1.256332e-16;45;0;1.67511e-16;1.628593e-16;-2.220446e-16;1.041682e-16;1.343716e-17;0;-9.073101e-17;0.709205;-2.220446e-16;2.220446e-16;0
1.307997;2.282667;0.621533;8.39567e-13;0;0;8.39567e-13;0;2.220446e-16;1.861365e-17;0;0;0;0;2.235941e-16;-1.549539e-18;1.125718e-16;45;0;1.500958e-16;1.49582e-16;0;7.448873e-17;-3.726144e-17;2.220446e-16;-1.117502e-16;0.621533;2.220446e-16;-2.220446e-16;0
1.375163;2.282667;0.516829;8.39567e-13;0;0;8.39567e-13;2.220446e-16;0;-6.627382e-17;0;0;0;0;2.403211e-16;-1.827647e-17;1.292988e-16;45;0;1.723984e-16;1.666406e-16;2.220446e-16;-1.437246e-16;1.11769e-17;0;1.549015e-16;0.516829;2.220446e-16;-2.220446e-16;0
1.442328;2.282667;0.412577;8.39567e-13;0;0;8.39567e-13;2.220446e-16;0;1.640587e-17;0;0;0;0;2.232502e-16;-1.205609e-18;1.122279e-16;45;0;1.496372e-16;1.49237e-16;2.220446e-16;6.763527e-17;-3.482354e-17;0;-1.024588e-16;0.412577;2.220446e-16;-2.220446e-16;0
1.509493;2.282667;0.32566;8.39567e-13;0;0;8.39567e-13;-1.110223e-16;0;-4.023632e-17;0;0;0;0;1.304867e-17;-1.24071e-16;6.855983e-17;45;0;9.14131e-17;8.738888e-17;-1.110223e-16;-8.047264e-17;0;0;8.047264e-17;0.32566;-1.110223e-16;1.110223e-16;0
-0.371137;2.215502;0.29339;8.39567e-13;0;0;8.39567e-13;-3.330669e-16;0;-3.432683e-17;0;0;0;0;3.50102e-18;-3.365679e-16;1.700345e-16;45;0;2.267126e-16;2.255547e-16;-3.330669e-16;6.694199e-17;-1.355956e-16;0;-2.025376e-16;0.29339;-3.330669e-16;3.330669e-16;0
-0.303971;2.215502;0.365725;8.39567e-13;0;0;8.39567e-13;0;2.220446e-16;5.405617e-17;0;0;0;0;2.345052e-16;-1.246057e-17;1.234829e-16;45;0;1.646438e-16;1.606515e-16;0;7.3273e-17;3.483934e-17;2.220446e-16;-3.843366e-17;0.365725;2.220446e-16;-2.220446e-16;0
-0.236806;2.215502;0.467417;8.39567e-13;0;0;8.39567e-13;-2.220446e-16;-1.110223e-16;5.809936e-17;0;0;0;0;-8.617785e-17;-2.468891e-16;8.035561e-17;45;0;1.071408e-16;1.446904e-16;-2.220446e-16;1.161987e-16;0;-1.110223e-16;-1.161987e-16;0.467417;-3.330669e-16;3.330669e-16;0
-0.169641;2.215502;0.55928;8.39567e-13;0;0;8.39567e-13;2.220446e-16;-1.110223e-16;2.297923e-17;0;0;0;0;2.236225e-16;-1.126002e-16;1.681114e-16;45;0;2.241485e-16;1.976144e-16;2.220446e-16;4.363863e-17;2.319828e-18;-1.110223e-16;-4.131881e-17;0.55928;1.110223e-16;-1.110223e-16;0
-0.102475;2.215502;0.651875;8.39567e-13;0;0;8.39567e-13;0;2.220446e-16;-3.939228e-18;0;0;0;0;2.221145e-16;-6.986271e-20;1.110922e-16;45;0;1.481229e-16;1.480996e-16;0;-1.044713e-18;-6.833744e-18;2.220446e-16;-5.78903e-18;0.651875;2.220446e-16;-2.220446e-16;0
-0.03531;2.215502;0.711233;8.39567e-13;0;0;8.39567e-13;2.220446e-16;-3.330669e-16;1.562439e-18;0;0;0;0;2.22049e-16;-3.330713e-16;2.775602e-16;45;0;3.700802e-16;3.226284e-16;2.220446e-16;-3.811352e-17;4.12384e-17;-3.330669e-16;7.935193e-17;0.711233;-1.110223e-16;1.110223e-16;0
0.031855;2.215502;0.744456;8.39567e-13;0;0;8.39567e-13;-1.110223e-16;-1.110223e-16;4.138e-17;0;0;0;0;-6.96423e-17;-1.524023e-16;4.138e-17;45;0;5.517333e-17;8.809809e-17;-1.110223e-16;6.292137e-17;1.983863e-17;-1.110223e-16;-4.308275e-17;0.744456;-2.220446e-16;2.220446e-16;0
0.099021;2.215502;0.789068;8.39567e-13;0;0;8.39567e-13;4.440892e-16;-1.110223e-16;-3.988457e-18;0;0;0;0;4.441179e-16;-1.11051e-16;2.775844e-16;45;0;3.701126e-16;3.3921e-16;4.440892e-16;9.150185e-18;-1.71271e-17;-1.110223e-16;-2.627728e-17;0.789068;3.330669e-16;-3.330669e-16;0
0.166186;2.215502;0.833634;8.39567e-13;0;0;8.39567e-13;0;0;5.801827e-18;0;0;0;0;5.801827e-18;-5.801827e-18;5.801827e-18;45;0;7.735768e-18;6.699372e-18;0;2.214524e-18;9.389129e-18;0;7.174605e-18;0.833634;0;0;0
0.233352;2.215502;0.855408;8.39567e-13;0;0;8.39567e-13;0;0;-1.197842e-17;0;0;0;0;1.197842e-17;-1.197842e-17;1.197842e-17;45;0;1.597123e-17;1.383149e-17;0;-1.25123e-17;-1.144454e-17;0;1.067753e-18;0.855408;0;0;0
0.300517;2.215502;0.906377;8.39567e-13;0;0;8.39567e-13;-1.110223e-16;-3.330669e-16;-3.341305e-17;0;0;0;0;-1.061033e-16;-3.379859e-16;1.159413e-16;45;0;1.545884e-16;1.995895e-16;-1.110223e-16;-1.920643e-17;-4.761967e-17;-3.330669e-16;-2.841324e-17;0.906377;-4.440892e-16;4.440892e-16;0
0.367682;2.215502;0.898534;8.39567e-13;0;0;8.39567e-13;2.220446e-16;2.220446e-16;-6.795568e-18;0;0;0;0;2.288402e-16;2.15249e-16;6.795568e-18;45;0;9.060758e-18;1.482376e-16;2.220446e-16;3.147709e-18;-1.673885e-17;2.220446e-16;-1.988655e-17;0.898534;4.440892e-16;-4.440892e-16;0
0.434848;2.215502;0.891644;8.39567e-13;0;0;8.39567e-13;2.220446e-16;-3.330669e-16;-5.49621e-18;0;0;0;0;2.22099e-16;-3.331213e-16;2.776102e-16;45;0;3.701469e-16;3.226858e-16;2.220446e-16;-6.566847e-18;-4.425574e-18;-3.330669e-16;2.141273e-18;0.891644;-1.110223e-16;1.110223e-16;0
0.502013;2.215502;0.903511;8.39567e-13;0;0;8.39567e-13;0;0;4.525137e-17;0;0;0;0;4.525137e-17;-4.525137e-17;4.525137e-17;45;0;6.033516e-17;5.225178e-17;0;6.790258e-17;2.260015e-17;0;-4.530244e-17;0.903511;0;0;0
0.569178;2.215502;0.920658;8.39567e-13;0;0;8.39567e-13;-1.110223e-16;2.220446e-16;-1.140932e-18;0;0;0;0;2.220485e-16;-1.110262e-16;1.665374e-16;45;0;2.220498e-16;1.958294e-16;-1.110223e-16;2.834909e-17;-3.063095e-17;2.220446e-16;-5.898004e-17;0.920658;1.110223e-16;-1.110223e-16;0
0.636344;2.215502;0.936484;8.39567e-13;0;0;8.39567e-13;2.220446e-16;0;-2.119295e-18;0;0;0;0;2.220648e-16;-2.022567e-20;1.110425e-16;45;0;1.480567e-16;1.4805e-16;2.220446e-16;-4.23859e-18;0;0;4.23859e-18;0.936484;2.220446e-16;-2.220446e-16;0
0.703509;2.215502;0.950217;8.39567e-13;0;0;8.39567e-13;2.220446e-16;-1.110223e-16;-3.622143e-17;0;0;0;0;2.259382e-16;-1.149159e-16;1.704271e-16;45;0;2.272361e-16;2.002417e-16;2.220446e-16;-1.046356e-17;-6.19793e-17;-1.110223e-16;-5.151574e-17;0.950217;1.110223e-16;-1.110223e-16;0
0.770674;2.215502;0.935155;8.39567e-13;0;0;8.39567e-13;2.220446e-16;-1.110223e-16;-8.601939e-18;0;0;0;0;2.222666e-16;-1.112443e-16;1.667555e-16;45;0;2.223406e-16;1.960767e-16;2.220446e-16;-1.596268e-17;-1.241201e-18;-1.110223e-16;1.472148e-17;0.935155;1.110223e-16;-1.110223e-16;0
0.83784;2.215502;0.904992;8.39567e-13;0;0;8.39567e-13;2.220446e-16;0;-2.913355e-18;0;0;0;0;2.220828e-16;-3.821835e-20;1.110605e-16;45;0;1.480807e-16;1.48068e-16;2.220446e-16;-2.919268e-17;2.336597e-17;0;5.255864e-17;0.904992;2.220446e-16;-2.220446e-16;0
0.905005;2.215502;0.875476;8.39567e-13;0;0;8.39567e-13;-1.110223e-16;-1.110223e-16;-2.215728e-17;0;0;0;0;-8.886503e-17;-1.331796e-16;2.215728e-17;45;0;2.954304e-17;7.831216e-17;-1.110223e-16;-4.431456e-17;0;-1.110223e-16;4.431456e-17;0.875476;-2.220446e-16;2.220446e-16;0
0.97217;2.215502;0.856654;8.39567e-13;0;0;8.39567e-13;0;2.220446e-16;-1.209318e-17;0;0;0;0;2.227013e-16;-6.56687e-19;1.11679e-16;45;0;1.489053e-16;1.486869e-16;0;1.878145e-19;-2.437418e-17;2.220446e-16;-2.456199e-17;0.856654;2.220446e-16;-2.220446e-16;0
1.039336;2.215502;0.833228;8.39567e-13;0;0;8.39567e-13;-1.110223e-16;-1.110223e-16;-2.538671e-17;0;0;0;0;-8.563559e-17;-1.36409e-16;2.538671e-17;45;0;3.384895e-17;7.96085e-17;-1.110223e-16;-2.218443e-17;-2.8589e-17;-1.110223e-16;-6.404571e-18;0.833228;-2.220446e-16;2.220446e-16;0
1.106501;2.215502;0.795475;8.39567e-13;0;0;8.39567e-13;2.220446e-16;-1.110223e-16;-2.631098e-17;0;0;0;0;2.241103e-16;-1.13088e-16;1.685991e-16;45;0;2.247988e-16;1.981677e-16;2.220446e-16;-2.356992e-17;-2.905206e-17;-1.110223e-16;-5.482139e-18;0.795475;1.110223e-16;-1.110223e-16;0
1.173667;2.215502;0.763803;8.39567e-13;0;0;8.39567e-13;2.220446e-16;0;1.254822e-17;0;0;0;0;2.227515e-16;-7.068766e-19;1.117292e-16;45;0;1.489722e-16;1.487372e-16;2.220446e-16;6.73449e-17;-4.224846e-17;0;-1.095934e-16;0.763803;2.220446e-16;-2.220446e-16;0
1.240832;2.215502;0.709438;8.39567e-13;0;0;8.39567e-13;-1.110223e-16;0;3.604979e-17;0;0;0;0;1.067854e-17;-1.217008e-16;6.618969e-17;45;0;8.825292e-17;8.491751e-17;-1.110223e-16;3.845379e-17;3.364578e-17;0;-4.808012e-18;0.709438;-1.110223e-16;1.110223e-16;0
1.307997;2.215502;0.652166;8.39567e-13;0;0;8.39567e-13;-2.220446e-16;-3.330669e-16;6.444773e-17;0;0;0;0;-1.92497e-16;-3.626145e-16;8.505878e-17;45;0;1.134117e-16;2.094885e-16;-2.220446e-16;1.095321e-16;1.936336e-17;-3.330669e-16;-9.016874e-17;0.652166;-5.551115e-16;5.551115e-16;0
1.375163;2.215502;0.556072;8.39567e-13;0;0;8.39567e-13;4.440892e-16;-1.110223e-16;1.635532e-17;0;0;0;0;4.445707e-16;-1.115038e-16;2.780372e-16;45;0;3.707163e-16;3.397041e-16;4.440892e-16;6.855369e-19;3.202509e-17;-1.110223e-16;3.133956e-17;0.556072;3.330669e-16;-3.330669e-16;0
1.442328;2.215502;0.421603;8.39567e-13;0;0;8.39567e-13;2.220446e-16;2.220446e-16;-1.506179e-17;0;0;0;0;2.371064e-16;2.069828e-16;1.506179e-17;45;0;2.008238e-17;1.490479e-16;2.220446e-16;-1.947448e-17;-1.064909e-17;2.220446e-16;8.825393e-18;0.421603;4.440892e-16;-4.440892e-16;0
1.509493;2.215502;0.3187;8.39567e-13;0;0;8.39567e-13;4.440892e-16;0;-7.792403e-17;0;0;0;0;4.573656e-16;-1.327637e-17;2.35321e-16;45;0;3.137613e-16;3.094308e-16;4.440892e-16;-1.865291e-16;3.068105e-17;0;2.172102e-16;0.3187;4.440892e-16;-4.440892e-16;0
-0.371137;2.148337;0.308609;8.39567e-13;0;0;8.39567e-13;-3.330669e-16;-2.220446e-16;-1.771374e-17;0;0;0;0;-2.192869e-16;-3.358247e-16;5.82689e-17;45;0;7.769187e-17;1.968903e-16;-3.330669e-16;-4.821165e-17;1.278417e-17;-2.220446e-16;6.099582e-17;0.308609;-5.551115e-16;5.551115e-16;0
-0.303971;2.148337;0.374159;8.39567e-13;0;0;8.39567e-13;-2.220446e-16;-1.110223e-16;-2.602498e-17;0;0;0;0;-1.052245e-16;-2.278424e-16;6.130895e-17;45;0;8.174527e-17;1.316726e-16;-2.220446e-16;-5.204997e-17;0;-1.110223e-16;5.204997e-17;0.374159;-3.330669e-16;3.330669e-16;0
-0.236806;2.148337;0.485764;8.39567e-13;0;0;8.39567e-13;2.220446e-16;-1.110223e-16;-3.265735e-17;0;0;0;0;2.252165e-16;-1.141942e-16;1.697053e-16;45;0;2.262738e-16;1.994227e-16;2.220446e-16;-1.813838e-17;-4.717631e-17;-1.110223e-16;-2.903793e-17;0.485764;1.110223e-16;-1.110223e-16;0
-0.169641;2.148337;0.565621;8.39567e-13;0;0;8.39567e-13;2.220446e-16;-1.110223e-16;7.497308e-18;0;0;0;0;2.222133e-16;-1.11191e-16;1.667021e-16;45;0;2.222695e-16;1.960162e-16;2.220446e-16;1.499462e-17;0;-1.110223e-16;-1.499462e-17;0.565621;1.110223e-16;-1.110223e-16;0
-0.102475;2.148337;0.640963;8.39567e-13;0;0;8.39567e-13;2.220446e-16;0;-3.691658e-17;0;0;0;0;2.280214e-16;-5.97678e-18;1.169991e-16;45;0;1.559988e-16;1.540452e-16;2.220446e-16;-3.066291e-17;-4.317025e-17;0;-1.250734e-17;0.640963;2.220446e-16;-2.220446e-16;0
-0.03531;2.148337;0.708974;8.39567e-13;0;0;8.39567e-13;-1.110223e-16;2.220446e-16;-4.314431e-18;0;0;0;0;2.221005e-16;-1.110782e-16;1.665893e-16;45;0;2.221191e-16;1.958883e-16;-1.110223e-16;-8.628861e-18;0;2.220446e-16;8.628861e-18;0.708974;1.110223e-16;-1.110223e-16;0
0.031855;2.148337;0.741551;8.39567e-13;0;0;8.39567e-13;2.220446e-16;0;-2.506192e-17;0;0;0;0;2.248382e-16;-2.793564e-18;1.138159e-16;45;0;1.517545e-16;1.508319e-16;2.220446e-16;-5.443325e-17;4.309414e-18;0;5.874267e-17;0.741551;2.220446e-16;-2.220446e-16;0
0.099021;2.148337;0.796234;8.39567e-13;0;0;8.39567e-13;4.440892e-16;2.220446e-16;2.288207e-17;0;0;0;0;4.464227e-16;2.197111e-16;1.133558e-16;45;0;1.511411e-16;2.577528e-16;4.440892e-16;2.519932e-17;2.056482e-17;2.220446e-16;-4.634498e-18;0.796234;6.661338e-16;-6.661338e-16;0
0.166186;2.148337;0.843642;8.39567e-13;0;0;8.39567e-13;-1.110223e-16;-1.110223e-16;1.208808e-18;0;0;0;0;-1.098135e-16;-1.122311e-16;1.208808e-18;45;0;1.611745e-18;7.402803e-17;-1.110223e-16;-1.218879e-17;1.460641e-17;-1.110223e-16;2.67952e-17;0.843642;-2.220446e-16;2.220446e-16;0
0.233352;2.148337;0.836526;8.39567e-13;0;0;8.39567e-13;0;0;-5.05384e-17;0;0;0;0;5.05384e-17;-5.05384e-17;5.05384e-17;45;0;6.738453e-17;5.835672e-17;0;-3.514875e-17;-6.592806e-17;0;-3.077931e-17;0.836526;0;0;0
0.300517;2.148337;0.910792;8.39567e-13;0;0;8.39567e-13;-3.330669e-16;0;5.097637e-17;0;0;0;0;7.627337e-18;-3.406943e-16;1.741608e-16;45;0;2.322144e-16;2.297141e-16;-3.330669e-16;8.447442e-17;1.747831e-17;0;-6.69961e-17;0.910792;-3.330669e-16;3.330669e-16;0
0.367682;2.148337;0.911878;8.39567e-13;0;0;8.39567e-13;0;2.220446e-16;-9.632116e-18;0;0;0;0;2.224617e-16;-4.170501e-19;1.114393e-16;45;0;1.485858e-16;1.48447e-16;0;9.210597e-18;-2.847483e-17;2.220446e-16;-3.768543e-17;0.911878;2.220446e-16;-2.220446e-16;0
0.434848;2.148337;0.887111;8.39567e-13;0;0;8.39567e-13;0;2.220446e-16;1.52702e-17;0;0;0;0;2.230898e-16;-1.045225e-18;1.120675e-16;45;0;1.494234e-16;1.490762e-16;0;1.000201e-17;2.05384e-17;2.220446e-16;1.053639e-17;0.887111;2.220446e-16;-2.220446e-16;0
0.502013;2.148337;0.919753;8.39567e-13;0;0;8.39567e-13;-3.330669e-16;0;-3.590575e-17;0;0;0;0;3.826795e-18;-3.368937e-16;1.703602e-16;45;0;2.27147e-16;2.258822e-16;-3.330669e-16;-1.553538e-17;-5.627613e-17;0;-4.074075e-17;0.919753;-3.330669e-16;3.330669e-16;0
0.569178;2.148337;0.905593;8.39567e-13;0;0;8.39567e-13;0;2.220446e-16;-1.547847e-17;0;0;0;0;2.231184e-16;-1.073794e-18;1.120961e-16;45;0;1.494615e-16;1.491048e-16;0;-2.202909e-17;-8.927863e-18;2.220446e-16;1.310122e-17;0.905593;2.220446e-16;-2.220446e-16;0
0.636344;2.148337;0.885807;8.39567e-13;0;0;8.39567e-13;-1.110223e-16;0;-2.447726e-17;0;0;0;0;5.156995e-18;-1.161793e-16;6.066815e-17;45;0;8.089086e-17;7.922783e-17;-1.110223e-16;-2.630459e-18;-4.632405e-17;0;-4.369359e-17;0.885807;-1.110223e-16;1.110223e-16;0
0.703509;2.148337;0.914696;8.39567e-13;0;0;8.39567e-13;0;-1.110223e-16;1.229033e-17;0;0;0;0;1.344282e-18;-1.123666e-16;5.685543e-17;45;0;7.580725e-17;7.536315e-17;0;2.458067e-17;0;-1.110223e-16;-2.458067e-17;0.914696;-1.110223e-16;1.110223e-16;0
0.770674;2.148337;0.93028;8.39567e-13;0;0;8.39567e-13;-1.110223e-16;2.220446e-16;7.146733e-19;0;0;0;0;2.220461e-16;-1.110238e-16;1.66535e-16;45;0;2.220466e-16;1.958267e-16;-1.110223e-16;6.572181e-18;-5.142835e-18;2.220446e-16;-1.171502e-17;0.93028;1.110223e-16;-1.110223e-16;0
0.83784;2.148337;0.911839;8.39567e-13;0;0;8.39567e-13;2.220446e-16;-1.110223e-16;-2.740135e-17;0;0;0;0;2.242838e-16;-1.132616e-16;1.687727e-16;45;0;2.250303e-16;1.983646e-16;2.220446e-16;-4.50857e-17;-9.716992e-18;-1.110223e-16;3.53687e-17;0.911839;1.110223e-16;-1.110223e-16;0
0.905005;2.148337;0.871018;8.39567e-13;0;0;8.39567e-13;2.220446e-16;0;1.087774e-17;0;0;0;0;2.225762e-16;-5.316166e-19;1.115539e-16;45;0;1.487386e-16;1.485617e-16;2.220446e-16;3.097612e-17;-9.220642e-18;0;-4.019676e-17;0.871018;2.220446e-16;-2.220446e-16;0
0.97217;2.148337;0.835787;8.39567e-13;0;0;8.39567e-13;-3.330669e-16;0;1.655877e-17;0;0;0;0;8.212122e-19;-3.338881e-16;1.673547e-16;45;0;2.231396e-16;2.228663e-16;-3.330669e-16;3.858835e-18;2.925871e-17;0;2.539988e-17;0.835787;-3.330669e-16;3.330669e-16;0
1.039336;2.148337;0.838645;8.39567e-13;0;0;8.39567e-13;-3.330669e-16;0;3.706587e-17;0;0;0;0;4.075076e-18;-3.37142e-16;1.706085e-16;45;0;2.27478e-16;2.261319e-16;-3.330669e-16;2.510162e-17;4.903013e-17;0;2.392852e-17;0.838645;-3.330669e-16;3.330669e-16;0
1.106501;2.148337;0.806235;8.39567e-13;0;0;8.39567e-13;0;-3.330669e-16;1.66148e-17;0;0;0;0;8.267651e-19;-3.338937e-16;1.673602e-16;45;0;2.23147e-16;2.228719e-16;0;2.872829e-17;4.501315e-18;-3.330669e-16;-2.422697e-17;0.806235;-3.330669e-16;3.330669e-16;0
1.173667;2.148337;0.757794;8.39567e-13;0;0;8.39567e-13;-2.220446e-16;0;-3.157688e-17;0;0;0;0;4.403219e-18;-2.264478e-16;1.154255e-16;45;0;1.539007e-16;1.524542e-16;-2.220446e-16;-4.252743e-17;-2.062633e-17;0;2.19011e-17;0.757794;-2.220446e-16;2.220446e-16;0
1.240832;2.148337;0.693683;8.39567e-13;0;0;8.39567e-13;0;-3.330669e-16;-2.590051e-17;0;0;0;0;2.002084e-18;-3.35069e-16;1.685355e-16;45;0;2.247141e-16;2.240497e-16;0;-2.88725e-17;-2.292852e-17;-3.330669e-16;5.943979e-18;0.693683;-3.330669e-16;3.330669e-16;0
1.307997;2.148337;0.631717;8.39567e-13;0;0;8.39567e-13;-1.110223e-16;2.220446e-16;6.593674e-17;0;0;0;0;2.34623e-16;-1.236007e-16;1.791118e-16;45;0;2.388158e-16;2.101054e-16;-1.110223e-16;9.656336e-17;3.531011e-17;2.220446e-16;-6.125325e-17;0.631717;1.110223e-16;-1.110223e-16;0
1.375163;2.148337;0.553998;8.39567e-13;0;0;8.39567e-13;-2.220446e-16;-3.330669e-16;-3.053286e-18;0;0;0;0;-2.219607e-16;-3.331508e-16;5.559506e-17;45;0;7.412675e-17;1.958567e-16;-2.220446e-16;-1.76639e-17;1.155733e-17;-3.330669e-16;2.922123e-17;0.553998;-5.551115e-16;5.551115e-16;0
1.442328;2.148337;0.447094;8.39567e-13;0;0;8.39567e-13;0;-3.330669e-16;-3.748927e-17;0;0;0;0;4.167562e-18;-3.372345e-16;1.70701e-16;45;0;2.276014e-16;2.26225e-16;0;-7.497854e-17;0;-3.330669e-16;7.497854e-17;0.447094;-3.330669e-16;3.330669e-16;0
1.509493;2.148337;0.351494;8.39567e-13;0;0;8.39567e-13;0;-2.220446e-16;7.365308e-17;0;0;0;0;2.220956e-17;-2.442542e-16;1.332319e-16;45;0;1.776425e-16;1.707215e-16;0;5.25372e-17;9.476896e-17;-2.220446e-16;4.223177e-17;0.351494;-2.220446e-16;2.220446e-16;0
-0.371137;2.081171;0.275476;8.39567e-13;0;0;8.39567e-13;-2.220446e-16;0;4.763692e-17;0;0;0;0;9.78841e-18;-2.31833e-16;1.208107e-16;45;0;1.610809e-16;1.579193e-16;-2.220446e-16;6.908792e-17;2.618593e-17;0;-4.2902e-17;0.275476;-2.220446e-16;2.220446e-16;0
-0.303971;2.081171;0.410809;8.39567e-13;0;0;8.39567e-13;-1.110223e-16;0;-2.573388e-17;0;0;0;0;5.674801e-18;-1.166971e-16;6.118595e-17;45;0;8.158127e-17;7.975699e-17;-1.110223e-16;-4.143719e-17;-1.003058e-17;0;3.140662e-17;0.410809;-1.110223e-16;1.110223e-16;0
-0.236806;2.081171;0.51935;8.39567e-13;0;0;8.39567e-13;-2.220446e-16;-1.110223e-16;-6.674885e-17;0;0;0;0;-7.971815e-17;-2.533487e-16;8.681531e-17;45;0;1.157537e-16;1.495833e-16;-2.220446e-16;-1.211968e-16;-1.230091e-17;-1.110223e-16;1.088959e-16;0.51935;-3.330669e-16;3.330669e-16;0
-0.169641;2.081171;0.585961;8.39567e-13;0;0;8.39567e-13;2.220446e-16;2.220446e-16;1.457818e-17;0;0;0;0;2.366228e-16;2.074664e-16;1.457818e-17;45;0;1.943758e-17;1.489838e-16;2.220446e-16;-4.885828e-18;3.404219e-17;2.220446e-16;3.892802e-17;0.585961;4.440892e-16;-4.440892e-16;0
-0.102475;2.081171;0.632323;8.39567e-13;0;0;8.39567e-13;2.220446e-16;0;-1.34527e-17;0;0;0;0;2.228567e-16;-8.120702e-19;1.118344e-16;45;0;1.491125e-16;1.488425e-16;2.220446e-16;7.89882e-18;-3.480423e-17;0;-4.270305e-17;0.632323;2.220446e-16;-2.220446e-16;0
-0.03531;2.081171;0.694366;8.39567e-13;0;0;8.39567e-13;2.220446e-16;0;-1.036291e-17;0;0;0;0;2.225272e-16;-4.825921e-19;1.115049e-16;45;0;1.486732e-16;1.485126e-16;2.220446e-16;3.37991e-18;-2.410573e-17;0;-2.748564e-17;0.694366;2.220446e-16;-2.220446e-16;0
0.031855;2.081171;0.740301;8.39567e-13;0;0;8.39567e-13;0;-1.110223e-16;-1.871928e-18;0;0;0;0;3.155327e-20;-1.110539e-16;5.55427e-17;45;0;7.405694e-17;7.404642e-17;0;3.39077e-17;-3.765155e-17;-1.110223e-16;-7.155925e-17;0.740301;-1.110223e-16;1.110223e-16;0
0.099021;2.081171;0.794519;8.39567e-13;0;0;8.39567e-13;0;-1.110223e-16;-2.694521e-17;0;0;0;0;6.194055e-18;-1.172164e-16;6.170521e-17;45;0;8.227361e-17;8.028861e-17;0;-2.521693e-17;-2.86735e-17;-1.110223e-16;-3.456577e-18;0.794519;-1.110223e-16;1.110223e-16;0
0.166186;2.081171;0.853463;8.39567e-13;0;0;8.39567e-13;0;0;-2.293047e-19;0;0;0;0;2.293047e-19;-2.293047e-19;2.293047e-19;45;0;3.057396e-19;2.647782e-19;0;-4.586094e-19;0;0;4.586094e-19;0.853463;0;0;0
0.233352;2.081171;0.822078;8.39567e-13;0;0;8.39567e-13;0;0;-3.032558e-17;0;0;0;0;3.032558e-17;-3.032558e-17;3.032558e-17;45;0;4.043411e-17;3.501697e-17;0;-9.746644e-18;-5.090453e-17;0;-4.115788e-17;0.822078;0;0;0
0.300517;2.081171;0.852607;8.39567e-13;0;0;8.39567e-13;-1.110223e-16;0;3.260313e-18;0;0;0;0;9.566087e-20;-1.11118e-16;5.560681e-17;45;0;7.414242e-17;7.411055e-17;-1.110223e-16;2.414991e-17;-1.762928e-17;0;-4.177919e-17;0.852607;-1.110223e-16;1.110223e-16;0
0.367682;2.081171;0.907126;8.39567e-13;0;0;8.39567e-13;2.220446e-16;0;1.781737e-17;0;0;0;0;2.234652e-16;-1.420617e-18;1.124429e-16;45;0;1.499239e-16;1.494526e-16;2.220446e-16;5.524921e-17;-1.961448e-17;0;-7.486368e-17;0.907126;2.220446e-16;-2.220446e-16;0
0.434848;2.081171;0.90912;8.39567e-13;0;0;8.39567e-13;0;0;4.211344e-19;0;0;0;0;4.211344e-19;-4.211344e-19;4.211344e-19;45;0;5.615125e-19;4.862841e-19;0;2.086642e-17;-2.002415e-17;0;-4.089057e-17;0.90912;0;0;0
0.502013;2.081171;0.940556;8.39567e-13;0;0;8.39567e-13;2.220446e-16;-1.110223e-16;-2.71955e-17;0;0;0;0;2.242505e-16;-1.132283e-16;1.687394e-16;45;0;2.249859e-16;1.983268e-16;2.220446e-16;-3.38238e-17;-2.05672e-17;-1.110223e-16;1.325659e-17;0.940556;1.110223e-16;-1.110223e-16;0
0.569178;2.081171;0.91285;8.39567e-13;0;0;8.39567e-13;0;0;6.339393e-17;0;0;0;0;6.339393e-17;-6.339393e-17;6.339393e-17;45;0;8.452524e-17;7.3201e-17;0;6.149057e-17;6.529729e-17;0;3.806725e-18;0.91285;0;0;0
0.636344;2.081171;0.896109;8.39567e-13;0;0;8.39567e-13;2.220446e-16;0;4.289609e-17;0;0;0;0;2.300434e-16;-7.998813e-18;1.190211e-16;45;0;1.586948e-16;1.560969e-16;2.220446e-16;2.516682e-17;6.062535e-17;0;3.545853e-17;0.896109;2.220446e-16;-2.220446e-16;0
0.703509;2.081171;0.902494;8.39567e-13;0;0;8.39567e-13;0;0;3.156982e-18;0;0;0;0;3.156982e-18;-3.156982e-18;3.156982e-18;45;0;4.209309e-18;3.645368e-18;0;5.678427e-18;6.35537e-19;0;-5.04289e-18;0.902494;0;0;0
0.770674;2.081171;0.89758;8.39567e-13;0;0;8.39567e-13;-1.110223e-16;-1.110223e-16;-7.976384e-18;0;0;0;0;-1.030459e-16;-1.189987e-16;7.976384e-18;45;0;1.063518e-17;7.458573e-17;-1.110223e-16;-8.210277e-18;-7.742492e-18;-1.110223e-16;4.677859e-19;0.89758;-2.220446e-16;2.220446e-16;0
0.83784;2.081171;0.903032;8.39567e-13;0;0;8.39567e-13;0;-1.110223e-16;2.877483e-18;0;0;0;0;7.452877e-20;-1.110968e-16;5.558568e-17;45;0;7.411424e-17;7.408941e-17;0;8.328052e-18;-2.573086e-18;-1.110223e-16;-1.090114e-17;0.903032;-1.110223e-16;1.110223e-16;0
0.905005;2.081171;0.891231;8.39567e-13;0;0;8.39567e-13;0;0;3.97771e-17;0;0;0;0;3.97771e-17;-3.97771e-17;3.97771e-17;45;0;5.303614e-17;4.593065e-17;0;6.097875e-17;1.857546e-17;0;-4.240328e-17;0.891231;0;0;0
0.97217;2.081171;0.839584;8.39567e-13;0;0;8.39567e-13;0;0;1.289324e-17;0;0;0;0;1.289324e-17;-1.289324e-17;1.289324e-17;45;0;1.719099e-17;1.488783e-17;0;1.206354e-17;1.372294e-17;0;1.6594e-18;0.839584;0;0;0
1.039336;2.081171;0.815806;8.39567e-13;0;0;8.39567e-13;-3.330669e-16;0;9.957247e-18;0;0;0;0;2.974127e-19;-3.333643e-16;1.668309e-16;45;0;2.224411e-16;2.223421e-16;-3.330669e-16;5.022254e-19;1.941227e-17;0;1.891004e-17;0.815806;-3.330669e-16;3.330669e-16;0
1.106501;2.081171;0.786569;8.39567e-13;0;0;8.39567e-13;-3.330669e-16;-1.110223e-16;-1.34823e-18;0;0;0;0;-1.110141e-16;-3.330751e-16;1.110305e-16;45;0;1.480406e-16;1.958311e-16;-3.330669e-16;1.584131e-17;-1.853777e-17;-1.110223e-16;-3.437908e-17;0.786569;-4.440892e-16;4.440892e-16;0
1.173667;2.081171;0.754594;8.39567e-13;0;0;8.39567e-13;0;2.220446e-16;-1.399573e-17;0;0;0;0;2.229233e-16;-8.7869e-19;1.11901e-16;45;0;1.492013e-16;1.489093e-16;0;1.564576e-17;-4.363722e-17;2.220446e-16;-5.928298e-17;0.754594;2.220446e-16;-2.220446e-16;0
1.240832;2.081171;0.701632;8.39567e-13;0;0;8.39567e-13;-1.110223e-16;-1.110223e-16;-1.169458e-17;0;0;0;0;-9.932772e-17;-1.227169e-16;1.169458e-17;45;0;1.559277e-17;7.523664e-17;-1.110223e-16;-3.554466e-18;-1.983469e-17;-1.110223e-16;-1.628022e-17;0.701632;-2.220446e-16;2.220446e-16;0
1.307997;2.081171;0.636033;8.39567e-13;0;0;8.39567e-13;0;-1.110223e-16;-9.571899e-18;0;0;0;0;8.192061e-19;-1.118415e-16;5.633036e-17;45;0;7.510715e-17;7.483557e-17;0;1.944685e-17;-3.859065e-17;-1.110223e-16;-5.80375e-17;0.636033;-1.110223e-16;1.110223e-16;0
1.375163;2.081171;0.56458;8.39567e-13;0;0;8.39567e-13;2.220446e-16;2.220446e-16;5.673839e-17;0;0;0;0;2.78783e-16;1.653062e-16;5.673839e-17;45;0;7.565119e-17;1.6188e-16;2.220446e-16;9.00707e-17;2.340609e-17;2.220446e-16;-6.666461e-17;0.56458;4.440892e-16;-4.440892e-16;0
1.442328;2.081171;0.444007;8.39567e-13;0;0;8.39567e-13;-2.220446e-16;0;-1.664074e-17;0;0;0;0;1.240184e-18;-2.232848e-16;1.122625e-16;45;0;1.496833e-16;1.492716e-16;-2.220446e-16;-2.741273e-18;-3.054021e-17;0;-2.779893e-17;0.444007;-2.220446e-16;2.220446e-16;0
1.509493;2.081171;0.336614;8.39567e-13;0;0;8.39567e-13;2.220446e-16;0;-2.835079e-17;0;0;0;0;2.256073e-16;-3.562684e-18;1.14585e-16;45;0;1.5278e-16;1.516064e-16;2.220446e-16;-1.437738e-17;-4.232421e-17;0;-2.794683e-17;0.336614;2.220446e-16;-2.220446e-16;0
-0.371137;2.014006;0.248071;8.39567e-13;0;0;8.39567e-13;0;0;9.778148e-17;0;0;0;0;9.778148e-17;-9.778148e-17;9.778148e-17;45;0;1.303753e-16;1.129083e-16;0;2.074223e-16;-1.185938e-17;0;-2.192817e-16;0.248071;0;0;0
-0.303971;2.014006;0.423708;8.39567e-13;0;0;8.39567e-13;2.220446e-16;0;1.227967e-17;0;0;0;0;2.227216e-16;-6.770344e-19;1.116993e-16;45;0;1.489325e-16;1.487073e-16;2.220446e-16;1.990748e-17;4.651855e-18;0;-1.525562e-17;0.423708;2.220446e-16;-2.220446e-16;0
-0.236806;2.014006;0.521877;8.39567e-13;0;0;8.39567e-13;-2.220446e-16;-1.110223e-16;-1.826108e-17;0;0;0;0;-1.080958e-16;-2.249711e-16;5.843762e-17;45;0;7.791682e-17;1.299201e-16;-2.220446e-16;-3.652215e-17;0;-1.110223e-16;3.652215e-17;0.521877;-3.330669e-16;3.330669e-16;0
-0.169641;2.014006;0.569034;8.39567e-13;0;0;8.39567e-13;-1.110223e-16;0;-1.318131e-17;0;0;0;0;1.543513e-18;-1.125658e-16;5.705466e-17;45;0;7.607288e-17;7.556364e-17;-1.110223e-16;-1.83358e-17;-8.026813e-18;0;1.030898e-17;0.569034;-1.110223e-16;1.110223e-16;0
-0.102475;2.014006;0.629785;8.39567e-13;0;0;8.39567e-13;-3.330669e-16;0;3.509312e-17;0;0;0;0;3.657376e-18;-3.367243e-16;1.701908e-16;45;0;2.269211e-16;2.257119e-16;-3.330669e-16;4.711567e-17;2.307057e-17;0;-2.404511e-17;0.629785;-3.330669e-16;3.330669e-16;0
-0.03531;2.014006;0.685461;8.39567e-13;0;0;8.39567e-13;0;-1.110223e-16;-2.119776e-17;0;0;0;0;3.909663e-18;-1.14932e-16;5.942082e-17;45;0;7.922775e-17;7.795722e-17;0;-5.416608e-17;1.177055e-17;-1.110223e-16;6.593662e-17;0.685461;-1.110223e-16;1.110223e-16;0
0.031855;2.014006;0.743175;8.39567e-13;0;0;8.39567e-13;0;2.220446e-16;2.015441e-17;0;0;0;0;2.238591e-16;-1.814536e-18;1.128368e-16;45;0;1.504491e-16;1.498479e-16;0;6.881303e-18;3.342753e-17;2.220446e-16;2.654622e-17;0.743175;2.220446e-16;-2.220446e-16;0
0.099021;2.014006;0.783855;8.39567e-13;0;0;8.39567e-13;2.220446e-16;0;1.726287e-17;0;0;0;0;2.233787e-16;-1.334088e-18;1.123564e-16;45;0;1.498085e-16;1.493658e-16;2.220446e-16;-8.147415e-19;3.534049e-17;0;3.615523e-17;0.783855;2.220446e-16;-2.220446e-16;0
0.166186;2.014006;0.81944;8.39567e-13;0;0;8.39567e-13;-4.440892e-16;2.220446e-16;1.19745e-17;0;0;0;0;2.222598e-16;-4.443044e-16;3.332821e-16;45;0;4.443761e-16;3.918939e-16;-4.440892e-16;4.348817e-17;-1.953916e-17;2.220446e-16;-6.302733e-17;0.81944;-2.220446e-16;2.220446e-16;0
0.233352;2.014006;0.826361;8.39567e-13;0;0;8.39567e-13;2.220446e-16;2.220446e-16;-7.662415e-18;0;0;0;0;2.29707e-16;2.143822e-16;7.662415e-18;45;0;1.021655e-17;1.482939e-16;2.220446e-16;9.450294e-18;-2.477512e-17;2.220446e-16;-3.422542e-17;0.826361;4.440892e-16;-4.440892e-16;0
0.300517;2.014006;0.839622;8.39567e-13;0;0;8.39567e-13;-1.110223e-16;2.220446e-16;-5.857423e-17;0;0;0;0;2.320454e-16;-1.210231e-16;1.765342e-16;45;0;2.35379e-16;2.071762e-16;-1.110223e-16;-1.004689e-16;-1.667953e-17;2.220446e-16;8.37894e-17;0.839622;1.110223e-16;-1.110223e-16;0
0.367682;2.014006;0.876823;8.39567e-13;0;0;8.39567e-13;0;-3.330669e-16;2.486461e-17;0;0;0;0;1.845998e-18;-3.349129e-16;1.683795e-16;45;0;2.245059e-16;2.238931e-16;0;-7.443731e-18;5.717294e-17;-3.330669e-16;6.461668e-17;0.876823;-3.330669e-16;3.330669e-16;0
0.434848;2.014006;0.905858;8.39567e-13;0;0;8.39567e-13;-1.110223e-16;-1.110223e-16;1.608337e-17;0;0;0;0;-9.493893e-17;-1.271057e-16;1.608337e-17;45;0;2.144449e-17;7.630924e-17;-1.110223e-16;1.278863e-17;1.93781e-17;-1.110223e-16;6.58947e-18;0.905858;-2.220446e-16;2.220446e-16;0
0.502013;2.014006;0.933494;8.39567e-13;0;0;8.39567e-13;0;2.220446e-16;-3.75622e-18;0;0;0;0;2.221081e-16;-6.352395e-20;1.110858e-16;45;0;1.481144e-16;1.480933e-16;0;7.805004e-18;-1.531744e-17;2.220446e-16;-2.312245e-17;0.933494;2.220446e-16;-2.220446e-16;0
0.569178;2.014006;0.926836;8.39567e-13;0;0;8.39567e-13;2.220446e-16;2.220446e-16;-2.835369e-17;0;0;0;0;2.503983e-16;1.936909e-16;2.835369e-17;45;0;3.780491e-17;1.516071e-16;2.220446e-16;-3.833156e-17;-1.837582e-17;2.220446e-16;1.995574e-17;0.926836;4.440892e-16;-4.440892e-16;0
0.636344;2.014006;0.933962;8.39567e-13;0;0;8.39567e-13;0;-4.440892e-16;3.119854e-17;0;0;0;0;2.181075e-18;-4.462703e-16;2.242257e-16;45;0;2.989676e-16;2.982432e-16;0;1.342885e-17;4.896823e-17;-4.440892e-16;3.553938e-17;0.933962;-4.440892e-16;4.440892e-16;0
0.703509;2.014006;0.915606;8.39567e-13;0;0;8.39567e-13;0;0;1.582258e-18;0;0;0;0;1.582258e-18;-1.582258e-18;1.582258e-18;45;0;2.109677e-18;1.827034e-18;0;5.657404e-18;-2.492889e-18;0;-8.150292e-18;0.915606;0;0;0
0.770674;2.014006;0.880705;8.39567e-13;0;0;8.39567e-13;0;2.220446e-16;-7.739384e-18;0;0;0;0;2.22314e-16;-2.6943e-19;1.112917e-16;45;0;1.48389e-16;1.482992e-16;0;-2.382192e-17;8.343157e-18;2.220446e-16;3.216508e-17;0.880705;2.220446e-16;-2.220446e-16;0
0.83784;2.014006;0.895095;8.39567e-13;0;0;8.39567e-13;2.220446e-16;0;2.776336e-18;0;0;0;0;2.220793e-16;-3.470851e-20;1.11057e-16;45;0;1.48076e-16;1.480644e-16;2.220446e-16;1.00564e-17;-4.503728e-18;0;-1.456013e-17;0.895095;2.220446e-16;-2.220446e-16;0
0.905005;2.014006;0.905116;8.39567e-13;0;0;8.39567e-13;0;2.220446e-16;2.791841e-19;0;0;0;0;2.220449e-16;-3.510269e-22;1.110227e-16;45;0;1.480302e-16;1.480301e-16;0;3.019214e-17;-2.963377e-17;2.220446e-16;-5.98259e-17;0.905116;2.220446e-16;-2.220446e-16;0
0.97217;2.014006;0.849848;8.39567e-13;0;0;8.39567e-13;0;-1.110223e-16;2.1568e-17;0;0;0;0;4.042746e-18;-1.15065e-16;5.955389e-17;45;0;7.94052e-17;7.80925e-17;0;2.322613e-17;1.990988e-17;-1.110223e-16;-3.316255e-18;0.849848;-1.110223e-16;1.110223e-16;0
1.039336;2.014006;0.819102;8.39567e-13;0;0;8.39567e-13;0;-3.330669e-16;4.303924e-17;0;0;0;0;5.471683e-18;-3.385386e-16;1.720051e-16;45;0;2.293402e-16;2.275382e-16;0;6.817254e-17;1.790593e-17;-3.330669e-16;-5.026661e-17;0.819102;-3.330669e-16;3.330669e-16;0
1.106501;2.014006;0.795188;8.39567e-13;0;0;8.39567e-13;2.220446e-16;0;-5.441527e-18;0;0;0;0;2.221779e-16;-1.332726e-19;1.111556e-16;45;0;1.482074e-16;1.48163e-16;2.220446e-16;-1.264576e-17;1.762706e-18;0;1.440847e-17;0.795188;2.220446e-16;-2.220446e-16;0
1.173667;2.014006;0.76063;8.39567e-13;0;0;8.39567e-13;0;0;1.542356e-17;0;0;0;0;1.542356e-17;-1.542356e-17;1.542356e-17;45;0;2.056475e-17;1.780959e-17;0;2.447096e-17;6.376158e-18;0;-1.809481e-17;0.76063;0;0;0
1.240832;2.014006;0.701117;8.39567e-13;0;0;8.39567e-13;2.220446e-16;2.220446e-16;2.283637e-17;0;0;0;0;2.44881e-16;1.992082e-16;2.283637e-17;45;0;3.044849e-17;1.5036e-16;2.220446e-16;2.745797e-17;1.821477e-17;2.220446e-16;-9.243202e-18;0.701117;4.440892e-16;-4.440892e-16;0
1.307997;2.014006;0.622893;8.39567e-13;0;0;8.39567e-13;-2.220446e-16;2.220446e-16;1.489497e-19;0;0;0;0;2.220447e-16;-2.220447e-16;2.220447e-16;45;0;2.960595e-16;2.563951e-16;-2.220446e-16;-1.974182e-17;2.003972e-17;2.220446e-16;3.978154e-17;0.622893;0;0;0
1.375163;2.014006;0.536975;8.39567e-13;0;0;8.39567e-13;-2.220446e-16;0;-5.748907e-17;0;0;0;0;1.400147e-17;-2.360461e-16;1.250238e-16;45;0;1.666984e-16;1.622327e-16;-2.220446e-16;-9.677576e-17;-1.820237e-17;0;7.857339e-17;0.536975;-2.220446e-16;2.220446e-16;0
1.442328;2.014006;0.438368;8.39567e-13;0;0;8.39567e-13;2.220446e-16;2.220446e-16;-1.437136e-17;0;0;0;0;2.364159e-16;2.076732e-16;1.437136e-17;45;0;1.916181e-17;1.48957e-16;2.220446e-16;7.963568e-18;-3.670628e-17;2.220446e-16;-4.466985e-17;0.438368;4.440892e-16;-4.440892e-16;0
1.509493;2.014006;0.365576;8.39567e-13;0;0;8.39567e-13;2.220446e-16;0;-3.660776e-17;0;0;0;0;2.279243e-16;-5.879707e-18;1.16902e-16;45;0;1.558693e-16;1.539469e-16;2.220446e-16;-5.40706e-17;-1.914492e-17;0;3.492567e-17;0.365576;2.220446e-16;-2.220446e-16;0
-0.371137;1.946841;0.281176;8.39567e-13;0;0;8.39567e-13;-2.220446e-16;2.220446e-16;-2.122738e-17;0;0;0;0;2.23057e-16;-2.23057e-16;2.23057e-16;45;0;2.974093e-16;2.57564e-16;-2.220446e-16;-3.450855e-17;-7.946218e-18;2.220446e-16;2.656233e-17;0.281176;0;0;0
-0.303971;1.946841;0.417288;8.39567e-13;0;0;8.39567e-13;2.220446e-16;-1.110223e-16;-6.449529e-17;0;0;0;0;2.340974e-16;-1.230751e-16;1.785862e-16;45;0;2.381149e-16;2.09508e-16;2.220446e-16;-1.218337e-16;-7.156886e-18;-1.110223e-16;1.146768e-16;0.417288;1.110223e-16;-1.110223e-16;0
-0.236806;1.946841;0.519362;8.39567e-13;0;0;8.39567e-13;-1.110223e-16;0;3.685018e-17;0;0;0;0;1.111785e-17;-1.221402e-16;6.6629e-17;45;0;8.883867e-17;8.537436e-17;-1.110223e-16;4.243445e-17;3.126592e-17;0;-1.116854e-17;0.519362;-1.110223e-16;1.110223e-16;0
-0.169641;1.946841;0.547936;8.39567e-13;0;0;8.39567e-13;-1.110223e-16;2.220446e-16;1.500906e-17;0;0;0;0;2.227196e-16;-1.116973e-16;1.672084e-16;45;0;2.229446e-16;1.965904e-16;-1.110223e-16;7.906806e-18;2.211131e-17;2.220446e-16;1.42045e-17;0.547936;1.110223e-16;-1.110223e-16;0
-0.102475;1.946841;0.618436;8.39567e-13;0;0;8.39567e-13;-3.330669e-16;0;-2.307087e-17;0;0;0;0;1.590478e-18;-3.346574e-16;1.681239e-16;45;0;2.241652e-16;2.23637e-16;-3.330669e-16;-3.137321e-17;-1.476854e-17;0;1.660467e-17;0.618436;-3.330669e-16;3.330669e-16;0
-0.03531;1.946841;0.686054;8.39567e-13;0;0;8.39567e-13;-4.440892e-16;2.220446e-16;-1.276244e-17;0;0;0;0;2.22289e-16;-4.443336e-16;3.333113e-16;45;0;4.444151e-16;3.91927e-16;-4.440892e-16;8.397129e-19;-2.63646e-17;2.220446e-16;-2.720431e-17;0.686054;-2.220446e-16;2.220446e-16;0
0.031855;1.946841;0.743215;8.39567e-13;0;0;8.39567e-13;0;2.220446e-16;-1.992794e-17;0;0;0;0;2.238189e-16;-1.774304e-18;1.127966e-16;45;0;1.503955e-16;1.498075e-16;0;-2.884448e-17;-1.10114e-17;2.220446e-16;1.783309e-17;0.743215;2.220446e-16;-2.220446e-16;0
0.099021;1.946841;0.776799;8.39567e-13;0;0;8.39567e-13;2.220446e-16;0;4.662287e-18;0;0;0;0;2.221425e-16;-9.785125e-20;1.111201e-16;45;0;1.481602e-16;1.481276e-16;2.220446e-16;2.38495e-17;-1.452493e-17;0;-3.837443e-17;0.776799;2.220446e-16;-2.220446e-16;0
0.166186;1.946841;0.798697;8.39567e-13;0;0;8.39567e-13;-1.110223e-16;2.220446e-16;1.676332e-17;0;0;0;0;2.228862e-16;-1.118639e-16;1.67375e-16;45;0;2.231667e-16;1.967793e-16;-1.110223e-16;-3.647087e-18;3.717373e-17;2.220446e-16;4.082081e-17;0.798697;1.110223e-16;-1.110223e-16;0
0.233352;1.946841;0.837274;8.39567e-13;0;0;8.39567e-13;0;0;-1.109299e-17;0;0;0;0;1.109299e-17;-1.109299e-17;1.109299e-17;45;0;1.479065e-17;1.280908e-17;0;-1.246759e-17;-9.71838e-18;0;2.749215e-18;0.837274;0;0;0
0.300517;1.946841;0.855101;8.39567e-13;0;0;8.39567e-13;0;2.220446e-16;1.667764e-17;0;0;0;0;2.232903e-16;-1.24566e-18;1.12268e-16;45;0;1.496906e-16;1.492771e-16;0;3.335528e-17;0;2.220446e-16;-3.335528e-17;0.855101;2.220446e-16;-2.220446e-16;0
0.367682;1.946841;0.86741;8.39567e-13;0;0;8.39567e-13;0;-1.110223e-16;3.035995e-18;0;0;0;0;8.295975e-20;-1.111053e-16;5.559411e-17;45;0;7.412548e-17;7.409785e-17;0;1.601253e-17;-9.940536e-18;-1.110223e-16;-2.595306e-17;0.86741;-1.110223e-16;1.110223e-16;0
0.434848;1.946841;0.879693;8.39567e-13;0;0;8.39567e-13;2.220446e-16;-1.110223e-16;-4.0002e-17;0;0;0;0;2.267816e-16;-1.157593e-16;1.712704e-16;45;0;2.283605e-16;2.011988e-16;2.220446e-16;-6.413085e-17;-1.587315e-17;-1.110223e-16;4.82577e-17;0.879693;1.110223e-16;-1.110223e-16;0
0.502013;1.946841;0.910331;8.39567e-13;0;0;8.39567e-13;0;0;-1.134361e-17;0;0;0;0;1.134361e-17;-1.134361e-17;1.134361e-17;45;0;1.512481e-17;1.309847e-17;0;-7.46553e-18;-1.522168e-17;0;-7.756153e-18;0.910331;0;0;0
0.569178;1.946841;0.908821;8.39567e-13;0;0;8.39567e-13;2.220446e-16;2.220446e-16;1.47467e-17;0;0;0;0;2.367913e-16;2.072979e-16;1.47467e-17;45;0;1.966227e-17;1.490059e-16;2.220446e-16;1.467029e-17;1.482311e-17;2.220446e-16;1.528171e-19;0.908821;4.440892e-16;-4.440892e-16;0
0.636344;1.946841;0.919987;8.39567e-13;0;0;8.39567e-13;2.220446e-16;2.220446e-16;3.903062e-18;0;0;0;0;2.259477e-16;2.181415e-16;3.903062e-18;45;0;5.204082e-18;1.480983e-16;2.220446e-16;5.54669e-18;2.259433e-18;2.220446e-16;-3.287257e-18;0.919987;4.440892e-16;-4.440892e-16;0
0.703509;1.946841;0.910531;8.39567e-13;0;0;8.39567e-13;2.220446e-16;-1.110223e-16;1.840219e-17;0;0;0;0;2.230583e-16;-1.120359e-16;1.675471e-16;45;0;2.233961e-16;1.969744e-16;2.220446e-16;-6.71871e-19;3.747624e-17;-1.110223e-16;3.814812e-17;0.910531;1.110223e-16;-1.110223e-16;0
0.770674;1.946841;0.887573;8.39567e-13;0;0;8.39567e-13;0;-1.110223e-16;-2.340236e-17;0;0;0;0;4.731346e-18;-1.157536e-16;6.02425e-17;45;0;8.032333e-17;7.879358e-17;0;-4.42386e-17;-2.566121e-18;-1.110223e-16;4.167248e-17;0.887573;-1.110223e-16;1.110223e-16;0
0.83784;1.946841;0.896625;8.39567e-13;0;0;8.39567e-13;0;2.220446e-16;3.042014e-18;0;0;0;0;2.220863e-16;-4.166781e-20;1.11064e-16;45;0;1.480853e-16;1.480714e-16;0;-2.305214e-18;8.389242e-18;2.220446e-16;1.069446e-17;0.896625;2.220446e-16;-2.220446e-16;0
0.905005;1.946841;0.889871;8.39567e-13;0;0;8.39567e-13;2.220446e-16;-1.110223e-16;2.33673e-18;0;0;0;0;2.22061e-16;-1.110387e-16;1.665499e-16;45;0;2.220665e-16;1.958435e-16;2.220446e-16;-2.888399e-17;3.355744e-17;-1.110223e-16;6.244143e-17;0.889871;1.110223e-16;-1.110223e-16;0
0.97217;1.946841;0.842724;8.39567e-13;0;0;8.39567e-13;-4.440892e-16;2.220446e-16;-1.596824e-17;0;0;0;0;2.224272e-16;-4.444718e-16;3.334495e-16;45;0;4.445993e-16;3.920837e-16;-4.440892e-16;-3.529312e-17;3.356643e-18;2.220446e-16;3.864976e-17;0.842724;-2.220446e-16;2.220446e-16;0
1.039336;1.946841;0.819921;8.39567e-13;0;0;8.39567e-13;0;2.220446e-16;1.765286e-17;0;0;0;0;2.234393e-16;-1.394668e-18;1.12417e-16;45;0;1.498893e-16;1.494266e-16;0;2.825669e-17;7.049027e-18;2.220446e-16;-2.120767e-17;0.819921;2.220446e-16;-2.220446e-16;0
1.106501;1.946841;0.783788;8.39567e-13;0;0;8.39567e-13;-3.330669e-16;2.220446e-16;5.035117e-17;0;0;0;0;2.265747e-16;-3.37597e-16;2.820859e-16;45;0;3.761145e-16;3.278203e-16;-3.330669e-16;8.660963e-17;1.40927e-17;2.220446e-16;-7.251693e-17;0.783788;-1.110223e-16;1.110223e-16;0
1.173667;1.946841;0.754967;8.39567e-13;0;0;8.39567e-13;0;0;-8.561618e-18;0;0;0;0;8.561618e-18;-8.561618e-18;8.561618e-18;45;0;1.141549e-17;9.886105e-18;0;-4.258019e-17;2.545695e-17;0;6.803714e-17;0.754967;0;0;0
1.240832;1.946841;0.694782;8.39567e-13;0;0;8.39567e-13;0;0;-1.624053e-17;0;0;0;0;1.624053e-17;-1.624053e-17;1.624053e-17;45;0;2.165404e-17;1.875295e-17;0;-1.809781e-17;-1.438326e-17;0;3.714555e-18;0.694782;0;0;0
1.307997;1.946841;0.614817;8.39567e-13;0;0;8.39567e-13;-2.220446e-16;2.220446e-16;-2.823444e-17;0;0;0;0;2.238325e-16;-2.238325e-16;2.238325e-16;45;0;2.984434e-16;2.584595e-16;-2.220446e-16;-5.646889e-17;0;2.220446e-16;5.646889e-17;0.614817;0;0;0
1.375163;1.946841;0.533369;8.39567e-13;0;0;8.39567e-13;0;2.220446e-16;5.916116e-18;0;0;0;0;2.222021e-16;-1.575162e-19;1.111798e-16;45;0;1.482398e-16;1.481873e-16;0;1.183223e-17;0;2.220446e-16;-1.183223e-17;0.533369;2.220446e-16;-2.220446e-16;0
1.442328;1.946841;0.44355;8.39567e-13;0;0;8.39567e-13;0;-1.110223e-16;-2.292111e-17;0;0;0;0;4.54603e-18;-1.155683e-16;6.005718e-17;45;0;8.007624e-17;7.860473e-17;0;-3.941112e-17;-6.431094e-18;-1.110223e-16;3.298003e-17;0.44355;-1.110223e-16;1.110223e-16;0
1.509493;1.946841;0.38095;8.39567e-13;0;0;8.39567e-13;0;4.440892e-16;6.955348e-17;0;0;0;0;4.547278e-16;-1.063864e-17;2.326832e-16;45;0;3.102443e-16;3.067596e-16;0;7.141486e-17;6.76921e-17;4.440892e-16;-3.722754e-18;0.38095;4.440892e-16;-4.440892e-16;0
-0.371137;1.879675;0.249557;8.39567e-13;0;0;8.39567e-13;-2.220446e-16;-2.220446e-16;-1.551022e-17;0;0;0;0;-2.065344e-16;-2.375548e-16;1.551022e-17;45;0;2.06803e-17;1.491092e-16;-2.220446e-16;-3.661186e-17;5.591413e-18;-2.220446e-16;4.220327e-17;0.249557;-4.440892e-16;4.440892e-16;0
-0.303971;1.879675;0.408824;8.39567e-13;0;0;8.39567e-13;2.220446e-16;0;-7.322246e-17;0;0;0;0;2.440166e-16;-2.197199e-17;1.329943e-16;45;0;1.773257e-16;1.704744e-16;2.220446e-16;-1.127381e-16;-3.370681e-17;0;7.90313e-17;0.408824;2.220446e-16;-2.220446e-16;0
-0.236806;1.879675;0.519607;8.39567e-13;0;0;8.39567e-13;4.440892e-16;2.220446e-16;-2.396075e-17;0;0;0;0;4.466454e-16;2.194884e-16;1.135785e-16;45;0;1.51438e-16;2.578835e-16;4.440892e-16;-2.144448e-17;-2.647702e-17;2.220446e-16;-5.032535e-18;0.519607;6.661338e-16;-6.661338e-16;0
-0.169641;1.879675;0.562505;8.39567e-13;0;0;8.39567e-13;2.220446e-16;0;-1.121312e-19;0;0;0;0;2.220447e-16;-5.662557e-23;1.110224e-16;45;0;1.480298e-16;1.480298e-16;2.220446e-16;-5.145982e-18;4.921719e-18;0;1.00677e-17;0.562505;2.220446e-16;-2.220446e-16;0
-0.102475;1.879675;0.626972;8.39567e-13;0;0;8.39567e-13;2.220446e-16;0;7.802734e-18;0;0;0;0;2.223185e-16;-2.738534e-19;1.112962e-16;45;0;1.483949e-16;1.483037e-16;2.220446e-16;2.309143e-17;-7.485957e-18;0;-3.057738e-17;0.626972;2.220446e-16;-2.220446e-16;0
-0.03531;1.879675;0.689215;8.39567e-13;0;0;8.39567e-13;-1.110223e-16;0;-3.531787e-17;0;0;0;0;1.028277e-17;-1.213051e-16;6.579392e-17;45;0;8.772523e-17;8.450643e-17;-1.110223e-16;-5.075017e-17;-1.988557e-17;0;3.08646e-17;0.689215;-1.110223e-16;1.110223e-16;0
0.031855;1.879675;0.735229;8.39567e-13;0;0;8.39567e-13;0;0;-1.047e-17;0;0;0;0;1.047e-17;-1.047e-17;1.047e-17;45;0;1.396e-17;1.208971e-17;0;-4.39331e-18;-1.654669e-17;0;-1.215338e-17;0.735229;0;0;0
0.099021;1.879675;0.794076;8.39567e-13;0;0;8.39567e-13;-1.110223e-16;-3.330669e-16;6.9607e-17;0;0;0;0;-9.100611e-17;-3.530831e-16;1.310385e-16;45;0;1.74718e-16;2.11678e-16;-1.110223e-16;6.672825e-17;7.248576e-17;-3.330669e-16;5.757508e-18;0.794076;-4.440892e-16;4.440892e-16;0
0.166186;1.879675;0.809037;8.39567e-13;0;0;8.39567e-13;0;0;-1.44657e-17;0;0;0;0;1.44657e-17;-1.44657e-17;1.44657e-17;45;0;1.928761e-17;1.670356e-17;0;-1.319756e-17;-1.573386e-17;0;-2.536299e-18;0.809037;0;0;0
0.233352;1.879675;0.837073;8.39567e-13;0;0;8.39567e-13;0;-1.110223e-16;7.921966e-18;0;0;0;0;5.624205e-19;-1.115847e-16;5.607357e-17;45;0;7.476476e-17;7.4578e-17;0;-2.588233e-17;4.172626e-17;-1.110223e-16;6.760859e-17;0.837073;-1.110223e-16;1.110223e-16;0
0.300517;1.879675;0.863701;8.39567e-13;0;0;8.39567e-13;2.220446e-16;0;3.847613e-17;0;0;0;0;2.285228e-16;-6.478184e-18;1.175005e-16;45;0;1.566673e-16;1.545532e-16;2.220446e-16;5.759189e-17;1.936038e-17;0;-3.823151e-17;0.863701;2.220446e-16;-2.220446e-16;0
0.367682;1.879675;0.886767;8.39567e-13;0;0;8.39567e-13;0;0;2.100242e-17;0;0;0;0;2.100242e-17;-2.100242e-17;2.100242e-17;45;0;2.800323e-17;2.425151e-17;0;3.699246e-17;5.012384e-18;0;-3.198007e-17;0.886767;0;0;0
0.434848;1.879675;0.902618;8.39567e-13;0;0;8.39567e-13;-1.110223e-16;2.220446e-16;-3.981587e-17;0;0;0;0;2.267382e-16;-1.157159e-16;1.71227e-16;45;0;2.283027e-16;2.011496e-16;-1.110223e-16;-5.938938e-17;-2.024237e-17;2.220446e-16;3.9147e-17;0.902618;1.110223e-16;-1.110223e-16;0
0.502013;1.879675;0.917589;8.39567e-13;0;0;8.39567e-13;0;0;-3.071652e-17;0;0;0;0;3.071652e-17;-3.071652e-17;3.071652e-17;45;0;4.095536e-17;3.546838e-17;0;-1.689331e-17;-4.453973e-17;0;-2.764642e-17;0.917589;0;0;0
0.569178;1.879675;0.920828;8.39567e-13;0;0;8.39567e-13;0;-1.110223e-16;-1.104542e-17;0;0;0;0;1.088223e-18;-1.121105e-16;5.659938e-17;45;0;7.546583e-17;7.510572e-17;0;-3.386985e-19;-2.175214e-17;-1.110223e-16;-2.141344e-17;0.920828;-1.110223e-16;1.110223e-16;0
0.636344;1.879675;0.928124;8.39567e-13;0;0;8.39567e-13;2.220446e-16;2.220446e-16;1.219e-17;0;0;0;0;2.342346e-16;2.098546e-16;1.219e-17;45;0;1.625334e-17;1.486975e-16;2.220446e-16;1.389951e-17;1.048049e-17;2.220446e-16;-3.419023e-18;0.928124;4.440892e-16;-4.440892e-16;0
0.703509;1.879675;0.915348;8.39567e-13;0;0;8.39567e-13;-1.110223e-16;2.220446e-16;2.508185e-17;0;0;0;0;2.239228e-16;-1.129005e-16;1.684117e-16;45;0;2.245489e-16;1.979551e-16;-1.110223e-16;2.742915e-17;2.273455e-17;2.220446e-16;-4.694591e-18;0.915348;1.110223e-16;-1.110223e-16;0
0.770674;1.879675;0.905681;8.39567e-13;0;0;8.39567e-13;0;0;1.762239e-17;0;0;0;0;1.762239e-17;-1.762239e-17;1.762239e-17;45;0;2.349653e-17;2.034859e-17;0;3.652842e-17;-1.283637e-18;0;-3.781206e-17;0.905681;0;0;0
0.83784;1.879675;0.905553;8.39567e-13;0;0;8.39567e-13;-1.110223e-16;2.220446e-16;1.213741e-17;0;0;0;0;2.224863e-16;-1.11464e-16;1.669752e-16;45;0;2.226336e-16;1.963258e-16;-1.110223e-16;7.522912e-18;1.675191e-17;2.220446e-16;9.229001e-18;0.905553;1.110223e-16;-1.110223e-16;0
0.905005;1.879675;0.89378;8.39567e-13;0;0;8.39567e-13;2.220446e-16;0;-9.051409e-18;0;0;0;0;2.22413e-16;-3.683598e-19;1.113907e-16;45;0;1.485209e-16;1.483983e-16;2.220446e-16;3.916117e-18;-2.201893e-17;0;-2.593505e-17;0.89378;2.220446e-16;-2.220446e-16;0
0.97217;1.879675;0.851967;8.39567e-13;0;0;8.39567e-13;-3.330669e-16;0;7.419627e-18;0;0;0;0;1.652028e-19;-3.332321e-16;1.666987e-16;45;0;2.222649e-16;2.222098e-16;-3.330669e-16;1.941258e-17;-4.573327e-18;0;-2.398591e-17;0.851967;-3.330669e-16;3.330669e-16;0
1.039336;1.879675;0.813973;8.39567e-13;0;0;8.39567e-13;0;-3.330669e-16;1.747492e-17;0;0;0;0;9.143418e-19;-3.339813e-16;1.674478e-16;45;0;2.232637e-16;2.229596e-16;0;7.650158e-18;2.729969e-17;-3.330669e-16;1.964953e-17;0.813973;-3.330669e-16;3.330669e-16;0
1.106501;1.879675;0.779679;8.39567e-13;0;0;8.39567e-13;-1.110223e-16;-1.110223e-16;2.300741e-17;0;0;0;0;-8.801489e-17;-1.340297e-16;2.300741e-17;45;0;3.067655e-17;7.863834e-17;-1.110223e-16;3.724799e-17;8.766836e-18;-1.110223e-16;-2.848115e-17;0.779679;-2.220446e-16;2.220446e-16;0
1.173667;1.879675;0.759721;8.39567e-13;0;0;8.39567e-13;-2.220446e-16;0;-1.988721e-17;0;0;0;0;1.767115e-18;-2.238117e-16;1.127894e-16;45;0;1.503859e-16;1.498003e-16;-2.220446e-16;-4.782664e-17;8.052231e-18;0;5.587888e-17;0.759721;-2.220446e-16;2.220446e-16;0
1.240832;1.879675;0.685496;8.39567e-13;0;0;8.39567e-13;2.220446e-16;-1.110223e-16;2.497183e-17;0;0;0;0;2.239065e-16;-1.128842e-16;1.683953e-16;45;0;2.245271e-16;1.979365e-16;2.220446e-16;6.432476e-17;-1.43811e-17;-1.110223e-16;-7.870586e-17;0.685496;1.110223e-16;-1.110223e-16;0
1.307997;1.879675;0.627484;8.39567e-13;0;0;8.39567e-13;-1.110223e-16;-1.110223e-16;5.309755e-18;0;0;0;0;-1.057125e-16;-1.163321e-16;5.309755e-18;45;0;7.079674e-18;7.426838e-17;-1.110223e-16;3.342279e-18;7.277232e-18;-1.110223e-16;3.934954e-18;0.627484;-2.220446e-16;2.220446e-16;0
1.375163;1.879675;0.560356;8.39567e-13;0;0;8.39567e-13;2.220446e-16;0;-1.773931e-17;0;0;0;0;2.234529e-16;-1.408276e-18;1.124306e-16;45;0;1.499074e-16;1.494402e-16;2.220446e-16;-6.450757e-17;2.902895e-17;0;9.353652e-17;0.560356;2.220446e-16;-2.220446e-16;0
1.442328;1.879675;0.460307;8.39567e-13;0;0;8.39567e-13;-2.220446e-16;2.220446e-16;-2.260619e-17;0;0;0;0;2.231924e-16;-2.231924e-16;2.231924e-16;45;0;2.975899e-16;2.577204e-16;-2.220446e-16;-5.419248e-17;8.980101e-18;2.220446e-16;6.317258e-17;0.460307;0;0;0
1.509493;1.879675;0.365648;8.39567e-13;0;0;8.39567e-13;2.220446e-16;2.220446e-16;3.975694e-17;0;0;0;0;2.618016e-16;1.822877e-16;3.975694e-17;45;0;5.300925e-17;1.549848e-16;2.220446e-16;8.613773e-18;7.090011e-17;2.220446e-16;6.228634e-17;0.365648;4.440892e-16;-4.440892e-16;0
-0.371137;1.81251;0.269391;8.39567e-13;0;0;8.39567e-13;-2.220446e-16;0;2.133299e-19;0;0;0;0;2.049571e-22;-2.220448e-16;1.110225e-16;45;0;1.4803e-16;1.480299e-16;-2.220446e-16;-1.898631e-17;1.941297e-17;0;3.839928e-17;0.269391;-2.220446e-16;2.220446e-16;0
-0.303971;1.81251;0.404678;8.39567e-13;0;0;8.39567e-13;0;2.220446e-16;9.216745e-18;0;0;0;0;2.224265e-16;-3.819166e-19;1.114042e-16;45;0;1.48539e-16;1.484118e-16;0;1.843349e-17;0;2.220446e-16;-1.843349e-17;0.404678;2.220446e-16;-2.220446e-16;0
-0.236806;1.81251;0.485054;8.39567e-13;0;0;8.39567e-13;2.220446e-16;4.440892e-16;-2.345386e-17;0;0;0;0;4.465395e-16;2.195943e-16;1.134726e-16;45;0;1.512968e-16;2.578214e-16;2.220446e-16;-2.041202e-17;-2.64957e-17;4.440892e-16;-6.083685e-18;0.485054;6.661338e-16;-6.661338e-16;0
-0.169641;1.81251;0.562604;8.39567e-13;0;0;8.39567e-13;-1.110223e-16;2.220446e-16;-2.583596e-17;0;0;0;0;2.240368e-16;-1.130145e-16;1.685256e-16;45;0;2.247008e-16;1.980843e-16;-1.110223e-16;-2.757133e-17;-2.41006e-17;2.220446e-16;3.470732e-18;0.562604;1.110223e-16;-1.110223e-16;0
-0.102475;1.81251;0.623848;8.39567e-13;0;0;8.39567e-13;-1.110223e-16;2.220446e-16;-2.912064e-17;0;0;0;0;2.245715e-16;-1.135492e-16;1.690604e-16;45;0;2.254138e-16;1.986909e-16;-1.110223e-16;-2.420158e-17;-3.403969e-17;2.220446e-16;-9.838103e-18;0.623848;1.110223e-16;-1.110223e-16;0
-0.03531;1.81251;0.680295;8.39567e-13;0;0;8.39567e-13;-1.110223e-16;0;-1.734367e-17;0;0;0;0;2.646315e-18;-1.136686e-16;5.815747e-17;45;0;7.754329e-17;7.667641e-17;-1.110223e-16;-5.491063e-17;2.022329e-17;0;7.513392e-17;0.680295;-1.110223e-16;1.110223e-16;0
0.031855;1.81251;0.724328;8.39567e-13;0;0;8.39567e-13;-2.220446e-16;0;-1.763033e-17;0;0;0;0;1.391131e-18;-2.234357e-16;1.124134e-16;45;0;1.498846e-16;1.49423e-16;-2.220446e-16;-2.450923e-17;-1.075142e-17;0;1.37578e-17;0.724328;-2.220446e-16;2.220446e-16;0
0.099021;1.81251;0.776744;8.39567e-13;0;0;8.39567e-13;0;2.220446e-16;1.553672e-17;0;0;0;0;2.231265e-16;-1.081852e-18;1.121041e-16;45;0;1.494722e-16;1.491129e-16;0;2.201011e-17;9.06334e-18;2.220446e-16;-1.294677e-17;0.776744;2.220446e-16;-2.220446e-16;0
0.166186;1.81251;0.794007;8.39567e-13;0;0;8.39567e-13;2.220446e-16;2.220446e-16;2.582592e-17;0;0;0;0;2.478705e-16;1.962187e-16;2.582592e-17;45;0;3.443456e-17;1.510037e-16;2.220446e-16;-3.705131e-18;5.535697e-17;2.220446e-16;5.90621e-17;0.794007;4.440892e-16;-4.440892e-16;0
0.233352;1.81251;0.83032;8.39567e-13;0;0;8.39567e-13;-1.110223e-16;2.220446e-16;5.650762e-17;0;0;0;0;2.313705e-16;-1.203482e-16;1.758593e-16;45;0;2.344791e-16;2.064095e-16;-1.110223e-16;5.928331e-17;5.373193e-17;2.220446e-16;-5.551386e-18;0.83032;1.110223e-16;-1.110223e-16;0
0.300517;1.81251;0.874029;8.39567e-13;0;0;8.39567e-13;-1.110223e-16;4.440892e-16;1.823544e-17;0;0;0;0;4.446876e-16;-1.116207e-16;2.781542e-16;45;0;3.708722e-16;3.398317e-16;-1.110223e-16;-2.192307e-18;3.866318e-17;4.440892e-16;4.085549e-17;0.874029;3.330669e-16;-3.330669e-16;0
0.367682;1.81251;0.898466;8.39567e-13;0;0;8.39567e-13;2.220446e-16;2.220446e-16;-2.496792e-18;0;0;0;0;2.245414e-16;2.195478e-16;2.496792e-18;45;0;3.329056e-18;1.480578e-16;2.220446e-16;2.93489e-18;-7.928474e-18;2.220446e-16;-1.086336e-17;0.898466;4.440892e-16;-4.440892e-16;0
0.434848;1.81251;0.900141;8.39567e-13;0;0;8.39567e-13;0;0;2.845475e-19;0;0;0;0;2.845475e-19;-2.845475e-19;2.845475e-19;45;0;3.793967e-19;3.285671e-19;0;1.471453e-17;-1.414544e-17;0;-2.885996e-17;0.900141;0;0;0
0.502013;1.81251;0.899429;8.39567e-13;0;0;8.39567e-13;-1.110223e-16;-1.110223e-16;2.439418e-17;0;0;0;0;-8.662812e-17;-1.354165e-16;2.439418e-17;45;0;3.252558e-17;7.919366e-17;-1.110223e-16;1.544373e-17;3.334464e-17;-1.110223e-16;1.790091e-17;0.899429;-2.220446e-16;2.220446e-16;0
0.569178;1.81251;0.912718;8.39567e-13;0;0;8.39567e-13;2.220446e-16;2.220446e-16;1.433347e-17;0;0;0;0;2.363781e-16;2.077111e-16;1.433347e-17;45;0;1.91113e-17;1.489521e-16;2.220446e-16;8.060591e-18;2.060635e-17;2.220446e-16;1.254576e-17;0.912718;4.440892e-16;-4.440892e-16;0
0.636344;1.81251;0.920239;8.39567e-13;0;0;8.39567e-13;-1.110223e-16;-1.110223e-16;-1.631086e-18;0;0;0;0;-1.093912e-16;-1.126534e-16;1.631086e-18;45;0;2.174782e-18;7.403883e-17;-1.110223e-16;-8.371547e-18;5.109374e-18;-1.110223e-16;1.348092e-17;0.920239;-2.220446e-16;2.220446e-16;0
0.703509;1.81251;0.898171;8.39567e-13;0;0;8.39567e-13;2.220446e-16;2.220446e-16;8.038673e-18;0;0;0;0;2.300833e-16;2.140059e-16;8.038673e-18;45;0;1.071823e-17;1.483205e-16;2.220446e-16;-2.414267e-17;4.022002e-17;2.220446e-16;6.436269e-17;0.898171;4.440892e-16;-4.440892e-16;0
0.770674;1.81251;0.882733;8.39567e-13;0;0;8.39567e-13;2.220446e-16;2.220446e-16;1.299658e-17;0;0;0;0;2.350412e-16;2.09048e-16;1.299658e-17;45;0;1.732878e-17;1.487885e-16;2.220446e-16;3.112864e-17;-5.13548e-18;2.220446e-16;-3.626412e-17;0.882733;4.440892e-16;-4.440892e-16;0
0.83784;1.81251;0.873264;8.39567e-13;0;0;8.39567e-13;0;-3.330669e-16;-2.840566e-18;0;0;0;0;2.422404e-20;-3.330911e-16;1.665577e-16;45;0;2.220769e-16;2.220688e-16;0;-8.257991e-18;2.57686e-18;-3.330669e-16;1.083485e-17;0.873264;-3.330669e-16;3.330669e-16;0
0.905005;1.81251;0.872323;8.39567e-13;0;0;8.39567e-13;0;-1.110223e-16;-2.11486e-17;0;0;0;0;3.892142e-18;-1.149144e-16;5.940329e-17;45;0;7.920439e-17;7.793941e-17;0;-2.695947e-17;-1.533773e-17;-1.110223e-16;1.162174e-17;0.872323;-1.110223e-16;1.110223e-16;0
0.97217;1.81251;0.86588;8.39567e-13;0;0;8.39567e-13;-1.110223e-16;2.220446e-16;-4.420329e-18;0;0;0;0;2.221033e-16;-1.11081e-16;1.665921e-16;45;0;2.221228e-16;1.958914e-16;-1.110223e-16;-1.952106e-17;1.06804e-17;2.220446e-16;3.020147e-17;0.86588;1.110223e-16;-1.110223e-16;0
1.039336;1.81251;0.826757;8.39567e-13;0;0;8.39567e-13;-1.110223e-16;2.220446e-16;-3.506514e-17;0;0;0;0;2.256962e-16;-1.146739e-16;1.701851e-16;45;0;2.269134e-16;1.999671e-16;-1.110223e-16;-3.028713e-17;-3.984314e-17;2.220446e-16;-9.556013e-18;0.826757;1.110223e-16;-1.110223e-16;0
1.106501;1.81251;0.783468;8.39567e-13;0;0;8.39567e-13;-3.330669e-16;0;-3.113254e-17;0;0;0;0;2.885042e-18;-3.35952e-16;1.694185e-16;45;0;2.258913e-16;2.249358e-16;-3.330669e-16;-2.942605e-17;-3.283904e-17;0;-3.41299e-18;0.783468;-3.330669e-16;3.330669e-16;0
1.173667;1.81251;0.746186;8.39567e-13;0;0;8.39567e-13;2.220446e-16;-1.110223e-16;-4.52851e-17;0;0;0;0;2.280919e-16;-1.170696e-16;1.725808e-16;45;0;2.301077e-16;2.026863e-16;2.220446e-16;-8.274375e-17;-7.826455e-18;-1.110223e-16;7.49173e-17;0.746186;1.110223e-16;-1.110223e-16;0
1.240832;1.81251;0.655103;8.39567e-13;0;0;8.39567e-13;0;2.220446e-16;-1.179329e-17;0;0;0;0;2.226692e-16;-6.246116e-19;1.116469e-16;45;0;1.488625e-16;1.486548e-16;0;-9.802676e-18;-1.378391e-17;2.220446e-16;-3.981236e-18;0.655103;2.220446e-16;-2.220446e-16;0
1.307997;1.81251;0.60516;8.39567e-13;0;0;8.39567e-13;-2.220446e-16;2.220446e-16;1.565443e-17;0;0;0;0;2.225958e-16;-2.225958e-16;2.225958e-16;45;0;2.967943e-16;2.570314e-16;-2.220446e-16;2.221606e-17;9.092795e-18;2.220446e-16;-1.312327e-17;0.60516;0;0;0
1.375163;1.81251;0.538281;8.39567e-13;0;0;8.39567e-13;-2.220446e-16;-1.110223e-16;-1.302462e-17;0;0;0;0;-1.095148e-16;-2.235521e-16;5.701867e-17;45;0;7.602489e-17;1.290767e-16;-2.220446e-16;-3.551843e-17;9.469201e-18;-1.110223e-16;4.498763e-17;0.538281;-3.330669e-16;3.330669e-16;0
1.442328;1.81251;0.438019;8.39567e-13;0;0;8.39567e-13;0;2.220446e-16;3.294346e-17;0;0;0;0;2.268291e-16;-4.784534e-18;1.158068e-16;45;0;1.544091e-16;1.528392e-16;0;3.72128e-17;2.867412e-17;2.220446e-16;-8.538677e-18;0.438019;2.220446e-16;-2.220446e-16;0
1.509493;1.81251;0.339635;8.39567e-13;0;0;8.39567e-13;-1.110223e-16;0;7.034257e-17;0;0;0;0;3.409669e-17;-1.45119e-16;8.960783e-17;45;0;1.194771e-16;1.098892e-16;-1.110223e-16;7.033321e-17;7.035192e-17;0;1.870737e-20;0.339635;-1.110223e-16;1.110223e-16;0
-0.371137;1.745344;0.281493;8.39567e-13;0;0;8.39567e-13;0;0;-4.486212e-17;0;0;0;0;4.486212e-17;-4.486212e-17;4.486212e-17;45;0;5.981616e-17;5.180232e-17;0;-5.457016e-17;-3.515409e-17;0;1.941607e-17;0.281493;0;0;0
-0.303971;1.745344;0.399432;8.39567e-13;0;0;8.39567e-13;2.220446e-16;2.220446e-16;-6.121287e-18;0;0;0;0;2.281659e-16;2.159233e-16;6.121287e-18;45;0;8.161716e-18;1.481984e-16;2.220446e-16;-1.683028e-17;4.587707e-18;2.220446e-16;2.141799e-17;0.399432;4.440892e-16;-4.440892e-16;0
-0.236806;1.745344;0.496209;8.39567e-13;0;0;8.39567e-13;-2.220446e-16;2.220446e-16;2.974276e-18;0;0;0;0;2.220645e-16;-2.220645e-16;2.220645e-16;45;0;2.96086e-16;2.56418e-16;-2.220446e-16;-1.712944e-17;2.307799e-17;2.220446e-16;4.020743e-17;0.496209;0;0;0
-0.169641;1.745344;0.562058;8.39567e-13;0;0;8.39567e-13;0;0;-2.819594e-18;0;0;0;0;2.819594e-18;-2.819594e-18;2.819594e-18;45;0;3.759459e-18;3.255787e-18;0;1.655276e-17;-2.219195e-17;0;-3.874471e-17;0.562058;0;0;0
-0.102475;1.745344;0.625451;8.39567e-13;0;0;8.39567e-13;-2.220446e-16;-4.440892e-16;-2.878518e-17;0;0;0;0;-2.183737e-16;-4.477601e-16;1.146932e-16;45;0;1.529243e-16;2.585405e-16;-2.220446e-16;-1.795609e-17;-3.961427e-17;-4.440892e-16;-2.165817e-17;0.625451;-6.661338e-16;6.661338e-16;0
-0.03531;1.745344;0.701538;8.39567e-13;0;0;8.39567e-13;-3.330669e-16;-1.110223e-16;-7.674775e-18;0;0;0;0;-1.107573e-16;-3.333319e-16;1.112873e-16;45;0;1.48383e-16;1.960254e-16;-3.330669e-16;-2.313194e-17;7.782387e-18;-1.110223e-16;3.091432e-17;0.701538;-4.440892e-16;4.440892e-16;0
0.031855;1.745344;0.739933;8.39567e-13;0;0;8.39567e-13;-1.110223e-16;2.220446e-16;6.778039e-18;0;0;0;0;2.221825e-16;-1.111602e-16;1.666713e-16;45;0;2.222284e-16;1.959813e-16;-1.110223e-16;4.308461e-18;9.247616e-18;2.220446e-16;4.939155e-18;0.739933;1.110223e-16;-1.110223e-16;0
0.099021;1.745344;0.749604;8.39567e-13;0;0;8.39567e-13;-1.110223e-16;0;-1.013668e-17;0;0;0;0;9.179218e-19;-1.119402e-16;5.642907e-17;45;0;7.523877e-17;7.493466e-17;-1.110223e-16;-2.63289e-18;-1.764048e-17;0;-1.500759e-17;0.749604;-1.110223e-16;1.110223e-16;0
0.166186;1.745344;0.809402;8.39567e-13;0;0;8.39567e-13;-2.220446e-16;2.220446e-16;-1.386993e-17;0;0;0;0;2.224774e-16;-2.224774e-16;2.224774e-16;45;0;2.966365e-16;2.568947e-16;-2.220446e-16;-4.381267e-17;1.607281e-17;2.220446e-16;5.988548e-17;0.809402;0;0;0
0.233352;1.745344;0.87466;8.39567e-13;0;0;8.39567e-13;2.220446e-16;-3.330669e-16;5.13086e-17;0;0;0;0;2.267472e-16;-3.377695e-16;2.822584e-16;45;0;3.763444e-16;3.280182e-16;2.220446e-16;1.738152e-16;-7.119804e-17;-3.330669e-16;-2.450133e-16;0.87466;-1.110223e-16;1.110223e-16;0
0.300517;1.745344;0.885023;8.39567e-13;0;0;8.39567e-13;-1.110223e-16;-1.110223e-16;5.809473e-18;0;0;0;0;-1.052128e-16;-1.168318e-16;5.809473e-18;45;0;7.745965e-18;7.431824e-17;-1.110223e-16;-2.690998e-17;3.852892e-17;-1.110223e-16;6.54389e-17;0.885023;-2.220446e-16;2.220446e-16;0
0.367682;1.745344;0.880711;8.39567e-13;0;0;8.39567e-13;0;-1.110223e-16;-5.622631e-18;0;0;0;0;2.840268e-19;-1.113063e-16;5.579518e-17;45;0;7.439357e-17;7.429908e-17;0;4.163016e-18;-1.540828e-17;-1.110223e-16;-1.957129e-17;0.880711;-1.110223e-16;1.110223e-16;0
0.434848;1.745344;0.892301;8.39567e-13;0;0;8.39567e-13;2.220446e-16;0;-4.520233e-17;0;0;0;0;2.308939e-16;-8.849303e-18;1.198716e-16;45;0;1.598288e-16;1.569622e-16;2.220446e-16;-3.681564e-17;-5.358901e-17;0;-1.677337e-17;0.892301;2.220446e-16;-2.220446e-16;0
0.502013;1.745344;0.906847;8.39567e-13;0;0;8.39567e-13;-1.110223e-16;2.220446e-16;1.591173e-18;0;0;0;0;2.220522e-16;-1.110299e-16;1.665411e-16;45;0;2.220547e-16;1.958336e-16;-1.110223e-16;3.382783e-17;-3.064549e-17;2.220446e-16;-6.447332e-17;0.906847;1.110223e-16;-1.110223e-16;0
0.569178;1.745344;0.911954;8.39567e-13;0;0;8.39567e-13;-1.110223e-16;-1.110223e-16;1.539708e-17;0;0;0;0;-9.562522e-17;-1.264194e-16;1.539708e-17;45;0;2.052944e-17;7.612026e-17;-1.110223e-16;2.414823e-18;2.837934e-17;-1.110223e-16;2.596452e-17;0.911954;-2.220446e-16;2.220446e-16;0
0.636344;1.745344;0.893216;8.39567e-13;0;0;8.39567e-13;0;2.220446e-16;-1.869088e-18;0;0;0;0;2.220603e-16;-1.573216e-20;1.11038e-16;45;0;1.480507e-16;1.480455e-16;0;1.154257e-17;-1.528075e-17;2.220446e-16;-2.682332e-17;0.893216;2.220446e-16;-2.220446e-16;0
0.703509;1.745344;0.870389;8.39567e-13;0;0;8.39567e-13;-1.110223e-16;-1.110223e-16;1.972848e-17;0;0;0;0;-9.129383e-17;-1.307508e-16;1.972848e-17;45;0;2.630464e-17;7.744128e-17;-1.110223e-16;2.140723e-17;1.804972e-17;-1.110223e-16;-3.357514e-18;0.870389;-2.220446e-16;2.220446e-16;0
0.770674;1.745344;0.871208;8.39567e-13;0;0;8.39567e-13;-1.110223e-16;0;-1.030415e-17;0;0;0;0;9.482443e-19;-1.119705e-16;5.64594e-17;45;0;7.527919e-17;7.496511e-17;-1.110223e-16;-2.706207e-17;6.45378e-18;0;3.351585e-17;0.871208;-1.110223e-16;1.110223e-16;0
0.83784;1.745344;0.874999;8.39567e-13;0;0;8.39567e-13;-1.110223e-16;-1.110223e-16;-2.455554e-17;0;0;0;0;-8.646676e-17;-1.355778e-16;2.455554e-17;45;0;3.274072e-17;7.926012e-17;-1.110223e-16;-3.364625e-17;-1.546482e-17;-1.110223e-16;1.818144e-17;0.874999;-2.220446e-16;2.220446e-16;0
0.905005;1.745344;0.870501;8.39567e-13;0;0;8.39567e-13;-1.110223e-16;0;9.197691e-18;0;0;0;0;7.568276e-19;-1.117791e-16;5.626798e-17;45;0;7.502397e-17;7.477297e-17;-1.110223e-16;2.287438e-17;-4.478996e-18;0;-2.735338e-17;0.870501;-1.110223e-16;1.110223e-16;0
0.97217;1.745344;0.860235;8.39567e-13;0;0;8.39567e-13;-4.440892e-16;0;-3.691021e-18;0;0;0;0;3.067557e-20;-4.441199e-16;2.220753e-16;45;0;2.961004e-16;2.960902e-16;-4.440892e-16;2.229878e-18;-9.611919e-18;0;-1.18418e-17;0.860235;-4.440892e-16;4.440892e-16;0
1.039336;1.745344;0.815614;8.39567e-13;0;0;8.39567e-13;2.220446e-16;-1.110223e-16;1.869972e-17;0;0;0;0;2.230912e-16;-1.120689e-16;1.6758e-16;45;0;2.234401e-16;1.970118e-16;2.220446e-16;8.196332e-18;2.920311e-17;-1.110223e-16;2.100677e-17;0.815614;1.110223e-16;-1.110223e-16;0
1.106501;1.745344;0.778694;8.39567e-13;0;0;8.39567e-13;-1.110223e-16;-1.110223e-16;-2.113804e-17;0;0;0;0;-8.988426e-17;-1.321603e-16;2.113804e-17;45;0;2.818406e-17;7.793559e-17;-1.110223e-16;-7.213051e-18;-3.506303e-17;-1.110223e-16;-2.784998e-17;0.778694;-2.220446e-16;2.220446e-16;0
1.173667;1.745344;0.765799;8.39567e-13;0;0;8.39567e-13;2.220446e-16;2.220446e-16;-3.831488e-17;0;0;0;0;2.603595e-16;1.837297e-16;3.831488e-17;45;0;5.108651e-17;1.544998e-16;2.220446e-16;-4.381204e-17;-3.281772e-17;2.220446e-16;1.099432e-17;0.765799;4.440892e-16;-4.440892e-16;0
1.240832;1.745344;0.694255;8.39567e-13;0;0;8.39567e-13;-2.220446e-16;-3.330669e-16;-2.466951e-17;0;0;0;0;-2.168098e-16;-3.383017e-16;6.074597e-17;45;0;8.099463e-17;1.97886e-16;-2.220446e-16;-2.747347e-17;-2.186555e-17;-3.330669e-16;5.607924e-18;0.694255;-5.551115e-16;5.551115e-16;0
1.307997;1.745344;0.629402;8.39567e-13;0;0;8.39567e-13;-1.110223e-16;-1.110223e-16;6.48612e-18;0;0;0;0;-1.045362e-16;-1.175084e-16;6.48612e-18;45;0;8.64816e-18;7.439283e-17;-1.110223e-16;3.114944e-17;-1.81772e-17;-1.110223e-16;-4.932663e-17;0.629402;-2.220446e-16;2.220446e-16;0
1.375163;1.745344;0.550248;8.39567e-13;0;0;8.39567e-13;2.220446e-16;0;-1.890809e-17;0;0;0;0;2.236432e-16;-1.598599e-18;1.126209e-16;45;0;1.501612e-16;1.496312e-16;2.220446e-16;-2.544447e-17;-1.23717e-17;0;1.307277e-17;0.550248;2.220446e-16;-2.220446e-16;0
1.442328;1.745344;0.443194;8.39567e-13;0;0;8.39567e-13;4.440892e-16;2.220446e-16;-3.246288e-17;0;0;0;0;4.487379e-16;2.173959e-16;1.15671e-16;45;0;1.542281e-16;2.591207e-16;4.440892e-16;-7.937366e-17;1.44479e-17;2.220446e-16;9.382156e-17;0.443194;6.661338e-16;-6.661338e-16;0
1.509493;1.745344;0.345585;8.39567e-13;0;0;8.39567e-13;2.220446e-16;0;-1.008246e-17;0;0;0;0;2.225015e-16;-4.568781e-19;1.114792e-16;45;0;1.486389e-16;1.484868e-16;2.220446e-16;1.2942e-17;-3.310693e-17;0;-4.604893e-17;0.345585;2.220446e-16;-2.220446e-16;0
-0.371137;1.678179;0.242876;8.39567e-13;0;0;8.39567e-13;4.440892e-16;0;-5.941387e-17;0;0;0;0;4.519007e-16;-7.811468e-18;2.298561e-16;45;0;3.064748e-16;3.039044e-16;4.440892e-16;-6.794254e-17;-5.08852e-17;0;1.705734e-17;0.242876;4.440892e-16;-4.440892e-16;0
-0.303971;1.678179;0.401587;8.39567e-13;0;0;8.39567e-13;0;0;-4.108839e-17;0;0;0;0;4.108839e-17;-4.108839e-17;4.108839e-17;45;0;5.478452e-17;4.744479e-17;0;-9.441027e-17;1.223349e-17;0;1.066438e-16;0.401587;0;0;0
-0.236806;1.678179;0.503257;8.39567e-13;0;0;8.39567e-13;-2.220446e-16;-1.110223e-16;-1.305479e-17;0;0;0;0;-1.095079e-16;-2.23559e-16;5.702557e-17;45;0;7.603409e-17;1.290807e-16;-2.220446e-16;-2.446741e-17;-1.642165e-18;-1.110223e-16;2.282525e-17;0.503257;-3.330669e-16;3.330669e-16;0
-0.169641;1.678179;0.557032;8.39567e-13;0;0;8.39567e-13;-2.220446e-16;-1.110223e-16;-1.766855e-17;0;0;0;0;-1.082783e-16;-2.247886e-16;5.825517e-17;45;0;7.767357e-17;1.298108e-16;-2.220446e-16;-5.036536e-17;1.502825e-17;-1.110223e-16;6.539361e-17;0.557032;-3.330669e-16;3.330669e-16;0
-0.102475;1.678179;0.629445;8.39567e-13;0;0;8.39567e-13;2.220446e-16;-1.110223e-16;4.794324e-17;0;0;0;0;2.288084e-16;-1.177861e-16;1.732973e-16;45;0;2.31063e-16;2.034997e-16;2.220446e-16;7.67476e-17;1.913888e-17;-1.110223e-16;-5.760872e-17;0.629445;1.110223e-16;-1.110223e-16;0
-0.03531;1.678179;0.70955;8.39567e-13;0;0;8.39567e-13;0;-3.330669e-16;-1.80495e-17;0;0;0;0;9.75279e-19;-3.340422e-16;1.675087e-16;45;0;2.23345e-16;2.230206e-16;0;-2.267197e-17;-1.342702e-17;-3.330669e-16;9.244952e-18;0.70955;-3.330669e-16;3.330669e-16;0
0.031855;1.678179;0.752569;8.39567e-13;0;0;8.39567e-13;2.220446e-16;0;2.151559e-17;0;0;0;0;2.241102e-16;-2.065594e-18;1.130879e-16;45;0;1.507839e-16;1.501001e-16;2.220446e-16;4.076159e-17;2.269585e-18;0;-3.849201e-17;0.752569;2.220446e-16;-2.220446e-16;0
0.099021;1.678179;0.783512;8.39567e-13;0;0;8.39567e-13;2.220446e-16;0;-2.357814e-17;0;0;0;0;2.245207e-16;-2.47607e-18;1.134984e-16;45;0;1.513312e-16;1.505126e-16;2.220446e-16;-3.959713e-18;-4.319658e-17;0;-3.923687e-17;0.783512;2.220446e-16;-2.220446e-16;0
0.166186;1.678179;0.838335;8.39567e-13;0;0;8.39567e-13;-4.440892e-16;-1.110223e-16;-7.259712e-17;0;0;0;0;-9.588646e-17;-4.592251e-16;1.816693e-16;45;0;2.422257e-16;2.797208e-16;-4.440892e-16;-1.041648e-16;-4.102941e-17;-1.110223e-16;6.313542e-17;0.838335;-5.551115e-16;5.551115e-16;0
0.233352;1.678179;0.887907;8.39567e-13;0;0;8.39567e-13;2.220446e-16;0;1.878312e-18;0;0;0;0;2.220605e-16;-1.588781e-20;1.110382e-16;45;0;1.480509e-16;1.480456e-16;2.220446e-16;-9.294185e-19;4.686042e-18;0;5.61546e-18;0.887907;2.220446e-16;-2.220446e-16;0
0.300517;1.678179;0.888265;8.39567e-13;0;0;8.39567e-13;-1.110223e-16;0;-4.136902e-17;0;0;0;0;1.37195e-17;-1.247418e-16;6.923066e-17;45;0;9.230754e-17;8.809121e-17;-1.110223e-16;-3.49065e-17;-4.783154e-17;0;-1.292505e-17;0.888265;-1.110223e-16;1.110223e-16;0
0.367682;1.678179;0.866101;8.39567e-13;0;0;8.39567e-13;2.220446e-16;0;1.475666e-18;0;0;0;0;2.220544e-16;-9.806561e-21;1.110321e-16;45;0;1.480428e-16;1.480395e-16;2.220446e-16;-2.769206e-17;3.064339e-17;0;5.833544e-17;0.866101;2.220446e-16;-2.220446e-16;0
0.434848;1.678179;0.906973;8.39567e-13;0;0;8.39567e-13;-1.110223e-16;2.220446e-16;-3.612305e-18;0;0;0;0;2.220838e-16;-1.110615e-16;1.665726e-16;45;0;2.220968e-16;1.958694e-16;-1.110223e-16;-1.440078e-17;7.176169e-18;2.220446e-16;2.157695e-17;0.906973;1.110223e-16;-1.110223e-16;0
0.502013;1.678179;0.930096;8.39567e-13;0;0;8.39567e-13;0;2.220446e-16;-1.15365e-17;0;0;0;0;2.226424e-16;-5.977786e-19;1.116201e-16;45;0;1.488268e-16;1.486279e-16;0;1.50245e-17;-3.80975e-17;2.220446e-16;-5.312199e-17;0.930096;2.220446e-16;-2.220446e-16;0
0.569178;1.678179;0.93394;8.39567e-13;0;0;8.39567e-13;-1.110223e-16;0;-2.334766e-17;0;0;0;0;4.710117e-18;-1.157324e-16;6.022127e-17;45;0;8.029502e-17;7.877194e-17;-1.110223e-16;-4.154645e-17;-5.148867e-18;0;3.639758e-17;0.93394;-1.110223e-16;1.110223e-16;0
0.636344;1.678179;0.912781;8.39567e-13;0;0;8.39567e-13;0;-3.330669e-16;2.636758e-17;0;0;0;0;2.074495e-18;-3.351414e-16;1.686079e-16;45;0;2.248106e-16;2.241223e-16;0;4.26265e-17;1.010866e-17;-3.330669e-16;-3.251785e-17;0.912781;-3.330669e-16;3.330669e-16;0
0.703509;1.678179;0.896825;8.39567e-13;0;0;8.39567e-13;-3.330669e-16;-4.440892e-16;3.504903e-17;0;0;0;0;-3.229281e-16;-4.54228e-16;6.565e-17;45;0;8.753334e-17;2.699158e-16;-3.330669e-16;3.950952e-17;3.058854e-17;-4.440892e-16;-8.920979e-18;0.896825;-7.771561e-16;7.771561e-16;0
0.770674;1.678179;0.898117;8.39567e-13;0;0;8.39567e-13;0;0;-9.236752e-18;0;0;0;0;9.236752e-18;-9.236752e-18;9.236752e-18;45;0;1.231567e-17;1.066568e-17;0;-1.84735e-17;0;0;1.84735e-17;0.898117;0;0;0
0.83784;1.678179;0.886544;8.39567e-13;0;0;8.39567e-13;2.220446e-16;0;8.328533e-19;0;0;0;0;2.220477e-16;-3.123854e-21;1.110254e-16;45;0;1.480339e-16;1.480329e-16;2.220446e-16;1.438589e-17;-1.272019e-17;0;-2.710608e-17;0.886544;2.220446e-16;-2.220446e-16;0
0.905005;1.678179;0.869645;8.39567e-13;0;0;8.39567e-13;-1.110223e-16;2.220446e-16;1.54857e-17;0;0;0;0;2.22763e-16;-1.117407e-16;1.672519e-16;45;0;2.230025e-16;1.966396e-16;-1.110223e-16;2.971263e-17;1.258763e-18;2.220446e-16;-2.845387e-17;0.869645;1.110223e-16;-1.110223e-16;0
0.97217;1.678179;0.849752;8.39567e-13;0;0;8.39567e-13;0;0;6.617849e-17;0;0;0;0;6.617849e-17;-6.617849e-17;6.617849e-17;45;0;8.823798e-17;7.641633e-17;0;7.670994e-17;5.564703e-17;0;-2.106292e-17;0.849752;0;0;0
1.039336;1.678179;0.820275;8.39567e-13;0;0;8.39567e-13;0;-1.110223e-16;-1.611121e-17;0;0;0;0;2.290744e-18;-1.133131e-16;5.780189e-17;45;0;7.706919e-17;7.631707e-17;0;-2.744423e-17;-4.778195e-18;-1.110223e-16;2.266604e-17;0.820275;-1.110223e-16;1.110223e-16;0
1.106501;1.678179;0.795748;8.39567e-13;0;0;8.39567e-13;0;0;2.62006e-19;0;0;0;0;2.62006e-19;-2.62006e-19;2.62006e-19;45;0;3.493414e-19;3.025385e-19;0;9.577994e-18;-9.053981e-18;0;-1.863198e-17;0.795748;0;0;0
1.173667;1.678179;0.747927;8.39567e-13;0;0;8.39567e-13;-1.110223e-16;-1.110223e-16;2.981733e-19;0;0;0;0;-1.107241e-16;-1.113205e-16;2.981733e-19;45;0;3.975644e-19;7.401567e-17;-1.110223e-16;5.963465e-19;0;-1.110223e-16;-5.963465e-19;0.747927;-2.220446e-16;2.220446e-16;0
1.240832;1.678179;0.657001;8.39567e-13;0;0;8.39567e-13;0;-1.110223e-16;1.628806e-17;0;0;0;0;2.340285e-18;-1.133626e-16;5.785144e-17;45;0;7.713525e-17;7.636711e-17;0;3.257612e-17;0;-1.110223e-16;-3.257612e-17;0.657001;-1.110223e-16;1.110223e-16;0
1.307997;1.678179;0.605801;8.39567e-13;0;0;8.39567e-13;0;0;-1.088779e-17;0;0;0;0;1.088779e-17;-1.088779e-17;1.088779e-17;45;0;1.451705e-17;1.257213e-17;0;-2.458468e-18;-1.93171e-17;0;-1.685863e-17;0.605801;0;0;0
1.375163;1.678179;0.54854;8.39567e-13;0;0;8.39567e-13;0;2.220446e-16;-2.665253e-17;0;0;0;0;2.25199e-16;-3.154355e-18;1.141767e-16;45;0;1.522355e-16;1.511951e-16;0;-4.530654e-17;-7.99852e-18;2.220446e-16;3.730802e-17;0.54854;2.220446e-16;-2.220446e-16;0
1.442328;1.678179;0.445233;8.39567e-13;0;0;8.39567e-13;-2.220446e-16;2.220446e-16;1.152602e-17;0;0;0;0;2.223436e-16;-2.223436e-16;2.223436e-16;45;0;2.964581e-16;2.567402e-16;-2.220446e-16;1.723582e-17;5.816215e-18;2.220446e-16;-1.141961e-17;0.445233;0;0;0
1.509493;1.678179;0.365502;8.39567e-13;0;0;8.39567e-13;-3.330669e-16;-2.220446e-16;1.120393e-18;0;0;0;0;-2.220333e-16;-3.330782e-16;5.552245e-17;45;0;7.402995e-17;1.958292e-16;-3.330669e-16;5.464223e-17;-5.240144e-17;-2.220446e-16;-1.070437e-16;0.365502;-5.551115e-16;5.551115e-16;0
-0.371137;1.611014;0.266158;8.39567e-13;0;0;8.39567e-13;6.661338e-16;0;8.45715e-17;0;0;0;0;6.767032e-16;-1.056939e-17;3.436363e-16;45;0;4.581817e-16;4.546996e-16;6.661338e-16;1.69143e-16;0;0;-1.69143e-16;0.266158;6.661338e-16;-6.661338e-16;0
-0.303971;1.611014;0.397794;8.39567e-13;0;0;8.39567e-13;0;2.220446e-16;1.658457e-17;0;0;0;0;2.232765e-16;-1.231871e-18;1.122542e-16;45;0;1.496722e-16;1.492633e-16;0;-6.229836e-18;3.939897e-17;2.220446e-16;4.562881e-17;0.397794;2.220446e-16;-2.220446e-16;0
-0.236806;1.611014;0.5081;8.39567e-13;0;0;8.39567e-13;-2.220446e-16;2.220446e-16;2.173163e-17;0;0;0;0;2.231055e-16;-2.231055e-16;2.231055e-16;45;0;2.97474e-16;2.576201e-16;-2.220446e-16;2.004879e-18;4.145838e-17;2.220446e-16;3.94535e-17;0.5081;0;0;0
-0.169641;1.611014;0.560697;8.39567e-13;0;0;8.39567e-13;2.220446e-16;-1.110223e-16;2.20531e-19;0;0;0;0;2.220448e-16;-1.110224e-16;1.665336e-16;45;0;2.220448e-16;1.958251e-16;2.220446e-16;-1.826225e-17;1.870331e-17;-1.110223e-16;3.696555e-17;0.560697;1.110223e-16;-1.110223e-16;0
-0.102475;1.611014;0.630411;8.39567e-13;0;0;8.39567e-13;-2.220446e-16;2.220446e-16;-7.243912e-18;0;0;0;0;2.221627e-16;-2.221627e-16;2.221627e-16;45;0;2.96217e-16;2.565314e-16;-2.220446e-16;-2.32909e-17;8.803075e-18;2.220446e-16;3.209397e-17;0.630411;0;0;0
-0.03531;1.611014;0.702562;8.39567e-13;0;0;8.39567e-13;2.220446e-16;-1.110223e-16;-1.964251e-17;0;0;0;0;2.23199e-16;-1.121767e-16;1.676879e-16;45;0;2.235838e-16;1.971341e-16;2.220446e-16;-5.530378e-17;1.601877e-17;-1.110223e-16;7.132255e-17;0.702562;1.110223e-16;-1.110223e-16;0
0.031855;1.611014;0.735406;8.39567e-13;0;0;8.39567e-13;0;0;-3.990052e-17;0;0;0;0;3.990052e-17;-3.990052e-17;3.990052e-17;45;0;5.320069e-17;4.607315e-17;0;-7.664535e-18;-7.21365e-17;0;-6.447196e-17;0.735406;0;0;0
0.099021;1.611014;0.788029;8.39567e-13;0;0;8.39567e-13;2.220446e-16;-1.110223e-16;-6.94878e-17;0;0;0;0;2.359604e-16;-1.249381e-16;1.804493e-16;45;0;2.40599e-16;2.116258e-16;2.220446e-16;-1.221186e-16;-1.685695e-17;-1.110223e-16;1.052617e-16;0.788029;1.110223e-16;-1.110223e-16;0
0.166186;1.611014;0.83424;8.39567e-13;0;0;8.39567e-13;-4.440892e-16;2.220446e-16;1.652589e-18;0;0;0;0;2.220487e-16;-4.440933e-16;3.33071e-16;45;0;4.440947e-16;3.916545e-16;-4.440892e-16;2.12181e-17;-1.791293e-17;2.220446e-16;-3.913103e-17;0.83424;-2.220446e-16;2.220446e-16;0
0.233352;1.611014;0.843599;8.39567e-13;0;0;8.39567e-13;-3.330669e-16;2.220446e-16;1.333452e-17;0;0;0;0;2.223647e-16;-3.33387e-16;2.778759e-16;45;0;3.705012e-16;3.229906e-16;-3.330669e-16;4.626598e-17;-1.959694e-17;2.220446e-16;-6.586292e-17;0.843599;-1.110223e-16;1.110223e-16;0
0.300517;1.611014;0.874927;8.39567e-13;0;0;8.39567e-13;2.220446e-16;2.220446e-16;3.18192e-18;0;0;0;0;2.252265e-16;2.188627e-16;3.18192e-18;45;0;4.242561e-18;1.480753e-16;2.220446e-16;-3.80975e-18;1.017359e-17;2.220446e-16;1.398334e-17;0.874927;4.440892e-16;-4.440892e-16;0
0.367682;1.611014;0.868861;8.39567e-13;0;0;8.39567e-13;2.220446e-16;2.220446e-16;-4.68158e-17;0;0;0;0;2.688604e-16;1.752288e-16;4.68158e-17;45;0;6.242106e-17;1.575915e-16;2.220446e-16;-3.817561e-17;-5.545598e-17;2.220446e-16;-1.728037e-17;0.868861;4.440892e-16;-4.440892e-16;0
0.434848;1.611014;0.904123;8.39567e-13;0;0;8.39567e-13;-1.110223e-16;0;1.311138e-17;0;0;0;0;1.527398e-18;-1.125497e-16;5.703855e-17;45;0;7.60514e-17;7.554741e-17;-1.110223e-16;4.768546e-17;-2.146271e-17;0;-6.914818e-17;0.904123;-1.110223e-16;1.110223e-16;0
0.502013;1.611014;0.92549;8.39567e-13;0;0;8.39567e-13;0;0;3.462138e-18;0;0;0;0;3.462138e-18;-3.462138e-18;3.462138e-18;45;0;4.616184e-18;3.997732e-18;0;9.485198e-18;-2.560923e-18;0;-1.204612e-17;0.92549;0;0;0
0.569178;1.611014;0.924091;8.39567e-13;0;0;8.39567e-13;0;0;5.139375e-18;0;0;0;0;5.139375e-18;-5.139375e-18;5.139375e-18;45;0;6.852501e-18;5.93444e-18;0;1.06017e-17;-3.229534e-19;0;-1.092466e-17;0.924091;0;0;0
0.636344;1.611014;0.93376;8.39567e-13;0;0;8.39567e-13;2.220446e-16;2.220446e-16;-1.227736e-17;0;0;0;0;2.34322e-16;2.097672e-16;1.227736e-17;45;0;1.636981e-17;1.48707e-16;2.220446e-16;-1.680632e-17;-7.748392e-18;2.220446e-16;9.05793e-18;0.93376;4.440892e-16;-4.440892e-16;0
0.703509;1.611014;0.934213;8.39567e-13;0;0;8.39567e-13;-1.110223e-16;0;-1.426704e-17;0;0;0;0;1.804084e-18;-1.128264e-16;5.731524e-17;45;0;7.642031e-17;7.58261e-17;-1.110223e-16;1.961442e-18;-3.049551e-17;0;-3.245696e-17;0.934213;-1.110223e-16;1.110223e-16;0
0.770674;1.611014;0.903104;8.39567e-13;0;0;8.39567e-13;-1.110223e-16;-1.110223e-16;-7.924442e-18;0;0;0;0;-1.030979e-16;-1.189467e-16;7.924442e-18;45;0;1.056592e-17;7.457835e-17;-1.110223e-16;-2.076787e-17;4.918987e-18;-1.110223e-16;2.568686e-17;0.903104;-2.220446e-16;2.220446e-16;0
0.83784;1.611014;0.877613;8.39567e-13;0;0;8.39567e-13;0;-1.110223e-16;-2.545432e-17;0;0;0;0;5.557747e-18;-1.1658e-16;6.10689e-17;45;0;8.14252e-17;7.963728e-17;0;-5.509899e-18;-4.539874e-17;-1.110223e-16;-3.988884e-17;0.877613;-1.110223e-16;1.110223e-16;0
0.905005;1.611014;0.870162;8.39567e-13;0;0;8.39567e-13;-1.110223e-16;-1.110223e-16;2.839661e-17;0;0;0;0;-8.262569e-17;-1.394189e-16;2.839661e-17;45;0;3.786215e-17;8.095281e-17;-1.110223e-16;3.688254e-17;1.991068e-17;-1.110223e-16;-1.697186e-17;0.870162;-2.220446e-16;2.220446e-16;0
0.97217;1.611014;0.845688;8.39567e-13;0;0;8.39567e-13;2.220446e-16;2.220446e-16;-1.170089e-17;0;0;0;0;2.337455e-16;2.103437e-16;1.170089e-17;45;0;1.560118e-17;1.48645e-16;2.220446e-16;-2.819195e-17;4.790184e-18;2.220446e-16;3.298214e-17;0.845688;4.440892e-16;-4.440892e-16;0
1.039336;1.611014;0.82423;8.39567e-13;0;0;8.39567e-13;-1.110223e-16;0;3.192303e-17;0;0;0;0;8.524526e-18;-1.195468e-16;6.403568e-17;45;0;8.53809e-17;8.2686e-17;-1.110223e-16;1.798993e-17;4.585614e-17;0;2.786621e-17;0.82423;-1.110223e-16;1.110223e-16;0
1.106501;1.611014;0.817032;8.39567e-13;0;0;8.39567e-13;0;0;-3.233343e-17;0;0;0;0;3.233343e-17;-3.233343e-17;3.233343e-17;45;0;4.311124e-17;3.733543e-17;0;-3.297946e-17;-3.16874e-17;0;1.29206e-18;0.817032;0;0;0
1.173667;1.611014;0.734003;8.39567e-13;0;0;8.39567e-13;2.220446e-16;-1.110223e-16;-1.096671e-17;0;0;0;0;2.224053e-16;-1.11383e-16;1.668942e-16;45;0;2.225255e-16;1.962339e-16;2.220446e-16;-2.193343e-17;0;-1.110223e-16;2.193343e-17;0.734003;1.110223e-16;-1.110223e-16;0
1.240832;1.611014;0.664191;8.39567e-13;0;0;8.39567e-13;-1.110223e-16;0;5.321639e-17;0;0;0;0;2.138795e-17;-1.324103e-16;7.68991e-17;45;0;1.025321e-16;9.619864e-17;-1.110223e-16;7.480744e-17;3.162534e-17;0;-4.31821e-17;0.664191;-1.110223e-16;1.110223e-16;0
1.307997;1.611014;0.626338;8.39567e-13;0;0;8.39567e-13;0;0;6.475924e-19;0;0;0;0;6.475924e-19;-6.475924e-19;6.475924e-19;45;0;8.634565e-19;7.477753e-19;0;-2.991937e-17;3.121455e-17;0;6.113391e-17;0.626338;0;0;0
1.375163;1.611014;0.556859;8.39567e-13;0;0;8.39567e-13;-3.330669e-16;0;-2.935047e-17;0;0;0;0;2.566639e-18;-3.356335e-16;1.691001e-16;45;0;2.254668e-16;2.246161e-16;-3.330669e-16;-5.024587e-17;-8.45507e-18;0;4.17908e-17;0.556859;-3.330669e-16;3.330669e-16;0
1.442328;1.611014;0.430298;8.39567e-13;0;0;8.39567e-13;-2.220446e-16;0;-1.446211e-17;0;0;0;0;9.379778e-19;-2.229826e-16;1.119603e-16;45;0;1.492804e-16;1.489687e-16;-2.220446e-16;-3.959216e-17;1.066793e-17;0;5.02601e-17;0.430298;-2.220446e-16;2.220446e-16;0
1.509493;1.611014;0.338786;8.39567e-13;0;0;8.39567e-13;-2.220446e-16;-2.220446e-16;-5.02123e-17;0;0;0;0;-1.718323e-16;-2.722569e-16;5.02123e-17;45;0;6.694974e-17;1.589796e-16;-2.220446e-16;-1.004246e-16;0;-2.220446e-16;1.004246e-16;0.338786;-4.440892e-16;4.440892e-16;0
-0.371137;1.543848;0.302755;8.39567e-13;0;0;8.39567e-13;-1.110223e-16;2.220446e-16;-1.604039e-17;0;0;0;0;2.228153e-16;-1.11793e-16;1.673042e-16;45;0;2.230722e-16;1.966989e-16;-1.110223e-16;-1.134765e-17;-2.073312e-17;2.220446e-16;-9.385472e-18;0.302755;1.110223e-16;-1.110223e-16;0
-0.303971;1.543848;0.386804;8.39567e-13;0;0;8.39567e-13;0;0;6.631811e-18;0;0;0;0;6.631811e-18;-6.631811e-18;6.631811e-18;45;0;8.842414e-18;7.657755e-18;0;2.437244e-17;-1.110882e-17;0;-3.548126e-17;0.386804;0;0;0
-0.236806;1.543848;0.496358;8.39567e-13;0;0;8.39567e-13;0;-1.110223e-16;3.893817e-18;0;0;0;0;1.363979e-19;-1.111587e-16;5.564755e-17;45;0;7.419673e-17;7.415131e-17;0;1.710553e-17;-9.317893e-18;-1.110223e-16;-2.642342e-17;0.496358;-1.110223e-16;1.110223e-16;0
-0.169641;1.543848;0.563078;8.39567e-13;0;0;8.39567e-13;0;-1.110223e-16;-2.667168e-17;0;0;0;0;6.075099e-18;-1.170974e-16;6.158625e-17;45;0;8.2115e-17;8.016673e-17;0;-2.878962e-17;-2.455373e-17;-1.110223e-16;4.235897e-18;0.563078;-1.110223e-16;1.110223e-16;0
-0.102475;1.543848;0.637114;8.39567e-13;0;0;8.39567e-13;0;2.220446e-16;2.48006e-17;0;0;0;0;2.247809e-16;-2.736308e-18;1.137586e-16;45;0;1.516782e-16;1.507743e-16;0;1.398049e-17;3.562072e-17;2.220446e-16;2.164023e-17;0.637114;2.220446e-16;-2.220446e-16;0
-0.03531;1.543848;0.70367;8.39567e-13;0;0;8.39567e-13;0;2.220446e-16;1.014239e-17;0;0;0;0;2.225069e-16;-4.62314e-19;1.114846e-16;45;0;1.486462e-16;1.484923e-16;0;2.028478e-17;0;2.220446e-16;-2.028478e-17;0.70367;2.220446e-16;-2.220446e-16;0
0.031855;1.543848;0.732088;8.39567e-13;0;0;8.39567e-13;2.220446e-16;2.220446e-16;-7.656392e-18;0;0;0;0;2.29701e-16;2.143882e-16;7.656392e-18;45;0;1.020852e-17;1.482935e-16;2.220446e-16;-8.785035e-18;-6.527748e-18;2.220446e-16;2.257287e-18;0.732088;4.440892e-16;-4.440892e-16;0
0.099021;1.543848;0.748818;8.39567e-13;0;0;8.39567e-13;0;2.220446e-16;-2.644587e-18;0;0;0;0;2.220761e-16;-3.149299e-20;1.110538e-16;45;0;1.480717e-16;1.480612e-16;0;2.015224e-17;-2.544142e-17;2.220446e-16;-4.559366e-17;0.748818;2.220446e-16;-2.220446e-16;0
0.166186;1.543848;0.812703;8.39567e-13;0;0;8.39567e-13;4.440892e-16;-4.440892e-16;1.585757e-17;0;0;0;0;4.443722e-16;-4.443722e-16;4.443722e-16;45;0;5.924963e-16;5.131169e-16;4.440892e-16;9.488252e-18;2.222688e-17;-4.440892e-16;1.273863e-17;0.812703;0;0;0
0.233352;1.543848;0.823808;8.39567e-13;0;0;8.39567e-13;0;2.220446e-16;6.020517e-17;0;0;0;0;2.37318e-16;-1.527344e-17;1.262957e-16;45;0;1.683943e-16;1.635411e-16;0;6.300342e-17;5.740692e-17;2.220446e-16;-5.59651e-18;0.823808;2.220446e-16;-2.220446e-16;0
0.300517;1.543848;0.84679;8.39567e-13;0;0;8.39567e-13;2.220446e-16;0;-2.660352e-17;0;0;0;0;2.251875e-16;-3.142923e-18;1.141652e-16;45;0;1.522203e-16;1.511835e-16;2.220446e-16;-4.741658e-17;-5.790458e-18;0;4.162612e-17;0.84679;2.220446e-16;-2.220446e-16;0
0.367682;1.543848;0.881417;8.39567e-13;0;0;8.39567e-13;-1.110223e-16;0;2.250759e-17;0;0;0;0;4.389428e-18;-1.154117e-16;5.990058e-17;45;0;7.986744e-17;7.844524e-17;-1.110223e-16;6.393077e-17;-1.89156e-17;0;-8.284637e-17;0.881417;-1.110223e-16;1.110223e-16;0
0.434848;1.543848;0.912023;8.39567e-13;0;0;8.39567e-13;2.220446e-16;0;-2.614641e-17;0;0;0;0;2.250819e-16;-3.037272e-18;1.140596e-16;45;0;1.520794e-16;1.510772e-16;2.220446e-16;-3.274504e-17;-1.954778e-17;0;1.319725e-17;0.912023;2.220446e-16;-2.220446e-16;0
0.502013;1.543848;0.925596;8.39567e-13;0;0;8.39567e-13;2.220446e-16;0;-1.360668e-17;0;0;0;0;2.228753e-16;-8.306971e-19;1.11853e-16;45;0;1.491373e-16;1.488612e-16;2.220446e-16;-1.785696e-17;-9.356406e-18;0;8.500555e-18;0.925596;2.220446e-16;-2.220446e-16;0
0.569178;1.543848;0.912981;8.39567e-13;0;0;8.39567e-13;0;2.220446e-16;1.75344e-17;0;0;0;0;2.234207e-16;-1.376127e-18;1.123984e-16;45;0;1.498646e-16;1.49408e-16;0;8.943339e-18;2.612546e-17;2.220446e-16;1.718212e-17;0.912981;2.220446e-16;-2.220446e-16;0
0.636344;1.543848;0.922289;8.39567e-13;0;0;8.39567e-13;0;-1.110223e-16;1.511155e-17;0;0;0;0;2.020116e-18;-1.130424e-16;5.753127e-17;45;0;7.670836e-17;7.604393e-17;0;2.249667e-17;7.726424e-18;-1.110223e-16;-1.477025e-17;0.922289;-1.110223e-16;1.110223e-16;0
0.703509;1.543848;0.937919;8.39567e-13;0;0;8.39567e-13;2.220446e-16;2.220446e-16;2.248228e-17;0;0;0;0;2.445269e-16;1.995623e-16;2.248228e-17;45;0;2.997637e-17;1.502889e-16;2.220446e-16;3.725499e-17;7.709571e-18;2.220446e-16;-2.954542e-17;0.937919;4.440892e-16;-4.440892e-16;0
0.770674;1.543848;0.909563;8.39567e-13;0;0;8.39567e-13;-3.330669e-16;-1.110223e-16;-3.302209e-18;0;0;0;0;-1.109732e-16;-3.33116e-16;1.110714e-16;45;0;1.480952e-16;1.95862e-16;-3.330669e-16;3.976483e-18;-1.05809e-17;-1.110223e-16;-1.455738e-17;0.909563;-4.440892e-16;4.440892e-16;0
0.83784;1.543848;0.896269;8.39567e-13;0;0;8.39567e-13;0;0;-4.331126e-19;0;0;0;0;4.331126e-19;-4.331126e-19;4.331126e-19;45;0;5.774835e-19;5.001154e-19;0;2.467962e-17;-2.554584e-17;0;-5.022546e-17;0.896269;0;0;0
0.905005;1.543848;0.890407;8.39567e-13;0;0;8.39567e-13;2.220446e-16;0;-5.136993e-18;0;0;0;0;2.221634e-16;-1.187806e-19;1.111411e-16;45;0;1.481881e-16;1.481485e-16;2.220446e-16;1.942054e-17;-2.969453e-17;0;-4.911507e-17;0.890407;2.220446e-16;-2.220446e-16;0
0.97217;1.543848;0.848536;8.39567e-13;0;0;8.39567e-13;2.220446e-16;0;2.877698e-17;0;0;0;0;2.257135e-16;-3.668875e-18;1.146912e-16;45;0;1.529216e-16;1.517134e-16;2.220446e-16;3.0158e-17;2.739595e-17;0;-2.76205e-18;0.848536;2.220446e-16;-2.220446e-16;0
1.039336;1.543848;0.812253;8.39567e-13;0;0;8.39567e-13;0;-1.110223e-16;-3.422172e-17;0;0;0;0;9.700919e-18;-1.207232e-16;6.521207e-17;45;0;8.694943e-17;8.390293e-17;0;-3.942609e-17;-2.901735e-17;-1.110223e-16;1.040874e-17;0.812253;-1.110223e-16;1.110223e-16;0
1.106501;1.543848;0.798936;8.39567e-13;0;0;8.39567e-13;2.220446e-16;0;4.05513e-17;0;0;0;0;2.292186e-16;-7.173974e-18;1.181963e-16;45;0;1.57595e-16;1.55259e-16;2.220446e-16;5.47845e-17;2.631811e-17;0;-2.846639e-17;0.798936;2.220446e-16;-2.220446e-16;0
1.173667;1.543848;0.733319;8.39567e-13;0;0;8.39567e-13;2.220446e-16;-1.110223e-16;7.535208e-18;0;0;0;0;2.22215e-16;-1.111927e-16;1.667038e-16;45;0;2.222718e-16;1.960181e-16;2.220446e-16;-4.399849e-17;5.90689e-17;-1.110223e-16;1.030674e-16;0.733319;1.110223e-16;-1.110223e-16;0
1.240832;1.543848;0.681772;8.39567e-13;0;0;8.39567e-13;-4.440892e-16;0;3.428053e-17;0;0;0;0;2.63063e-18;-4.467198e-16;2.246752e-16;45;0;2.99567e-16;2.98694e-16;-4.440892e-16;8.532823e-17;-1.676717e-17;0;-1.020954e-16;0.681772;-4.440892e-16;4.440892e-16;0
1.307997;1.543848;0.656701;8.39567e-13;0;0;8.39567e-13;2.220446e-16;0;4.686347e-17;0;0;0;0;2.315301e-16;-9.485527e-18;1.205078e-16;45;0;1.606771e-16;1.576104e-16;2.220446e-16;4.189093e-17;5.183602e-17;0;9.94509e-18;0.656701;2.220446e-16;-2.220446e-16;0
1.375163;1.543848;0.556543;8.39567e-13;0;0;8.39567e-13;0;0;-5.083574e-18;0;0;0;0;5.083574e-18;-5.083574e-18;5.083574e-18;45;0;6.778098e-18;5.870005e-18;0;5.585403e-18;-1.575255e-17;0;-2.133795e-17;0.556543;0;0;0
1.442328;1.543848;0.410836;8.39567e-13;0;0;8.39567e-13;0;-1.110223e-16;8.642622e-18;0;0;0;0;6.687636e-19;-1.116911e-16;5.617992e-17;45;0;7.490655e-17;7.468463e-17;0;2.705099e-17;-9.765747e-18;-1.110223e-16;-3.681674e-17;0.410836;-1.110223e-16;1.110223e-16;0
1.509493;1.543848;0.301418;8.39567e-13;0;0;8.39567e-13;0;0;3.670152e-17;0;0;0;0;3.670152e-17;-3.670152e-17;3.670152e-17;45;0;4.893536e-17;4.237927e-17;0;1.070773e-16;-3.367428e-17;0;-1.407516e-16;0.301418;0;0;0
-0.371137;1.476683;0.273246;8.39567e-13;0;0;8.39567e-13;2.220446e-16;-2.220446e-16;1.748368e-17;0;0;0;0;2.227319e-16;-2.227319e-16;2.227319e-16;45;0;2.969758e-16;2.571886e-16;2.220446e-16;7.265581e-17;-3.768845e-17;-2.220446e-16;-1.103443e-16;0.273246;0;0;0
-0.303971;1.476683;0.384461;8.39567e-13;0;0;8.39567e-13;-3.330669e-16;2.220446e-16;2.570525e-17;0;0;0;0;2.232324e-16;-3.342547e-16;2.787435e-16;45;0;3.71658e-16;3.239858e-16;-3.330669e-16;4.024617e-17;1.116433e-17;2.220446e-16;-2.908184e-17;0.384461;-1.110223e-16;1.110223e-16;0
-0.236806;1.476683;0.487251;8.39567e-13;0;0;8.39567e-13;2.220446e-16;2.220446e-16;-1.794133e-17;0;0;0;0;2.399859e-16;2.041033e-16;1.794133e-17;45;0;2.392177e-17;1.494724e-16;2.220446e-16;-1.318093e-17;-2.270173e-17;2.220446e-16;-9.520799e-18;0.487251;4.440892e-16;-4.440892e-16;0
-0.169641;1.476683;0.568604;8.39567e-13;0;0;8.39567e-13;0;0;-4.00792e-18;0;0;0;0;4.00792e-18;-4.00792e-18;4.00792e-18;45;0;5.343893e-18;4.627947e-18;0;1.762249e-18;-9.778087e-18;0;-1.154034e-17;0.568604;0;0;0
-0.102475;1.476683;0.661648;8.39567e-13;0;0;8.39567e-13;2.220446e-16;2.220446e-16;9.623223e-18;0;0;0;0;2.316678e-16;2.124214e-16;9.623223e-18;45;0;1.283096e-17;1.484462e-16;2.220446e-16;3.338081e-17;-1.413436e-17;2.220446e-16;-4.751517e-17;0.661648;4.440892e-16;-4.440892e-16;0
-0.03531;1.476683;0.70354;8.39567e-13;0;0;8.39567e-13;-2.220446e-16;2.220446e-16;-4.233916e-17;0;0;0;0;2.260451e-16;-2.260451e-16;2.260451e-16;45;0;3.013935e-16;2.610144e-16;-2.220446e-16;-2.035609e-17;-6.432223e-17;2.220446e-16;-4.396614e-17;0.70354;0;0;0
0.031855;1.476683;0.74875;8.39567e-13;0;0;8.39567e-13;0;2.220446e-16;2.565589e-17;0;0;0;0;2.249704e-16;-2.925828e-18;1.139481e-16;45;0;1.519308e-16;1.50965e-16;0;5.609154e-17;-4.779754e-18;2.220446e-16;-6.087129e-17;0.74875;2.220446e-16;-2.220446e-16;0
0.099021;1.476683;0.7593;8.39567e-13;0;0;8.39567e-13;0;-1.110223e-16;-4.35252e-18;0;0;0;0;1.703748e-19;-1.111927e-16;5.568152e-17;45;0;7.424203e-17;7.418531e-17;0;2.231867e-17;-3.102371e-17;-1.110223e-16;-5.334239e-17;0.7593;-1.110223e-16;1.110223e-16;0
0.166186;1.476683;0.825622;8.39567e-13;0;0;8.39567e-13;0;0;-6.827721e-20;0;0;0;0;6.827721e-20;-6.827721e-20;6.827721e-20;45;0;9.103628e-20;7.883973e-20;0;-1.365544e-19;0;0;1.365544e-19;0.825622;0;0;0
0.233352;1.476683;0.855583;8.39567e-13;0;0;8.39567e-13;-1.110223e-16;2.220446e-16;-3.845224e-18;0;0;0;0;2.22089e-16;-1.110667e-16;1.665778e-16;45;0;2.221038e-16;1.958753e-16;-1.110223e-16;-1.770781e-17;1.001736e-17;2.220446e-16;2.772517e-17;0.855583;1.110223e-16;-1.110223e-16;0
0.300517;1.476683;0.856521;8.39567e-13;0;0;8.39567e-13;-1.110223e-16;-1.110223e-16;9.165332e-18;0;0;0;0;-1.01857e-16;-1.201876e-16;9.165332e-18;45;0;1.222044e-17;7.476768e-17;-1.110223e-16;-1.796045e-18;2.012671e-17;-1.110223e-16;2.192276e-17;0.856521;-2.220446e-16;2.220446e-16;0
0.367682;1.476683;0.890931;8.39567e-13;0;0;8.39567e-13;-3.330669e-16;-1.110223e-16;1.166946e-18;0;0;0;0;-1.110162e-16;-3.33073e-16;1.110284e-16;45;0;1.480379e-16;1.958296e-16;-3.330669e-16;2.333893e-18;0;-1.110223e-16;-2.333893e-18;0.890931;-4.440892e-16;4.440892e-16;0
0.434848;1.476683;0.926432;8.39567e-13;0;0;8.39567e-13;4.440892e-16;0;-5.053315e-17;0;0;0;0;4.497668e-16;-5.677606e-18;2.277222e-16;45;0;3.036296e-16;3.017549e-16;4.440892e-16;-4.488459e-17;-5.618171e-17;0;-1.129712e-17;0.926432;4.440892e-16;-4.440892e-16;0
0.502013;1.476683;0.92689;8.39567e-13;0;0;8.39567e-13;-1.110223e-16;-1.110223e-16;2.554544e-17;0;0;0;0;-8.547686e-17;-1.365677e-16;2.554544e-17;45;0;3.406059e-17;7.967618e-17;-1.110223e-16;2.938198e-17;2.17089e-17;-1.110223e-16;-7.67308e-18;0.92689;-2.220446e-16;2.220446e-16;0
0.569178;1.476683;0.924756;8.39567e-13;0;0;8.39567e-13;-1.110223e-16;2.220446e-16;3.204436e-17;0;0;0;0;2.250996e-16;-1.140773e-16;1.695884e-16;45;0;2.261179e-16;1.992901e-16;-1.110223e-16;1.481501e-17;4.927372e-17;2.220446e-16;3.44587e-17;0.924756;1.110223e-16;-1.110223e-16;0
0.636344;1.476683;0.90256;8.39567e-13;0;0;8.39567e-13;-1.110223e-16;0;-3.174679e-17;0;0;0;0;8.436849e-18;-1.194591e-16;6.3948e-17;45;0;8.5264e-17;8.259547e-17;-1.110223e-16;-1.460888e-17;-4.88847e-17;0;-3.427582e-17;0.90256;-1.110223e-16;1.110223e-16;0
0.703509;1.476683;0.90553;8.39567e-13;0;0;8.39567e-13;0;0;2.133307e-17;0;0;0;0;2.133307e-17;-2.133307e-17;2.133307e-17;45;0;2.844409e-17;2.46333e-17;0;2.588507e-17;1.678107e-17;0;-9.103999e-18;0.90553;0;0;0
0.770674;1.476683;0.910354;8.39567e-13;0;0;8.39567e-13;2.220446e-16;0;1.481768e-17;0;0;0;0;2.230291e-16;-9.84462e-19;1.120068e-16;45;0;1.493424e-16;1.490153e-16;2.220446e-16;1.678477e-17;1.285059e-17;0;-3.934175e-18;0.910354;2.220446e-16;-2.220446e-16;0
0.83784;1.476683;0.901407;8.39567e-13;0;0;8.39567e-13;0;-1.110223e-16;-1.867826e-17;0;0;0;0;3.058169e-18;-1.140805e-16;5.856932e-17;45;0;7.809243e-17;7.709326e-17;0;-2.451512e-17;-1.28414e-17;-1.110223e-16;1.167372e-17;0.901407;-1.110223e-16;1.110223e-16;0
0.905005;1.476683;0.90335;8.39567e-13;0;0;8.39567e-13;0;-1.110223e-16;-2.585419e-17;0;0;0;0;5.725498e-18;-1.167478e-16;6.123665e-17;45;0;8.164887e-17;7.980885e-17;0;-2.180977e-17;-2.989862e-17;-1.110223e-16;-8.088845e-18;0.90335;-1.110223e-16;1.110223e-16;0
0.97217;1.476683;0.878716;8.39567e-13;0;0;8.39567e-13;4.440892e-16;-1.110223e-16;1.105377e-17;0;0;0;0;4.443092e-16;-1.112423e-16;2.777758e-16;45;0;3.703677e-16;3.394188e-16;4.440892e-16;-5.638174e-18;2.774571e-17;-1.110223e-16;3.338388e-17;0.878716;3.330669e-16;-3.330669e-16;0
1.039336;1.476683;0.833738;8.39567e-13;0;0;8.39567e-13;2.220446e-16;2.220446e-16;8.243753e-18;0;0;0;0;2.302884e-16;2.138009e-16;8.243753e-18;45;0;1.099167e-17;1.483355e-16;2.220446e-16;-2.025335e-18;1.851284e-17;2.220446e-16;2.053818e-17;0.833738;4.440892e-16;-4.440892e-16;0
1.106501;1.476683;0.818022;8.39567e-13;0;0;8.39567e-13;-3.330669e-16;0;1.566367e-17;0;0;0;0;7.350184e-19;-3.338019e-16;1.672685e-16;45;0;2.230246e-16;2.2278e-16;-3.330669e-16;3.132734e-17;0;0;-3.132734e-17;0.818022;-3.330669e-16;3.330669e-16;0
1.173667;1.476683;0.76584;8.39567e-13;0;0;8.39567e-13;-1.110223e-16;2.220446e-16;1.329354e-17;0;0;0;0;2.225743e-16;-1.11552e-16;1.670632e-16;45;0;2.227509e-16;1.964256e-16;-1.110223e-16;7.215748e-17;-4.557041e-17;2.220446e-16;-1.177279e-16;0.76584;1.110223e-16;-1.110223e-16;0
1.240832;1.476683;0.689115;8.39567e-13;0;0;8.39567e-13;-1.110223e-16;-1.110223e-16;1.179433e-19;0;0;0;0;-1.109044e-16;-1.111403e-16;1.179433e-19;45;0;1.572578e-19;7.4015e-17;-1.110223e-16;-1.574972e-17;1.59856e-17;-1.110223e-16;3.173532e-17;0.689115;-2.220446e-16;2.220446e-16;0
1.307997;1.476683;0.644106;8.39567e-13;0;0;8.39567e-13;2.220446e-16;-1.110223e-16;2.292765e-18;0;0;0;0;2.220604e-16;-1.110381e-16;1.665492e-16;45;0;2.220656e-16;1.958428e-16;2.220446e-16;-1.748181e-17;2.206734e-17;-1.110223e-16;3.954915e-17;0.644106;1.110223e-16;-1.110223e-16;0
1.375163;1.476683;0.575108;8.39567e-13;0;0;8.39567e-13;0;-1.110223e-16;-3.913833e-17;0;0;0;0;1.24101e-17;-1.234324e-16;6.792126e-17;45;0;9.056167e-17;8.672147e-17;0;-8.101359e-17;2.736929e-18;-1.110223e-16;8.375052e-17;0.575108;-1.110223e-16;1.110223e-16;0
1.442328;1.476683;0.450433;8.39567e-13;0;0;8.39567e-13;-1.110223e-16;0;6.232649e-17;0;0;0;0;2.795189e-17;-1.389742e-16;8.346304e-17;45;0;1.112841e-16;1.032359e-16;-1.110223e-16;1.348617e-16;-1.020869e-17;0;-1.450704e-16;0.450433;-1.110223e-16;1.110223e-16;0
1.509493;1.476683;0.350452;8.39567e-13;0;0;8.39567e-13;2.220446e-16;-2.220446e-16;1.866911e-19;0;0;0;0;2.220447e-16;-2.220447e-16;2.220447e-16;45;0;2.960596e-16;2.563951e-16;2.220446e-16;-6.677349e-17;6.714688e-17;-2.220446e-16;1.339204e-16;0.350452;0;0;0
-0.371137;1.409518;0.285355;8.39567e-13;0;0;8.39567e-13;2.220446e-16;2.220446e-16;-2.242742e-17;0;0;0;0;2.44472e-16;1.996172e-16;2.242742e-17;45;0;2.990322e-17;1.502779e-16;2.220446e-16;-2.144853e-17;-2.34063e-17;2.220446e-16;-1.957777e-18;0.285355;4.440892e-16;-4.440892e-16;0
-0.303971;1.409518;0.376777;8.39567e-13;0;0;8.39567e-13;0;-1.110223e-16;-3.95599e-18;0;0;0;0;1.407829e-19;-1.111631e-16;5.565194e-17;45;0;7.420258e-17;7.41557e-17;0;2.491084e-17;-3.282282e-17;-1.110223e-16;-5.773367e-17;0.376777;-1.110223e-16;1.110223e-16;0
-0.236806;1.409518;0.49521;8.39567e-13;0;0;8.39567e-13;-2.220446e-16;-1.110223e-16;1.54586e-17;0;0;0;0;-1.089101e-16;-2.241568e-16;5.76234e-17;45;0;7.68312e-17;1.294343e-16;-2.220446e-16;3.681115e-17;-5.89396e-18;-1.110223e-16;-4.270511e-17;0.49521;-3.330669e-16;3.330669e-16;0
-0.169641;1.409518;0.569868;8.39567e-13;0;0;8.39567e-13;-2.220446e-16;2.220446e-16;-2.807406e-17;0;0;0;0;2.238123e-16;-2.238123e-16;2.238123e-16;45;0;2.984164e-16;2.584362e-16;-2.220446e-16;-2.953374e-17;-2.661437e-17;2.220446e-16;2.919368e-18;0.569868;0;0;0
-0.102475;1.409518;0.659379;8.39567e-13;0;0;8.39567e-13;-1.110223e-16;2.220446e-16;2.314418e-17;0;0;0;0;2.236452e-16;-1.126229e-16;1.68134e-16;45;0;2.241787e-16;1.976401e-16;-1.110223e-16;3.915714e-17;7.131218e-18;2.220446e-16;-3.202592e-17;0.659379;1.110223e-16;-1.110223e-16;0
-0.03531;1.409518;0.708868;8.39567e-13;0;0;8.39567e-13;-1.110223e-16;2.220446e-16;-2.537483e-17;0;0;0;0;2.239667e-16;-1.129444e-16;1.684556e-16;45;0;2.246074e-16;1.980048e-16;-1.110223e-16;-2.714145e-19;-5.047824e-17;2.220446e-16;-5.020683e-17;0.708868;1.110223e-16;-1.110223e-16;0
0.031855;1.409518;0.749442;8.39567e-13;0;0;8.39567e-13;0;4.440892e-16;1.624299e-17;0;0;0;0;4.446825e-16;-5.933105e-19;2.226379e-16;45;0;2.968506e-16;2.96653e-16;0;3.087569e-17;1.61029e-18;4.440892e-16;-2.926541e-17;0.749442;4.440892e-16;-4.440892e-16;0
0.099021;1.409518;0.763316;8.39567e-13;0;0;8.39567e-13;0;0;-6.971673e-18;0;0;0;0;6.971673e-18;-6.971673e-18;6.971673e-18;45;0;9.295565e-18;8.050195e-18;0;-2.975744e-17;1.581409e-17;0;4.557152e-17;0.763316;0;0;0
0.166186;1.409518;0.819577;8.39567e-13;0;0;8.39567e-13;0;2.220446e-16;6.835396e-18;0;0;0;0;2.222548e-16;-2.10221e-19;1.112325e-16;45;0;1.4831e-16;1.4824e-16;0;4.186854e-17;-2.819775e-17;2.220446e-16;-7.006629e-17;0.819577;2.220446e-16;-2.220446e-16;0
0.233352;1.409518;0.868372;8.39567e-13;0;0;8.39567e-13;-1.110223e-16;-4.440892e-16;-3.717782e-18;0;0;0;0;-1.109808e-16;-4.441307e-16;1.665749e-16;45;0;2.220999e-16;2.668989e-16;-1.110223e-16;7.523285e-18;-1.495885e-17;-4.440892e-16;-2.248213e-17;0.868372;-5.551115e-16;5.551115e-16;0
0.300517;1.409518;0.849763;8.39567e-13;0;0;8.39567e-13;-1.110223e-16;-1.110223e-16;-2.452248e-17;0;0;0;0;-8.649982e-17;-1.355448e-16;2.452248e-17;45;0;3.269664e-17;7.924648e-17;-1.110223e-16;-2.417621e-17;-2.486875e-17;-1.110223e-16;-6.925438e-19;0.849763;-2.220446e-16;2.220446e-16;0
0.367682;1.409518;0.858159;8.39567e-13;0;0;8.39567e-13;2.220446e-16;0;-1.828452e-17;0;0;0;0;2.235402e-16;-1.495587e-18;1.125179e-16;45;0;1.500239e-16;1.495278e-16;2.220446e-16;-1.834685e-17;-1.82222e-17;0;1.246512e-19;0.858159;2.220446e-16;-2.220446e-16;0
0.434848;1.409518;0.911314;8.39567e-13;0;0;8.39567e-13;-1.110223e-16;0;8.505118e-18;0;0;0;0;6.477745e-19;-1.116701e-16;5.615893e-17;45;0;7.487857e-17;7.466358e-17;-1.110223e-16;2.380962e-19;1.677214e-17;0;1.653404e-17;0.911314;-1.110223e-16;1.110223e-16;0
0.502013;1.409518;0.914487;8.39567e-13;0;0;8.39567e-13;0;2.220446e-16;1.119278e-17;0;0;0;0;2.226074e-16;-5.627766e-19;1.115851e-16;45;0;1.487801e-16;1.485929e-16;0;5.587026e-18;1.679852e-17;2.220446e-16;1.12115e-17;0.914487;2.220446e-16;-2.220446e-16;0
0.569178;1.409518;0.920964;8.39567e-13;0;0;8.39567e-13;0;0;1.292672e-18;0;0;0;0;1.292672e-18;-1.292672e-18;1.292672e-18;45;0;1.723563e-18;1.492649e-18;0;2.046955e-17;-1.788421e-17;0;-3.835376e-17;0.920964;0;0;0
0.636344;1.409518;0.897548;8.39567e-13;0;0;8.39567e-13;2.220446e-16;2.220446e-16;1.408581e-17;0;0;0;0;2.361304e-16;2.079588e-16;1.408581e-17;45;0;1.878108e-17;1.489206e-16;2.220446e-16;3.795667e-18;2.437595e-17;2.220446e-16;2.058028e-17;0.897548;4.440892e-16;-4.440892e-16;0
0.703509;1.409518;0.890622;8.39567e-13;0;0;8.39567e-13;0;-1.110223e-16;1.824554e-17;0;0;0;0;2.92161e-18;-1.139439e-16;5.843276e-17;45;0;7.791035e-17;7.695497e-17;0;1.268199e-17;2.380908e-17;-1.110223e-16;1.112709e-17;0.890622;-1.110223e-16;1.110223e-16;0
0.770674;1.409518;0.907932;8.39567e-13;0;0;8.39567e-13;0;0;4.462387e-18;0;0;0;0;4.462387e-18;-4.462387e-18;4.462387e-18;45;0;5.949849e-18;5.152721e-18;0;-9.226912e-18;1.815169e-17;0;2.73786e-17;0.907932;0;0;0
0.83784;1.409518;0.882541;8.39567e-13;0;0;8.39567e-13;0;2.220446e-16;-3.334563e-17;0;0;0;0;2.269442e-16;-4.89958e-18;1.159219e-16;45;0;1.545625e-16;1.529555e-16;0;-3.636143e-17;-3.032983e-17;2.220446e-16;6.0316e-18;0.882541;2.220446e-16;-2.220446e-16;0
0.905005;1.409518;0.880938;8.39567e-13;0;0;8.39567e-13;0;-1.110223e-16;-1.500555e-17;0;0;0;0;1.992367e-18;-1.130147e-16;5.750352e-17;45;0;7.667136e-17;7.601594e-17;0;-1.839029e-17;-1.162082e-17;-1.110223e-16;6.769461e-18;0.880938;-1.110223e-16;1.110223e-16;0
0.97217;1.409518;0.889193;8.39567e-13;0;0;8.39567e-13;-3.330669e-16;2.220446e-16;1.789654e-17;0;0;0;0;2.22621e-16;-3.336433e-16;2.781321e-16;45;0;3.708429e-16;3.232845e-16;-3.330669e-16;6.485002e-17;-2.905694e-17;2.220446e-16;-9.390696e-17;0.889193;-1.110223e-16;1.110223e-16;0
1.039336;1.409518;0.847381;8.39567e-13;0;0;8.39567e-13;-1.110223e-16;0;-9.229841e-18;0;0;0;0;7.620918e-19;-1.117844e-16;5.627324e-17;45;0;7.503099e-17;7.477825e-17;-1.110223e-16;-1.845968e-17;0;0;1.845968e-17;0.847381;-1.110223e-16;1.110223e-16;0
1.106501;1.409518;0.801924;8.39567e-13;0;0;8.39567e-13;0;0;6.984461e-19;0;0;0;0;6.984461e-19;-6.984461e-19;6.984461e-19;45;0;9.312614e-19;8.064961e-19;0;1.396892e-18;0;0;-1.396892e-18;0.801924;0;0;0
1.173667;1.409518;0.74881;8.39567e-13;0;0;8.39567e-13;-1.110223e-16;0;4.230638e-17;0;0;0;0;1.428368e-17;-1.25306e-16;6.979483e-17;45;0;9.305977e-17;8.868281e-17;-1.110223e-16;3.439227e-17;5.02205e-17;0;1.582823e-17;0.74881;-1.110223e-16;1.110223e-16;0
1.240832;1.409518;0.704752;8.39567e-13;0;0;8.39567e-13;-1.110223e-16;-1.110223e-16;1.454517e-17;0;0;0;0;-9.647713e-17;-1.255675e-16;1.454517e-17;45;0;1.939356e-17;7.589653e-17;-1.110223e-16;2.376224e-17;5.328099e-18;-1.110223e-16;-1.843414e-17;0.704752;-2.220446e-16;2.220446e-16;0
1.307997;1.409518;0.643525;8.39567e-13;0;0;8.39567e-13;0;-3.330669e-16;-1.882562e-17;0;0;0;0;1.060685e-18;-3.341276e-16;1.675941e-16;45;0;2.234589e-16;2.231061e-16;0;-2.368121e-17;-1.397004e-17;-3.330669e-16;9.711167e-18;0.643525;-3.330669e-16;3.330669e-16;0
1.375163;1.409518;0.567954;8.39567e-13;0;0;8.39567e-13;2.220446e-16;-1.110223e-16;5.273302e-17;0;0;0;0;2.301942e-16;-1.191719e-16;1.74683e-16;45;0;2.329107e-16;2.050734e-16;2.220446e-16;9.407147e-17;1.139457e-17;-1.110223e-16;-8.267691e-17;0.567954;1.110223e-16;-1.110223e-16;0
1.442328;1.409518;0.445201;8.39567e-13;0;0;8.39567e-13;2.220446e-16;-1.110223e-16;5.314322e-18;0;0;0;0;2.221294e-16;-1.111071e-16;1.666182e-16;45;0;2.221576e-16;1.959211e-16;2.220446e-16;1.062864e-17;0;-1.110223e-16;-1.062864e-17;0.445201;1.110223e-16;-1.110223e-16;0
1.509493;1.409518;0.341067;8.39567e-13;0;0;8.39567e-13;2.220446e-16;0;2.302389e-17;0;0;0;0;2.244068e-16;-2.362226e-18;1.133845e-16;45;0;1.511794e-16;1.503982e-16;2.220446e-16;6.191862e-17;-1.587083e-17;0;-7.778945e-17;0.341067;2.220446e-16;-2.220446e-16;0
-0.371137;1.342352;0.281318;8.39567e-13;0;0;8.39567e-13;2.220446e-16;0;-9.383433e-17;0;0;0;0;2.563868e-16;-3.434218e-17;1.453645e-16;45;0;1.938193e-16;1.834466e-16;2.220446e-16;-1.099632e-16;-7.770542e-17;0;3.225782e-17;0.281318;2.220446e-16;-2.220446e-16;0
-0.303971;1.342352;0.377883;8.39567e-13;0;0;8.39567e-13;-1.110223e-16;-3.330669e-16;3.378298e-17;0;0;0;0;-1.059962e-16;-3.38093e-16;1.160485e-16;45;0;1.547313e-16;1.996725e-16;-1.110223e-16;5.460475e-17;1.296122e-17;-3.330669e-16;-4.164353e-17;0.377883;-4.440892e-16;4.440892e-16;0
-0.236806;1.342352;0.504995;8.39567e-13;0;0;8.39567e-13;0;2.220446e-16;7.786537e-18;0;0;0;0;2.223173e-16;-2.72719e-19;1.11295e-16;45;0;1.483934e-16;1.483025e-16;0;6.874353e-18;8.698721e-18;2.220446e-16;1.824368e-18;0.504995;2.220446e-16;-2.220446e-16;0
-0.169641;1.342352;0.565094;8.39567e-13;0;0;8.39567e-13;2.220446e-16;2.220446e-16;1.402186e-18;0;0;0;0;2.234468e-16;2.206424e-16;1.402186e-18;45;0;1.869582e-18;1.480386e-16;2.220446e-16;1.732194e-17;-1.451756e-17;2.220446e-16;-3.18395e-17;0.565094;4.440892e-16;-4.440892e-16;0
-0.102475;1.342352;0.634938;8.39567e-13;0;0;8.39567e-13;0;0;2.987732e-17;0;0;0;0;2.987732e-17;-2.987732e-17;2.987732e-17;45;0;3.983642e-17;3.449935e-17;0;3.031124e-17;2.94434e-17;0;-8.678362e-19;0.634938;0;0;0
-0.03531;1.342352;0.692516;8.39567e-13;0;0;8.39567e-13;0;2.220446e-16;-1.001064e-17;0;0;0;0;2.22495e-16;-4.504056e-19;1.114727e-16;45;0;1.486303e-16;1.484804e-16;0;-4.392089e-18;-1.56292e-17;2.220446e-16;-1.123711e-17;0.692516;2.220446e-16;-2.220446e-16;0
0.031855;1.342352;0.746984;8.39567e-13;0;0;8.39567e-13;2.220446e-16;2.220446e-16;-1.016044e-17;0;0;0;0;2.32205e-16;2.118842e-16;1.016044e-17;45;0;1.354725e-17;1.484939e-16;2.220446e-16;5.565085e-18;-2.588596e-17;2.220446e-16;-3.145104e-17;0.746984;4.440892e-16;-4.440892e-16;0
0.099021;1.342352;0.774158;8.39567e-13;0;0;8.39567e-13;-1.110223e-16;-1.110223e-16;3.22081e-17;0;0;0;0;-7.881421e-17;-1.432304e-16;3.22081e-17;45;0;4.294413e-17;8.283326e-17;-1.110223e-16;3.331488e-17;3.110132e-17;-1.110223e-16;-2.213556e-18;0.774158;-2.220446e-16;2.220446e-16;0
0.166186;1.342352;0.815672;8.39567e-13;0;0;8.39567e-13;4.440892e-16;-3.330669e-16;-3.250873e-17;0;0;0;0;4.454467e-16;-3.344244e-16;3.899355e-16;45;0;5.199141e-16;4.51777e-16;4.440892e-16;-1.00595e-16;3.557749e-17;-3.330669e-16;1.361725e-16;0.815672;1.110223e-16;-1.110223e-16;0
0.233352;1.342352;0.8526;8.39567e-13;0;0;8.39567e-13;0;0;2.310844e-18;0;0;0;0;2.310844e-18;-2.310844e-18;2.310844e-18;45;0;3.081125e-18;2.668333e-18;0;-2.452266e-17;2.914435e-17;0;5.3667e-17;0.8526;0;0;0
0.300517;1.342352;0.85389;8.39567e-13;0;0;8.39567e-13;0;2.220446e-16;-1.91021e-17;0;0;0;0;2.236759e-16;-1.631334e-18;1.126536e-16;45;0;1.502048e-16;1.49664e-16;0;-2.80405e-17;-1.01637e-17;2.220446e-16;1.787681e-17;0.85389;2.220446e-16;-2.220446e-16;0
0.367682;1.342352;0.866535;8.39567e-13;0;0;8.39567e-13;2.220446e-16;2.220446e-16;2.782578e-17;0;0;0;0;2.498704e-16;1.942188e-16;2.782578e-17;45;0;3.710104e-17;1.514766e-16;2.220446e-16;3.748011e-17;1.817144e-17;2.220446e-16;-1.930867e-17;0.866535;4.440892e-16;-4.440892e-16;0
0.434848;1.342352;0.924012;8.39567e-13;0;0;8.39567e-13;-1.110223e-16;-3.330669e-16;1.062709e-17;0;0;0;0;-1.105149e-16;-3.335744e-16;1.115298e-16;45;0;1.487063e-16;1.96209e-16;-1.110223e-16;2.125418e-17;0;-3.330669e-16;-2.125418e-17;0.924012;-4.440892e-16;4.440892e-16;0
0.502013;1.342352;0.921228;8.39567e-13;0;0;8.39567e-13;-1.110223e-16;0;2.314627e-18;0;0;0;0;4.823508e-20;-1.110705e-16;5.555939e-17;45;0;7.407918e-17;7.406311e-17;-1.110223e-16;-7.095645e-18;1.17249e-17;0;1.882054e-17;0.921228;-1.110223e-16;1.110223e-16;0
0.569178;1.342352;0.892708;8.39567e-13;0;0;8.39567e-13;2.220446e-16;-1.110223e-16;7.148196e-18;0;0;0;0;2.221979e-16;-1.111756e-16;1.666868e-16;45;0;2.222491e-16;1.959988e-16;2.220446e-16;4.061926e-18;1.023447e-17;-1.110223e-16;6.17254e-18;0.892708;1.110223e-16;-1.110223e-16;0
0.636344;1.342352;0.90266;8.39567e-13;0;0;8.39567e-13;-1.110223e-16;-1.110223e-16;1.226287e-17;0;0;0;0;-9.875944e-17;-1.232852e-16;1.226287e-17;45;0;1.635049e-17;7.535718e-17;-1.110223e-16;9.66787e-18;1.485787e-17;-1.110223e-16;5.189996e-18;0.90266;-2.220446e-16;2.220446e-16;0
0.703509;1.342352;0.913077;8.39567e-13;0;0;8.39567e-13;-3.330669e-16;-1.110223e-16;1.080858e-17;0;0;0;0;-1.104974e-16;-3.335918e-16;1.115472e-16;45;0;1.487296e-16;1.962222e-16;-3.330669e-16;1.389311e-17;7.724054e-18;-1.110223e-16;-6.169059e-18;0.913077;-4.440892e-16;4.440892e-16;0
0.770674;1.342352;0.915957;8.39567e-13;0;0;8.39567e-13;-1.110223e-16;-3.330669e-16;1.131138e-18;0;0;0;0;-1.110165e-16;-3.330727e-16;1.110281e-16;45;0;1.480374e-16;1.958293e-16;-1.110223e-16;2.262275e-18;0;-3.330669e-16;-2.262275e-18;0.915957;-4.440892e-16;4.440892e-16;0
0.83784;1.342352;0.880149;8.39567e-13;0;0;8.39567e-13;0;-4.440892e-16;-2.713367e-18;0;0;0;0;1.657795e-20;-4.441058e-16;2.220612e-16;45;0;2.960816e-16;2.960761e-16;0;-4.420218e-19;-4.984712e-18;-4.440892e-16;-4.542691e-18;0.880149;-4.440892e-16;4.440892e-16;0
0.905005;1.342352;0.868674;8.39567e-13;0;0;8.39567e-13;0;0;4.363857e-18;0;0;0;0;4.363857e-18;-4.363857e-18;4.363857e-18;45;0;5.818477e-18;5.038949e-18;0;-1.98244e-17;2.855212e-17;0;4.837652e-17;0.868674;0;0;0
0.97217;1.342352;0.863519;8.39567e-13;0;0;8.39567e-13;0;0;1.77581e-17;0;0;0;0;1.77581e-17;-1.77581e-17;1.77581e-17;45;0;2.367746e-17;2.050528e-17;0;4.523235e-17;-9.716157e-18;0;-5.494851e-17;0.863519;0;0;0
1.039336;1.342352;0.823942;8.39567e-13;0;0;8.39567e-13;2.220446e-16;0;-2.32246e-17;0;0;0;0;2.244478e-16;-2.403153e-18;1.134255e-16;45;0;1.512339e-16;1.504393e-16;2.220446e-16;-7.210348e-17;2.565428e-17;0;9.775776e-17;0.823942;2.220446e-16;-2.220446e-16;0
1.106501;1.342352;0.772334;8.39567e-13;0;0;8.39567e-13;-1.110223e-16;2.220446e-16;4.836501e-17;0;0;0;0;2.289256e-16;-1.179033e-16;1.734144e-16;45;0;2.312192e-16;2.036328e-16;-1.110223e-16;1.883994e-17;7.789007e-17;2.220446e-16;5.905013e-17;0.772334;1.110223e-16;-1.110223e-16;0
1.173667;1.342352;0.742746;8.39567e-13;0;0;8.39567e-13;2.220446e-16;2.220446e-16;8.285661e-18;0;0;0;0;2.303303e-16;2.137589e-16;8.285661e-18;45;0;1.104755e-17;1.483386e-16;2.220446e-16;8.551016e-18;8.020306e-18;2.220446e-16;-5.307101e-19;0.742746;4.440892e-16;-4.440892e-16;0
1.240832;1.342352;0.715097;8.39567e-13;0;0;8.39567e-13;0;2.220446e-16;6.050061e-18;0;0;0;0;2.222093e-16;-1.647241e-19;1.11187e-16;45;0;1.482494e-16;1.481945e-16;0;4.959623e-18;7.140498e-18;2.220446e-16;2.180876e-18;0.715097;2.220446e-16;-2.220446e-16;0
1.307997;1.342352;0.607995;8.39567e-13;0;0;8.39567e-13;-2.220446e-16;-1.110223e-16;-5.056876e-17;0;0;0;0;-9.144226e-17;-2.416246e-16;7.509119e-17;45;0;1.001216e-16;1.408694e-16;-2.220446e-16;-8.850191e-17;-1.263561e-17;-1.110223e-16;7.58663e-17;0.607995;-3.330669e-16;3.330669e-16;0
1.375163;1.342352;0.533839;8.39567e-13;0;0;8.39567e-13;2.220446e-16;0;1.840232e-17;0;0;0;0;2.235594e-16;-1.514789e-18;1.125371e-16;45;0;1.500495e-16;1.495471e-16;2.220446e-16;1.880692e-17;1.799771e-17;0;-8.092041e-19;0.533839;2.220446e-16;-2.220446e-16;0
1.442328;1.342352;0.424412;8.39567e-13;0;0;8.39567e-13;-3.330669e-16;2.220446e-16;-1.516205e-17;0;0;0;0;2.224584e-16;-3.334807e-16;2.779696e-16;45;0;3.706261e-16;3.23098e-16;-3.330669e-16;-4.582285e-17;1.549875e-17;2.220446e-16;6.132161e-17;0.424412;-1.110223e-16;1.110223e-16;0
1.509493;1.342352;0.303169;8.39567e-13;0;0;8.39567e-13;-2.220446e-16;2.220446e-16;3.75394e-17;0;0;0;0;2.251955e-16;-2.251955e-16;2.251955e-16;45;0;3.002607e-16;2.600334e-16;-2.220446e-16;8.271015e-18;6.680777e-17;2.220446e-16;5.853676e-17;0.303169;0;0;0
-0.371137;1.275187;0.235001;8.39567e-13;0;0;8.39567e-13;-2.220446e-16;2.220446e-16;-2.988312e-19;0;0;0;0;2.220448e-16;-2.220448e-16;2.220448e-16;45;0;2.960597e-16;2.563953e-16;-2.220446e-16;2.101095e-17;-2.160861e-17;2.220446e-16;-4.261956e-17;0.235001;0;0;0
-0.303971;1.275187;0.405881;8.39567e-13;0;0;8.39567e-13;-3.330669e-16;2.220446e-16;-2.923819e-17;0;0;0;0;2.235804e-16;-3.346027e-16;2.790915e-16;45;0;3.72122e-16;3.24385e-16;-3.330669e-16;-4.776249e-17;-1.071388e-17;2.220446e-16;3.704861e-17;0.405881;-1.110223e-16;1.110223e-16;0
-0.236806;1.275187;0.492929;8.39567e-13;0;0;8.39567e-13;-2.220446e-16;2.220446e-16;-2.043991e-17;0;0;0;0;2.229834e-16;-2.229834e-16;2.229834e-16;45;0;2.973112e-16;2.574791e-16;-2.220446e-16;-3.075399e-17;-1.012584e-17;2.220446e-16;2.062814e-17;0.492929;0;0;0
-0.169641;1.275187;0.542472;8.39567e-13;0;0;8.39567e-13;0;-1.110223e-16;1.30821e-17;0;0;0;0;1.520675e-18;-1.12543e-16;5.703183e-17;45;0;7.604244e-17;7.554065e-17;0;2.616419e-17;0;-1.110223e-16;-2.616419e-17;0.542472;-1.110223e-16;1.110223e-16;0
-0.102475;1.275187;0.604343;8.39567e-13;0;0;8.39567e-13;-1.110223e-16;0;1.745837e-17;0;0;0;0;2.680622e-18;-1.137029e-16;5.819177e-17;45;0;7.758903e-17;7.67111e-17;-1.110223e-16;1.908086e-17;1.583588e-17;0;-3.244979e-18;0.604343;-1.110223e-16;1.110223e-16;0
-0.03531;1.275187;0.655018;8.39567e-13;0;0;8.39567e-13;-2.220446e-16;-1.110223e-16;2.782702e-17;0;0;0;0;-1.044381e-16;-2.286288e-16;6.209534e-17;45;0;8.279378e-17;1.32163e-16;-2.220446e-16;4.072356e-17;1.493048e-17;-1.110223e-16;-2.579308e-17;0.655018;-3.330669e-16;3.330669e-16;0
0.031855;1.275187;0.735398;8.39567e-13;0;0;8.39567e-13;2.220446e-16;0;-1.604059e-17;0;0;0;0;2.231974e-16;-1.152794e-18;1.121751e-16;45;0;1.495668e-16;1.49184e-16;2.220446e-16;-1.642561e-17;-1.565557e-17;0;7.700337e-19;0.735398;2.220446e-16;-2.220446e-16;0
0.099021;1.275187;0.778068;8.39567e-13;0;0;8.39567e-13;2.220446e-16;0;1.936231e-18;0;0;0;0;2.220615e-16;-1.688266e-20;1.110392e-16;45;0;1.480522e-16;1.480466e-16;2.220446e-16;4.102826e-17;-3.71558e-17;0;-7.818405e-17;0.778068;2.220446e-16;-2.220446e-16;0
0.166186;1.275187;0.796963;8.39567e-13;0;0;8.39567e-13;2.220446e-16;2.220446e-16;-2.323519e-17;0;0;0;0;2.452798e-16;1.988094e-16;2.323519e-17;45;0;3.098025e-17;1.504415e-16;2.220446e-16;-2.758606e-17;-1.888432e-17;2.220446e-16;8.701741e-18;0.796963;4.440892e-16;-4.440892e-16;0
0.233352;1.275187;0.827214;8.39567e-13;0;0;8.39567e-13;-1.110223e-16;-1.110223e-16;2.002863e-17;0;0;0;0;-9.099367e-17;-1.310509e-16;2.002863e-17;45;0;2.670484e-17;7.754393e-17;-1.110223e-16;1.287773e-17;2.717953e-17;-1.110223e-16;1.43018e-17;0.827214;-2.220446e-16;2.220446e-16;0
0.300517;1.275187;0.875197;8.39567e-13;0;0;8.39567e-13;0;0;1.362118e-17;0;0;0;0;1.362118e-17;-1.362118e-17;1.362118e-17;45;0;1.816158e-17;1.572839e-17;0;5.029159e-17;-2.304922e-17;0;-7.33408e-17;0.875197;0;0;0
0.367682;1.275187;0.907639;8.39567e-13;0;0;8.39567e-13;0;2.220446e-16;1.412721e-17;0;0;0;0;2.229398e-16;-8.9521e-19;1.119175e-16;45;0;1.492234e-16;1.489258e-16;0;1.397639e-17;1.427803e-17;2.220446e-16;3.016417e-19;0.907639;2.220446e-16;-2.220446e-16;0
0.434848;1.275187;0.93653;8.39567e-13;0;0;8.39567e-13;-1.110223e-16;2.220446e-16;1.429988e-17;0;0;0;0;2.226574e-16;-1.116351e-16;1.671463e-16;45;0;2.228617e-16;1.965198e-16;-1.110223e-16;3.052086e-18;2.554767e-17;2.220446e-16;2.249558e-17;0.93653;1.110223e-16;-1.110223e-16;0
0.502013;1.275187;0.918784;8.39567e-13;0;0;8.39567e-13;0;0;-2.844647e-17;0;0;0;0;2.844647e-17;-2.844647e-17;2.844647e-17;45;0;3.792863e-17;3.284716e-17;0;3.795748e-18;-6.06887e-17;0;-6.448445e-17;0.918784;0;0;0
0.569178;1.275187;0.889468;8.39567e-13;0;0;8.39567e-13;2.220446e-16;-1.110223e-16;-4.472611e-18;0;0;0;0;2.221047e-16;-1.110823e-16;1.665935e-16;45;0;2.221247e-16;1.95893e-16;2.220446e-16;-1.704479e-17;8.099564e-18;-1.110223e-16;2.514435e-17;0.889468;1.110223e-16;-1.110223e-16;0
0.636344;1.275187;0.903776;8.39567e-13;0;0;8.39567e-13;0;2.220446e-16;-2.790207e-18;0;0;0;0;2.220797e-16;-3.505613e-20;1.110574e-16;45;0;1.480765e-16;1.480648e-16;0;3.774893e-17;-4.332934e-17;2.220446e-16;-8.107827e-17;0.903776;2.220446e-16;-2.220446e-16;0
0.703509;1.275187;0.914405;8.39567e-13;0;0;8.39567e-13;0;2.220446e-16;3.184471e-17;0;0;0;0;2.265214e-16;-4.476777e-18;1.154991e-16;45;0;1.539988e-16;1.525284e-16;0;4.045937e-17;2.323006e-17;2.220446e-16;-1.722931e-17;0.914405;2.220446e-16;-2.220446e-16;0
0.770674;1.275187;0.907029;8.39567e-13;0;0;8.39567e-13;0;2.220446e-16;-2.146595e-17;0;0;0;0;2.241008e-16;-2.056161e-18;1.130785e-16;45;0;1.507713e-16;1.500906e-16;0;-5.913662e-18;-3.701824e-17;2.220446e-16;-3.110459e-17;0.907029;2.220446e-16;-2.220446e-16;0
0.83784;1.275187;0.896304;8.39567e-13;0;0;8.39567e-13;-1.110223e-16;-1.110223e-16;3.305818e-17;0;0;0;0;-7.796412e-17;-1.440805e-16;3.305818e-17;45;0;4.407758e-17;8.32786e-17;-1.110223e-16;3.057812e-17;3.553824e-17;-1.110223e-16;4.960125e-18;0.896304;-2.220446e-16;2.220446e-16;0
0.905005;1.275187;0.890029;8.39567e-13;0;0;8.39567e-13;2.220446e-16;2.220446e-16;-2.988687e-17;0;0;0;0;2.519315e-16;1.921577e-16;2.988687e-17;45;0;3.984916e-17;1.519992e-16;2.220446e-16;-4.460515e-17;-1.516859e-17;2.220446e-16;2.943655e-17;0.890029;4.440892e-16;-4.440892e-16;0
0.97217;1.275187;0.865499;8.39567e-13;0;0;8.39567e-13;0;-1.110223e-16;6.626103e-18;0;0;0;0;3.940645e-19;-1.114164e-16;5.590521e-17;45;0;7.454029e-17;7.440928e-17;0;3.567225e-18;9.684981e-18;-1.110223e-16;6.117756e-18;0.865499;-1.110223e-16;1.110223e-16;0
1.039336;1.275187;0.825593;8.39567e-13;0;0;8.39567e-13;0;0;5.831129e-17;0;0;0;0;5.831129e-17;-5.831129e-17;5.831129e-17;45;0;7.774838e-17;6.733207e-17;0;9.944203e-17;1.718054e-17;0;-8.226148e-17;0.825593;0;0;0
1.106501;1.275187;0.779485;8.39567e-13;0;0;8.39567e-13;0;0;4.742566e-17;0;0;0;0;4.742566e-17;-4.742566e-17;4.742566e-17;45;0;6.323421e-17;5.476243e-17;0;9.485132e-17;0;0;-9.485132e-17;0.779485;0;0;0
1.173667;1.275187;0.749938;8.39567e-13;0;0;8.39567e-13;0;2.220446e-16;4.088796e-18;0;0;0;0;2.221199e-16;-7.526681e-20;1.110976e-16;45;0;1.481301e-16;1.48105e-16;0;-9.037616e-18;1.721521e-17;2.220446e-16;2.625282e-17;0.749938;2.220446e-16;-2.220446e-16;0
1.240832;1.275187;0.708879;8.39567e-13;0;0;8.39567e-13;2.220446e-16;-3.330669e-16;2.739108e-17;0;0;0;0;2.233929e-16;-3.344152e-16;2.78904e-16;45;0;3.718721e-16;3.2417e-16;2.220446e-16;4.782359e-17;6.958568e-18;-3.330669e-16;-4.086502e-17;0.708879;-1.110223e-16;1.110223e-16;0
1.307997;1.275187;0.604811;8.39567e-13;0;0;8.39567e-13;2.220446e-16;0;4.306804e-17;0;0;0;0;2.301055e-16;-8.060892e-18;1.190832e-16;45;0;1.587776e-16;1.5616e-16;2.220446e-16;4.284291e-17;4.329316e-17;0;4.50255e-19;0.604811;2.220446e-16;-2.220446e-16;0
1.375163;1.275187;0.54206;8.39567e-13;0;0;8.39567e-13;-2.220446e-16;0;-5.704293e-17;0;0;0;0;1.379696e-17;-2.358416e-16;1.248193e-16;45;0;1.664257e-16;1.620226e-16;-2.220446e-16;-9.856145e-17;-1.552441e-17;0;8.303704e-17;0.54206;-2.220446e-16;2.220446e-16;0
1.442328;1.275187;0.434007;8.39567e-13;0;0;8.39567e-13;-3.330669e-16;-1.110223e-16;7.373879e-17;0;0;0;0;-8.876535e-17;-3.553239e-16;1.332793e-16;45;0;1.777057e-16;2.135352e-16;-3.330669e-16;1.315928e-16;1.588474e-17;-1.110223e-16;-1.157081e-16;0.434007;-4.440892e-16;4.440892e-16;0
1.509493;1.275187;0.309671;8.39567e-13;0;0;8.39567e-13;0;-3.330669e-16;3.975767e-17;0;0;0;0;4.680049e-18;-3.377469e-16;1.712135e-16;45;0;2.282847e-16;2.267408e-16;0;2.452186e-17;5.499348e-17;-3.330669e-16;3.047161e-17;0.309671;-3.330669e-16;3.330669e-16;0
-0.371137;1.208022;0.237029;8.39567e-13;0;0;8.39567e-13;4.440892e-16;2.220446e-16;-9.203907e-18;0;0;0;0;4.444701e-16;2.216637e-16;1.114032e-16;45;0;1.485375e-16;2.566152e-16;4.440892e-16;3.789444e-18;-2.219726e-17;2.220446e-16;-2.59867e-17;0.237029;6.661338e-16;-6.661338e-16;0
-0.303971;1.208022;0.409903;8.39567e-13;0;0;8.39567e-13;-1.110223e-16;2.220446e-16;3.010437e-17;0;0;0;0;2.247437e-16;-1.137214e-16;1.692326e-16;45;0;2.256434e-16;1.988863e-16;-1.110223e-16;6.020874e-17;0;2.220446e-16;-6.020874e-17;0.409903;1.110223e-16;-1.110223e-16;0
-0.236806;1.208022;0.485624;8.39567e-13;0;0;8.39567e-13;-2.220446e-16;0;3.260979e-17;0;0;0;0;4.690057e-18;-2.267347e-16;1.157124e-16;45;0;1.542831e-16;1.527438e-16;-2.220446e-16;5.866907e-17;6.55051e-18;0;-5.211856e-17;0.485624;-2.220446e-16;2.220446e-16;0
-0.169641;1.208022;0.564992;8.39567e-13;0;0;8.39567e-13;0;0;1.419913e-17;0;0;0;0;1.419913e-17;-1.419913e-17;1.419913e-17;45;0;1.893217e-17;1.639574e-17;0;5.788317e-17;-2.948491e-17;0;-8.736807e-17;0.564992;0;0;0
-0.102475;1.208022;0.609475;8.39567e-13;0;0;8.39567e-13;0;-1.110223e-16;-1.862759e-17;0;0;0;0;3.042031e-18;-1.140643e-16;5.855318e-17;45;0;7.807091e-17;7.707691e-17;0;-2.037712e-17;-1.687807e-17;-1.110223e-16;3.499052e-18;0.609475;-1.110223e-16;1.110223e-16;0
-0.03531;1.208022;0.647281;8.39567e-13;0;0;8.39567e-13;2.220446e-16;2.220446e-16;1.381961e-17;0;0;0;0;2.358642e-16;2.08225e-16;1.381961e-17;45;0;1.842615e-17;1.488874e-16;2.220446e-16;8.388382e-18;1.925084e-17;2.220446e-16;1.086246e-17;0.647281;4.440892e-16;-4.440892e-16;0
0.031855;1.208022;0.721149;8.39567e-13;0;0;8.39567e-13;0;0;-2.272708e-17;0;0;0;0;2.272708e-17;-2.272708e-17;2.272708e-17;45;0;3.030278e-17;2.624297e-17;0;-2.290273e-17;-2.255144e-17;0;3.512847e-19;0.721149;0;0;0
0.099021;1.208022;0.761377;8.39567e-13;0;0;8.39567e-13;-1.110223e-16;0;3.137378e-17;0;0;0;0;8.252487e-18;-1.192748e-16;6.376364e-17;45;0;8.501819e-17;8.240521e-17;-1.110223e-16;4.87738e-17;1.397375e-17;0;-3.480006e-17;0.761377;-1.110223e-16;1.110223e-16;0
0.166186;1.208022;0.784444;8.39567e-13;0;0;8.39567e-13;0;-1.110223e-16;2.076537e-18;0;0;0;0;3.882553e-20;-1.110611e-16;5.554998e-17;45;0;7.406664e-17;7.40537e-17;0;2.969541e-18;1.183533e-18;-1.110223e-16;-1.786008e-18;0.784444;-1.110223e-16;1.110223e-16;0
0.233352;1.208022;0.82126;8.39567e-13;0;0;8.39567e-13;0;2.220446e-16;2.4173e-17;0;0;0;0;2.246457e-16;-2.601136e-18;1.136234e-16;45;0;1.514979e-16;1.506384e-16;0;2.467464e-17;2.367137e-17;2.220446e-16;-1.003265e-18;0.82126;2.220446e-16;-2.220446e-16;0
0.300517;1.208022;0.873399;8.39567e-13;0;0;8.39567e-13;2.220446e-16;2.220446e-16;-1.692909e-17;0;0;0;0;2.389737e-16;2.051155e-16;1.692909e-17;45;0;2.257212e-17;1.493149e-16;2.220446e-16;-3.834349e-17;4.48531e-18;2.220446e-16;4.28288e-17;0.873399;4.440892e-16;-4.440892e-16;0
0.367682;1.208022;0.902505;8.39567e-13;0;0;8.39567e-13;-3.330669e-16;2.220446e-16;-6.33954e-18;0;0;0;0;2.22117e-16;-3.331393e-16;2.776282e-16;45;0;3.701709e-16;3.227064e-16;-3.330669e-16;1.277743e-17;-2.545651e-17;2.220446e-16;-3.823394e-17;0.902505;-1.110223e-16;1.110223e-16;0
0.434848;1.208022;0.887008;8.39567e-13;0;0;8.39567e-13;-1.110223e-16;2.220446e-16;-2.51329e-17;0;0;0;0;2.239304e-16;-1.129081e-16;1.684193e-16;45;0;2.24559e-16;1.979637e-16;-1.110223e-16;-2.959781e-17;-2.066799e-17;2.220446e-16;8.929822e-18;0.887008;1.110223e-16;-1.110223e-16;0
0.502013;1.208022;0.890016;8.39567e-13;0;0;8.39567e-13;0;-1.110223e-16;-9.366962e-18;0;0;0;0;7.847445e-19;-1.118071e-16;5.629589e-17;45;0;7.506119e-17;7.480098e-17;0;-3.154529e-17;1.281137e-17;-1.110223e-16;4.435666e-17;0.890016;-1.110223e-16;1.110223e-16;0
0.569178;1.208022;0.908476;8.39567e-13;0;0;8.39567e-13;0;2.220446e-16;3.100852e-18;0;0;0;0;2.220879e-16;-4.329495e-20;1.110656e-16;45;0;1.480875e-16;1.48073e-16;0;-1.429665e-17;2.049835e-17;2.220446e-16;3.4795e-17;0.908476;2.220446e-16;-2.220446e-16;0
0.636344;1.208022;0.911307;8.39567e-13;0;0;8.39567e-13;2.220446e-16;0;-5.837111e-17;0;0;0;0;2.364541e-16;-1.44095e-17;1.254318e-16;45;0;1.672424e-16;1.626521e-16;2.220446e-16;-7.568128e-17;-4.106094e-17;0;3.462033e-17;0.911307;2.220446e-16;-2.220446e-16;0
0.703509;1.208022;0.924245;8.39567e-13;0;0;8.39567e-13;-3.330669e-16;2.220446e-16;-1.259873e-17;0;0;0;0;2.223304e-16;-3.333527e-16;2.778416e-16;45;0;3.704554e-16;3.229512e-16;-3.330669e-16;-2.971525e-17;4.517792e-18;2.220446e-16;3.423305e-17;0.924245;-1.110223e-16;1.110223e-16;0
0.770674;1.208022;0.909332;8.39567e-13;0;0;8.39567e-13;2.220446e-16;0;-1.215794e-17;0;0;0;0;2.227083e-16;-6.637182e-19;1.11686e-16;45;0;1.489147e-16;1.486939e-16;2.220446e-16;-8.894391e-18;-1.542149e-17;0;-6.527103e-18;0.909332;2.220446e-16;-2.220446e-16;0
0.83784;1.208022;0.911208;8.39567e-13;0;0;8.39567e-13;-1.110223e-16;0;5.451711e-18;0;0;0;0;2.670619e-19;-1.112894e-16;5.577821e-17;45;0;7.437095e-17;7.428209e-17;-1.110223e-16;8.356623e-18;2.546799e-18;0;-5.809825e-18;0.911208;-1.110223e-16;1.110223e-16;0
0.905005;1.208022;0.887891;8.39567e-13;0;0;8.39567e-13;-1.110223e-16;-1.110223e-16;-2.012012e-17;0;0;0;0;-9.090219e-17;-1.311424e-16;2.012012e-17;45;0;2.682683e-17;7.757551e-17;-1.110223e-16;-1.51634e-17;-2.507684e-17;-1.110223e-16;-9.91344e-18;0.887891;-2.220446e-16;2.220446e-16;0
0.97217;1.208022;0.881473;8.39567e-13;0;0;8.39567e-13;0;-1.110223e-16;-2.405192e-17;0;0;0;0;4.986639e-18;-1.160089e-16;6.049779e-17;45;0;8.066372e-17;7.905395e-17;0;-7.585364e-18;-4.051847e-17;-1.110223e-16;-3.293311e-17;0.881473;-1.110223e-16;1.110223e-16;0
1.039336;1.208022;0.87245;8.39567e-13;0;0;8.39567e-13;0;2.220446e-16;-5.15376e-18;0;0;0;0;2.221642e-16;-1.195568e-19;1.111419e-16;45;0;1.481891e-16;1.481493e-16;0;-1.030752e-17;0;2.220446e-16;1.030752e-17;0.87245;2.220446e-16;-2.220446e-16;0
1.106501;1.208022;0.805024;8.39567e-13;0;0;8.39567e-13;-1.110223e-16;2.220446e-16;-1.831737e-17;0;0;0;0;2.230489e-16;-1.120267e-16;1.675378e-16;45;0;2.233837e-16;1.969639e-16;-1.110223e-16;-5.848444e-18;-3.078629e-17;2.220446e-16;-2.493785e-17;0.805024;1.110223e-16;-1.110223e-16;0
1.173667;1.208022;0.743504;8.39567e-13;0;0;8.39567e-13;-1.110223e-16;0;1.857532e-17;0;0;0;0;3.025421e-18;-1.140477e-16;5.853657e-17;45;0;7.804877e-17;7.706009e-17;-1.110223e-16;9.234492e-18;2.791614e-17;0;1.868165e-17;0.743504;-1.110223e-16;1.110223e-16;0
1.240832;1.208022;0.681376;8.39567e-13;0;0;8.39567e-13;0;0;1.523644e-17;0;0;0;0;1.523644e-17;-1.523644e-17;1.523644e-17;45;0;2.031526e-17;1.759353e-17;0;6.771085e-17;-3.723796e-17;0;-1.049488e-16;0.681376;0;0;0
1.307997;1.208022;0.617223;8.39567e-13;0;0;8.39567e-13;-1.110223e-16;-1.110223e-16;2.811034e-17;0;0;0;0;-8.291197e-17;-1.391326e-16;2.811034e-17;45;0;3.748045e-17;8.081948e-17;-1.110223e-16;2.458341e-17;3.163727e-17;-1.110223e-16;7.053861e-18;0.617223;-2.220446e-16;2.220446e-16;0
1.375163;1.208022;0.541845;8.39567e-13;0;0;8.39567e-13;2.220446e-16;2.220446e-16;-3.701471e-17;0;0;0;0;2.590593e-16;1.850299e-16;3.701471e-17;45;0;4.935294e-17;1.540766e-16;2.220446e-16;-1.713085e-17;-5.689856e-17;2.220446e-16;-3.976771e-17;0.541845;4.440892e-16;-4.440892e-16;0
1.442328;1.208022;0.440606;8.39567e-13;0;0;8.39567e-13;0;2.220446e-16;-5.479117e-17;0;0;0;0;2.348287e-16;-1.27841e-17;1.238064e-16;45;0;1.650752e-16;1.609831e-16;0;-7.498319e-17;-3.459916e-17;2.220446e-16;4.038403e-17;0.440606;2.220446e-16;-2.220446e-16;0
1.509493;1.208022;0.346399;8.39567e-13;0;0;8.39567e-13;-1.110223e-16;2.220446e-16;1.372665e-17;0;0;0;0;2.226094e-16;-1.115871e-16;1.670982e-16;45;0;2.227976e-16;1.964653e-16;-1.110223e-16;5.863686e-17;-3.118357e-17;2.220446e-16;-8.982043e-17;0.346399;1.110223e-16;-1.110223e-16;0
-0.371137;1.140856;0.210633;8.39567e-13;0;0;8.39567e-13;4.440892e-16;0;-1.067317e-16;0;0;0;0;4.684091e-16;-2.431987e-17;2.463645e-16;45;0;3.28486e-16;3.206869e-16;4.440892e-16;-1.472676e-16;-6.619576e-17;0;8.107179e-17;0.210633;4.440892e-16;-4.440892e-16;0
-0.303971;1.140856;0.364075;8.39567e-13;0;0;8.39567e-13;2.220446e-16;2.220446e-16;-8.344715e-17;0;0;0;0;3.054917e-16;1.385974e-16;8.344715e-17;45;0;1.112629e-16;1.766278e-16;2.220446e-16;-1.477407e-16;-1.915363e-17;2.220446e-16;1.28587e-16;0.364075;4.440892e-16;-4.440892e-16;0
-0.236806;1.140856;0.469454;8.39567e-13;0;0;8.39567e-13;0;-1.110223e-16;-8.193917e-17;0;0;0;0;4.346115e-17;-1.544835e-16;9.89723e-17;45;0;1.319631e-16;1.201259e-16;0;-1.697276e-16;5.84922e-18;-1.110223e-16;1.755768e-16;0.469454;-1.110223e-16;1.110223e-16;0
-0.169641;1.140856;0.564978;8.39567e-13;0;0;8.39567e-13;0;0;1.653812e-18;0;0;0;0;1.653812e-18;-1.653812e-18;1.653812e-18;45;0;2.205083e-18;1.909658e-18;0;-2.323446e-17;2.654209e-17;0;4.977655e-17;0.564978;0;0;0
-0.102475;1.140856;0.624729;8.39567e-13;0;0;8.39567e-13;2.220446e-16;2.220446e-16;-3.825007e-17;0;0;0;0;2.602947e-16;1.837945e-16;3.825007e-17;45;0;5.100009e-17;1.544783e-16;2.220446e-16;-4.301139e-17;-3.348874e-17;2.220446e-16;9.522642e-18;0.624729;4.440892e-16;-4.440892e-16;0
-0.03531;1.140856;0.667916;8.39567e-13;0;0;8.39567e-13;-2.220446e-16;0;-2.652748e-17;0;0;0;0;3.125229e-18;-2.251698e-16;1.141475e-16;45;0;1.521967e-16;1.511657e-16;-2.220446e-16;-5.305497e-17;0;0;5.305497e-17;0.667916;-2.220446e-16;2.220446e-16;0
0.031855;1.140856;0.732508;8.39567e-13;0;0;8.39567e-13;2.220446e-16;-1.110223e-16;-1.596901e-17;0;0;0;0;2.228085e-16;-1.117862e-16;1.672973e-16;45;0;2.230631e-16;1.966912e-16;2.220446e-16;-4.870162e-19;-3.1451e-17;-1.110223e-16;-3.096398e-17;0.732508;1.110223e-16;-1.110223e-16;0
0.099021;1.140856;0.7688;8.39567e-13;0;0;8.39567e-13;-1.110223e-16;0;-1.620807e-17;0;0;0;0;2.317816e-18;-1.133401e-16;5.782897e-17;45;0;7.710529e-17;7.634442e-17;-1.110223e-16;-1.41594e-17;-1.825674e-17;0;-4.097346e-18;0.7688;-1.110223e-16;1.110223e-16;0
0.166186;1.140856;0.7986;8.39567e-13;0;0;8.39567e-13;0;2.220446e-16;2.248454e-17;0;0;0;0;2.242985e-16;-2.253937e-18;1.132762e-16;45;0;1.51035e-16;1.502893e-16;0;1.630589e-17;2.86632e-17;2.220446e-16;1.235731e-17;0.7986;2.220446e-16;-2.220446e-16;0
0.233352;1.140856;0.828021;8.39567e-13;0;0;8.39567e-13;-1.110223e-16;2.220446e-16;7.241989e-18;0;0;0;0;2.22202e-16;-1.111797e-16;1.666908e-16;45;0;2.222545e-16;1.960034e-16;-1.110223e-16;1.913564e-17;-4.651663e-18;2.220446e-16;-2.378731e-17;0.828021;1.110223e-16;-1.110223e-16;0
0.300517;1.140856;0.864861;8.39567e-13;0;0;8.39567e-13;0;2.220446e-16;-1.014626e-17;0;0;0;0;2.225073e-16;-4.626663e-19;1.11485e-16;45;0;1.486466e-16;1.484926e-16;0;5.235898e-18;-2.552842e-17;2.220446e-16;-3.076432e-17;0.864861;2.220446e-16;-2.220446e-16;0
0.367682;1.140856;0.884855;8.39567e-13;0;0;8.39567e-13;-1.110223e-16;0;-2.306382e-17;0;0;0;0;4.600643e-18;-1.156229e-16;6.01118e-17;45;0;8.014906e-17;7.866037e-17;-1.110223e-16;-4.064657e-17;-5.481077e-18;0;3.516549e-17;0.884855;-1.110223e-16;1.110223e-16;0
0.434848;1.140856;0.862428;8.39567e-13;0;0;8.39567e-13;0;-1.110223e-16;3.947097e-17;0;0;0;0;1.260233e-17;-1.236246e-16;6.811348e-17;45;0;9.081797e-17;8.692225e-17;0;1.52102e-17;6.373174e-17;-1.110223e-16;4.852154e-17;0.862428;-1.110223e-16;1.110223e-16;0
0.502013;1.140856;0.892128;8.39567e-13;0;0;8.39567e-13;-1.110223e-16;-3.330669e-16;4.250312e-18;0;0;0;0;-1.10941e-16;-3.331482e-16;1.111036e-16;45;0;1.481382e-16;1.958864e-16;-1.110223e-16;-2.20814e-17;3.058203e-17;-3.330669e-16;5.266343e-17;0.892128;-4.440892e-16;4.440892e-16;0
0.569178;1.140856;0.927339;8.39567e-13;0;0;8.39567e-13;0;2.220446e-16;2.600681e-17;0;0;0;0;2.2505e-16;-3.005351e-18;1.140277e-16;45;0;1.520369e-16;1.510451e-16;0;6.240986e-17;-1.039625e-17;2.220446e-16;-7.280611e-17;0.927339;2.220446e-16;-2.220446e-16;0
0.636344;1.140856;0.928503;8.39567e-13;0;0;8.39567e-13;2.220446e-16;0;2.104567e-17;0;0;0;0;2.240217e-16;-1.977131e-18;1.129994e-16;45;0;1.506659e-16;1.500112e-16;2.220446e-16;2.757778e-17;1.451357e-17;0;-1.306421e-17;0.928503;2.220446e-16;-2.220446e-16;0
0.703509;1.140856;0.929577;8.39567e-13;0;0;8.39567e-13;2.220446e-16;0;2.348996e-17;0;0;0;0;2.245024e-16;-2.457783e-18;1.134801e-16;45;0;1.513068e-16;1.504942e-16;2.220446e-16;-3.010164e-18;4.999008e-17;0;5.300025e-17;0.929577;2.220446e-16;-2.220446e-16;0
0.770674;1.140856;0.914733;8.39567e-13;0;0;8.39567e-13;2.220446e-16;-1.110223e-16;-1.431525e-17;0;0;0;0;2.226588e-16;-1.116364e-16;1.671476e-16;45;0;2.228634e-16;1.965213e-16;2.220446e-16;-2.709803e-17;-1.532471e-18;-1.110223e-16;2.556556e-17;0.914733;1.110223e-16;-1.110223e-16;0
0.83784;1.140856;0.921977;8.39567e-13;0;0;8.39567e-13;2.220446e-16;-1.110223e-16;4.814307e-18;0;0;0;0;2.221142e-16;-1.110919e-16;1.66603e-16;45;0;2.221374e-16;1.959038e-16;2.220446e-16;7.736509e-19;8.854962e-18;-1.110223e-16;8.081311e-18;0.921977;1.110223e-16;-1.110223e-16;0
0.905005;1.140856;0.886523;8.39567e-13;0;0;8.39567e-13;2.220446e-16;2.220446e-16;6.227259e-18;0;0;0;0;2.282719e-16;2.158174e-16;6.227259e-18;45;0;8.303012e-18;1.482043e-16;2.220446e-16;1.921117e-17;-6.756656e-18;2.220446e-16;-2.596783e-17;0.886523;4.440892e-16;-4.440892e-16;0
0.97217;1.140856;0.880027;8.39567e-13;0;0;8.39567e-13;-1.110223e-16;-1.110223e-16;-4.705104e-17;0;0;0;0;-6.397126e-17;-1.580733e-16;4.705104e-17;45;0;6.273472e-17;9.181468e-17;-1.110223e-16;-7.370036e-17;-2.040172e-17;-1.110223e-16;5.329864e-17;0.880027;-2.220446e-16;2.220446e-16;0
1.039336;1.140856;0.872;8.39567e-13;0;0;8.39567e-13;2.220446e-16;-1.110223e-16;2.707983e-17;0;0;0;0;2.24232e-16;-1.132096e-16;1.687208e-16;45;0;2.249611e-16;1.983057e-16;2.220446e-16;3.700347e-17;1.715619e-17;-1.110223e-16;-1.984729e-17;0.872;1.110223e-16;-1.110223e-16;0
1.106501;1.140856;0.796055;8.39567e-13;0;0;8.39567e-13;2.220446e-16;2.220446e-16;4.941579e-17;0;0;0;0;2.714604e-16;1.726288e-16;4.941579e-17;45;0;6.588772e-17;1.586465e-16;2.220446e-16;8.370974e-17;1.512184e-17;2.220446e-16;-6.85879e-17;0.796055;4.440892e-16;-4.440892e-16;0
1.173667;1.140856;0.740961;8.39567e-13;0;0;8.39567e-13;2.220446e-16;-1.110223e-16;-1.956294e-17;0;0;0;0;2.231897e-16;-1.121674e-16;1.676786e-16;45;0;2.235714e-16;1.971235e-16;2.220446e-16;-1.160532e-17;-2.752056e-17;-1.110223e-16;-1.591524e-17;0.740961;1.110223e-16;-1.110223e-16;0
1.240832;1.140856;0.681199;8.39567e-13;0;0;8.39567e-13;0;-1.110223e-16;5.146999e-17;0;0;0;0;2.018989e-17;-1.312122e-16;7.570104e-17;45;0;1.009347e-16;9.49232e-17;0;5.247618e-17;5.04638e-17;-1.110223e-16;-2.012383e-18;0.681199;-1.110223e-16;1.110223e-16;0
1.307997;1.140856;0.62916;8.39567e-13;0;0;8.39567e-13;-3.330669e-16;-1.110223e-16;7.165315e-18;0;0;0;0;-1.107913e-16;-3.332979e-16;1.112533e-16;45;0;1.483377e-16;1.959996e-16;-3.330669e-16;1.372742e-19;1.419336e-17;-1.110223e-16;1.405608e-17;0.62916;-4.440892e-16;4.440892e-16;0
1.375163;1.140856;0.551663;8.39567e-13;0;0;8.39567e-13;0;0;2.21972e-17;0;0;0;0;2.21972e-17;-2.21972e-17;2.21972e-17;45;0;2.959626e-17;2.563112e-17;0;4.767088e-17;-3.276483e-18;0;-5.094736e-17;0.551663;0;0;0
1.442328;1.140856;0.468177;8.39567e-13;0;0;8.39567e-13;0;4.440892e-16;-3.792884e-18;0;0;0;0;4.441216e-16;-3.239196e-20;2.22077e-16;45;0;2.961027e-16;2.960919e-16;0;3.151941e-17;-3.910518e-17;4.440892e-16;-7.062459e-17;0.468177;4.440892e-16;-4.440892e-16;0
1.509493;1.140856;0.395668;8.39567e-13;0;0;8.39567e-13;-1.110223e-16;-3.330669e-16;7.77283e-17;0;0;0;0;-8.651733e-17;-3.575719e-16;1.355273e-16;45;0;1.80703e-16;2.154135e-16;-1.110223e-16;5.388595e-17;1.015707e-16;-3.330669e-16;4.768471e-17;0.395668;-4.440892e-16;4.440892e-16;0
-0.371137;1.073691;0.234482;8.39567e-13;0;0;8.39567e-13;0;-2.220446e-16;9.143682e-18;0;0;0;0;3.758957e-19;-2.224205e-16;1.113982e-16;45;0;1.485309e-16;1.484058e-16;0;-4.789356e-17;6.618093e-17;-2.220446e-16;1.140745e-16;0.234482;-2.220446e-16;2.220446e-16;0
-0.303971;1.073691;0.355594;8.39567e-13;0;0;8.39567e-13;-1.110223e-16;2.220446e-16;-2.262355e-17;0;0;0;0;2.235743e-16;-1.12552e-16;1.680631e-16;45;0;2.240842e-16;1.975597e-16;-1.110223e-16;-6.588768e-17;2.064058e-17;2.220446e-16;8.652826e-17;0.355594;1.110223e-16;-1.110223e-16;0
-0.236806;1.073691;0.467807;8.39567e-13;0;0;8.39567e-13;0;-1.110223e-16;-1.066944e-17;0;0;0;0;1.016054e-18;-1.120384e-16;5.652721e-17;45;0;7.536961e-17;7.503322e-17;0;-7.290863e-18;-1.404802e-17;-1.110223e-16;-6.757158e-18;0.467807;-1.110223e-16;1.110223e-16;0
-0.169641;1.073691;0.56981;8.39567e-13;0;0;8.39567e-13;2.220446e-16;2.220446e-16;-2.974371e-18;0;0;0;0;2.25019e-16;2.190702e-16;2.974371e-18;45;0;3.965828e-18;1.480696e-16;2.220446e-16;1.393908e-17;-1.988782e-17;2.220446e-16;-3.382691e-17;0.56981;4.440892e-16;-4.440892e-16;0
-0.102475;1.073691;0.626435;8.39567e-13;0;0;8.39567e-13;2.220446e-16;0;-5.617315e-18;0;0;0;0;2.221866e-16;-1.420168e-19;1.111643e-16;45;0;1.482191e-16;1.481718e-16;2.220446e-16;-4.840236e-18;-6.394394e-18;0;-1.554158e-18;0.626435;2.220446e-16;-2.220446e-16;0
-0.03531;1.073691;0.661083;8.39567e-13;0;0;8.39567e-13;2.220446e-16;-1.110223e-16;2.991768e-19;0;0;0;0;2.220449e-16;-1.110226e-16;1.665337e-16;45;0;2.22045e-16;1.958252e-16;2.220446e-16;5.983537e-19;0;-1.110223e-16;-5.983537e-19;0.661083;1.110223e-16;-1.110223e-16;0
0.031855;1.073691;0.741936;8.39567e-13;0;0;8.39567e-13;0;2.220446e-16;1.212681e-17;0;0;0;0;2.227049e-16;-6.603339e-19;1.116826e-16;45;0;1.489102e-16;1.486906e-16;0;2.139703e-18;2.211392e-17;2.220446e-16;1.997422e-17;0.741936;2.220446e-16;-2.220446e-16;0
0.099021;1.073691;0.795766;8.39567e-13;0;0;8.39567e-13;2.220446e-16;-1.110223e-16;1.35341e-18;0;0;0;0;2.220501e-16;-1.110278e-16;1.66539e-16;45;0;2.220519e-16;1.958312e-16;2.220446e-16;-1.480517e-17;1.751199e-17;-1.110223e-16;3.231717e-17;0.795766;1.110223e-16;-1.110223e-16;0
0.166186;1.073691;0.824055;8.39567e-13;0;0;8.39567e-13;0;-1.110223e-16;2.354794e-17;0;0;0;0;4.788046e-18;-1.158104e-16;6.02992e-17;45;0;8.039893e-17;7.885139e-17;0;3.730306e-17;9.792817e-18;-1.110223e-16;-2.751024e-17;0.824055;-1.110223e-16;1.110223e-16;0
0.233352;1.073691;0.830005;8.39567e-13;0;0;8.39567e-13;-1.110223e-16;-1.110223e-16;3.970146e-18;0;0;0;0;-1.070522e-16;-1.149925e-16;3.970146e-18;45;0;5.293528e-18;7.41567e-17;-1.110223e-16;-1.904242e-18;9.844535e-18;-1.110223e-16;1.174878e-17;0.830005;-2.220446e-16;2.220446e-16;0
0.300517;1.073691;0.857464;8.39567e-13;0;0;8.39567e-13;2.220446e-16;-1.110223e-16;4.620305e-18;0;0;0;0;2.221087e-16;-1.110864e-16;1.665975e-16;45;0;2.2213e-16;1.958976e-16;2.220446e-16;3.240722e-17;-2.316661e-17;-1.110223e-16;-5.557383e-17;0.857464;1.110223e-16;-1.110223e-16;0
0.367682;1.073691;0.898819;8.39567e-13;0;0;8.39567e-13;0;-1.110223e-16;1.901561e-19;0;0;0;0;3.256934e-22;-1.110226e-16;5.551148e-17;45;0;7.40153e-17;7.401519e-17;0;1.054145e-17;-1.016114e-17;-1.110223e-16;-2.070259e-17;0.898819;-1.110223e-16;1.110223e-16;0
0.434848;1.073691;0.883242;8.39567e-13;0;0;8.39567e-13;-1.110223e-16;2.220446e-16;-1.793123e-17;0;0;0;0;2.230072e-16;-1.119849e-16;1.67496e-16;45;0;2.23328e-16;1.969165e-16;-1.110223e-16;-1.197855e-17;-2.388392e-17;2.220446e-16;-1.190536e-17;0.883242;1.110223e-16;-1.110223e-16;0
0.502013;1.073691;0.892318;8.39567e-13;0;0;8.39567e-13;2.220446e-16;2.220446e-16;2.486167e-17;0;0;0;0;2.469063e-16;1.971829e-16;2.486167e-17;45;0;3.31489e-17;1.507877e-16;2.220446e-16;3.203702e-17;1.768633e-17;2.220446e-16;-1.435069e-17;0.892318;4.440892e-16;-4.440892e-16;0
0.569178;1.073691;0.906453;8.39567e-13;0;0;8.39567e-13;-1.110223e-16;-1.110223e-16;1.959112e-17;0;0;0;0;-9.143118e-17;-1.306134e-16;1.959112e-17;45;0;2.61215e-17;7.739477e-17;-1.110223e-16;3.563397e-18;3.561885e-17;-1.110223e-16;3.205545e-17;0.906453;-2.220446e-16;2.220446e-16;0
0.636344;1.073691;0.908835;8.39567e-13;0;0;8.39567e-13;0;-3.330669e-16;2.400051e-17;0;0;0;0;1.720567e-18;-3.347875e-16;1.68254e-16;45;0;2.243387e-16;2.237674e-16;0;6.382009e-18;4.1619e-17;-3.330669e-16;3.523699e-17;0.908835;-3.330669e-16;3.330669e-16;0
0.703509;1.073691;0.910025;8.39567e-13;0;0;8.39567e-13;0;0;3.060564e-17;0;0;0;0;3.060564e-17;-3.060564e-17;3.060564e-17;45;0;4.080751e-17;3.534035e-17;0;4.187044e-17;1.934083e-17;0;-2.252962e-17;0.910025;0;0;0
0.770674;1.073691;0.915115;8.39567e-13;0;0;8.39567e-13;0;-1.110223e-16;-1.853922e-17;0;0;0;0;3.013977e-18;-1.140363e-16;5.852513e-17;45;0;7.803351e-17;7.70485e-17;0;-2.771033e-17;-9.368113e-18;-1.110223e-16;1.834221e-17;0.915115;-1.110223e-16;1.110223e-16;0
0.83784;1.073691;0.920709;8.39567e-13;0;0;8.39567e-13;0;0;3.803699e-17;0;0;0;0;3.803699e-17;-3.803699e-17;3.803699e-17;45;0;5.071599e-17;4.392133e-17;0;3.032484e-17;4.574914e-17;0;1.542429e-17;0.920709;0;0;0
0.905005;1.073691;0.889104;8.39567e-13;0;0;8.39567e-13;2.220446e-16;-1.110223e-16;9.748406e-18;0;0;0;0;2.223297e-16;-1.113074e-16;1.668185e-16;45;0;2.224247e-16;1.961482e-16;2.220446e-16;9.838755e-18;9.658057e-18;-1.110223e-16;-1.806977e-19;0.889104;1.110223e-16;-1.110223e-16;0
0.97217;1.073691;0.863019;8.39567e-13;0;0;8.39567e-13;0;-1.110223e-16;3.777456e-17;0;0;0;0;1.163351e-17;-1.226558e-16;6.714466e-17;45;0;8.952621e-17;8.591134e-17;0;2.571884e-17;4.983028e-17;-1.110223e-16;2.411144e-17;0.863019;-1.110223e-16;1.110223e-16;0
1.039336;1.073691;0.845695;8.39567e-13;0;0;8.39567e-13;-1.110223e-16;2.220446e-16;7.989707e-18;0;0;0;0;2.222362e-16;-1.112139e-16;1.66725e-16;45;0;2.223e-16;1.960421e-16;-1.110223e-16;-1.078572e-17;2.676514e-17;2.220446e-16;3.755086e-17;0.845695;1.110223e-16;-1.110223e-16;0
1.106501;1.073691;0.787183;8.39567e-13;0;0;8.39567e-13;0;2.220446e-16;-8.38316e-18;0;0;0;0;2.223607e-16;-3.160513e-19;1.113384e-16;45;0;1.484511e-16;1.483459e-16;0;-4.64447e-19;-1.630187e-17;2.220446e-16;-1.583743e-17;0.787183;2.220446e-16;-2.220446e-16;0
1.173667;1.073691;0.744614;8.39567e-13;0;0;8.39567e-13;4.440892e-16;2.220446e-16;-1.209429e-17;0;0;0;0;4.44746e-16;2.213878e-16;1.116791e-16;45;0;1.489055e-16;2.567751e-16;4.440892e-16;-1.593717e-17;-8.25141e-18;2.220446e-16;7.685761e-18;0.744614;6.661338e-16;-6.661338e-16;0
1.240832;1.073691;0.683836;8.39567e-13;0;0;8.39567e-13;-1.110223e-16;-3.330669e-16;2.604409e-17;0;0;0;0;-1.080084e-16;-3.360808e-16;1.140362e-16;45;0;1.520482e-16;1.981207e-16;-1.110223e-16;1.920071e-18;5.01681e-17;-3.330669e-16;4.824803e-17;0.683836;-4.440892e-16;4.440892e-16;0
1.307997;1.073691;0.599626;8.39567e-13;0;0;8.39567e-13;2.220446e-16;2.220446e-16;3.644265e-17;0;0;0;0;2.584872e-16;1.85602e-16;3.644265e-17;45;0;4.859019e-17;1.538946e-16;2.220446e-16;6.870383e-17;4.181453e-18;2.220446e-16;-6.452238e-17;0.599626;4.440892e-16;-4.440892e-16;0
1.375163;1.073691;0.528179;8.39567e-13;0;0;8.39567e-13;-2.220446e-16;-1.110223e-16;2.125062e-17;0;0;0;0;-1.070938e-16;-2.259731e-16;5.943969e-17;45;0;7.925292e-17;1.305248e-16;-2.220446e-16;2.558704e-17;1.69142e-17;-1.110223e-16;-8.672842e-18;0.528179;-3.330669e-16;3.330669e-16;0
1.442328;1.073691;0.457044;8.39567e-13;0;0;8.39567e-13;0;2.220446e-16;5.176722e-18;0;0;0;0;2.221652e-16;-1.20624e-19;1.111429e-16;45;0;1.481906e-16;1.481504e-16;0;1.699799e-17;-6.644542e-18;2.220446e-16;-2.364253e-17;0.457044;2.220446e-16;-2.220446e-16;0
1.509493;1.073691;0.387501;8.39567e-13;0;0;8.39567e-13;-1.110223e-16;0;-7.610661e-17;0;0;0;0;3.868918e-17;-1.497115e-16;9.420033e-17;45;0;1.256004e-16;1.148963e-16;-1.110223e-16;-1.325854e-16;-1.962786e-17;0;1.129575e-16;0.387501;-1.110223e-16;1.110223e-16;0
-0.371137;1.006526;0.278446;8.39567e-13;0;0;8.39567e-13;-1.110223e-16;2.220446e-16;-2.769513e-17;0;0;0;0;2.243318e-16;-1.133095e-16;1.688207e-16;45;0;2.250942e-16;1.98419e-16;-1.110223e-16;-7.115296e-17;1.57627e-17;2.220446e-16;8.691567e-17;0.278446;1.110223e-16;-1.110223e-16;0
-0.303971;1.006526;0.376798;8.39567e-13;0;0;8.39567e-13;4.440892e-16;-1.110223e-16;4.842998e-17;0;0;0;0;4.482828e-16;-1.152158e-16;2.817493e-16;45;0;3.756657e-16;3.437579e-16;4.440892e-16;1.189987e-16;-2.213874e-17;-1.110223e-16;-1.411374e-16;0.376798;3.330669e-16;-3.330669e-16;0
-0.236806;1.006526;0.472633;8.39567e-13;0;0;8.39567e-13;-2.220446e-16;-1.110223e-16;6.535396e-17;0;0;0;0;-8.078599e-17;-2.522809e-16;8.574747e-17;45;0;1.1433e-16;1.487597e-16;-2.220446e-16;1.187817e-16;1.192618e-17;-1.110223e-16;-1.068556e-16;0.472633;-3.330669e-16;3.330669e-16;0
-0.169641;1.006526;0.571788;8.39567e-13;0;0;8.39567e-13;0;2.220446e-16;2.331947e-17;0;0;0;0;2.244672e-16;-2.422615e-18;1.134449e-16;45;0;1.512599e-16;1.504589e-16;0;1.30079e-17;3.363104e-17;2.220446e-16;2.062314e-17;0.571788;2.220446e-16;-2.220446e-16;0
-0.102475;1.006526;0.626872;8.39567e-13;0;0;8.39567e-13;-2.220446e-16;0;2.890803e-17;0;0;0;0;3.701827e-18;-2.257464e-16;1.147241e-16;45;0;1.529655e-16;1.517466e-16;-2.220446e-16;5.354138e-17;4.274678e-18;0;-4.926671e-17;0.626872;-2.220446e-16;2.220446e-16;0
-0.03531;1.006526;0.649036;8.39567e-13;0;0;8.39567e-13;0;0;-4.729872e-18;0;0;0;0;4.729872e-18;-4.729872e-18;4.729872e-18;45;0;6.306495e-18;5.461585e-18;0;-7.552336e-18;-1.907407e-18;0;5.644929e-18;0.649036;0;0;0
0.031855;1.006526;0.735457;8.39567e-13;0;0;8.39567e-13;2.220446e-16;2.220446e-16;2.06172e-18;0;0;0;0;2.241063e-16;2.199829e-16;2.06172e-18;45;0;2.74896e-18;1.480489e-16;2.220446e-16;-3.155524e-18;7.278964e-18;2.220446e-16;1.043449e-17;0.735457;4.440892e-16;-4.440892e-16;0
0.099021;1.006526;0.791178;8.39567e-13;0;0;8.39567e-13;0;0;-1.627334e-17;0;0;0;0;1.627334e-17;-1.627334e-17;1.627334e-17;45;0;2.169778e-17;1.879083e-17;0;-1.950283e-17;-1.304384e-17;0;6.458997e-18;0.791178;0;0;0
0.166186;1.006526;0.825969;8.39567e-13;0;0;8.39567e-13;2.220446e-16;2.220446e-16;9.781617e-18;0;0;0;0;2.318262e-16;2.12263e-16;9.781617e-18;45;0;1.304216e-17;1.4846e-16;2.220446e-16;2.626334e-18;1.69369e-17;2.220446e-16;1.431057e-17;0.825969;4.440892e-16;-4.440892e-16;0
0.233352;1.006526;0.839625;8.39567e-13;0;0;8.39567e-13;0;2.220446e-16;-3.819331e-17;0;0;0;0;2.284305e-16;-6.385878e-18;1.174082e-16;45;0;1.565442e-16;1.544596e-16;0;-6.029522e-17;-1.609141e-17;2.220446e-16;4.420381e-17;0.839625;2.220446e-16;-2.220446e-16;0
0.300517;1.006526;0.864524;8.39567e-13;0;0;8.39567e-13;0;2.220446e-16;3.454439e-18;0;0;0;0;2.220983e-16;-5.372912e-20;1.11076e-16;45;0;1.481014e-16;1.480835e-16;0;1.101943e-17;-4.110553e-18;2.220446e-16;-1.512998e-17;0.864524;2.220446e-16;-2.220446e-16;0
0.367682;1.006526;0.905881;8.39567e-13;0;0;8.39567e-13;2.220446e-16;0;6.853422e-19;0;0;0;0;2.220467e-16;-2.115293e-21;1.110244e-16;45;0;1.480326e-16;1.480318e-16;2.220446e-16;1.434338e-17;-1.29727e-17;0;-2.731608e-17;0.905881;2.220446e-16;-2.220446e-16;0
0.434848;1.006526;0.904247;8.39567e-13;0;0;8.39567e-13;2.220446e-16;-4.440892e-16;-1.03454e-17;0;0;0;0;2.222052e-16;-4.442498e-16;3.332275e-16;45;0;4.443034e-16;3.91832e-16;2.220446e-16;2.190287e-17;-4.259368e-17;-4.440892e-16;-6.449656e-17;0.904247;-2.220446e-16;2.220446e-16;0
0.502013;1.006526;0.901391;8.39567e-13;0;0;8.39567e-13;-1.110223e-16;-1.110223e-16;-5.710308e-18;0;0;0;0;-1.05312e-16;-1.167326e-16;5.710308e-18;45;0;7.613744e-18;7.430799e-17;-1.110223e-16;9.153023e-18;-2.057364e-17;-1.110223e-16;-2.972666e-17;0.901391;-2.220446e-16;2.220446e-16;0
0.569178;1.006526;0.906661;8.39567e-13;0;0;8.39567e-13;2.220446e-16;2.220446e-16;-3.453821e-17;0;0;0;0;2.565828e-16;1.875064e-16;3.453821e-17;45;0;4.605094e-17;1.533079e-16;2.220446e-16;-1.799269e-17;-5.108373e-17;2.220446e-16;-3.309105e-17;0.906661;4.440892e-16;-4.440892e-16;0
0.636344;1.006526;0.927253;8.39567e-13;0;0;8.39567e-13;0;2.220446e-16;-3.541707e-17;0;0;0;0;2.275569e-16;-5.512331e-18;1.165346e-16;45;0;1.553795e-16;1.53575e-16;0;-1.530387e-17;-5.553028e-17;2.220446e-16;-4.022641e-17;0.927253;2.220446e-16;-2.220446e-16;0
0.703509;1.006526;0.915067;8.39567e-13;0;0;8.39567e-13;0;0;1.586199e-17;0;0;0;0;1.586199e-17;-1.586199e-17;1.586199e-17;45;0;2.114932e-17;1.831585e-17;0;2.667397e-17;5.050014e-18;0;-2.162396e-17;0.915067;0;0;0
0.770674;1.006526;0.881165;8.39567e-13;0;0;8.39567e-13;0;-3.330669e-16;1.403761e-17;0;0;0;0;5.905891e-19;-3.336575e-16;1.67124e-16;45;0;2.228321e-16;2.226355e-16;0;1.263371e-17;1.544151e-17;-3.330669e-16;2.807809e-18;0.881165;-3.330669e-16;3.330669e-16;0
0.83784;1.006526;0.896013;8.39567e-13;0;0;8.39567e-13;2.220446e-16;-1.110223e-16;2.084228e-19;0;0;0;0;2.220447e-16;-1.110224e-16;1.665336e-16;45;0;2.220448e-16;1.958251e-16;2.220446e-16;8.060747e-18;-7.643902e-18;-1.110223e-16;-1.570465e-17;0.896013;1.110223e-16;-1.110223e-16;0
0.905005;1.006526;0.873792;8.39567e-13;0;0;8.39567e-13;-1.110223e-16;0;-3.856068e-18;0;0;0;0;1.337692e-19;-1.111561e-16;5.564492e-17;45;0;7.419323e-17;7.414868e-17;-1.110223e-16;1.977735e-18;-9.68987e-18;0;-1.16676e-17;0.873792;-1.110223e-16;1.110223e-16;0
0.97217;1.006526;0.855102;8.39567e-13;0;0;8.39567e-13;-1.110223e-16;2.220446e-16;1.919327e-17;0;0;0;0;2.23147e-16;-1.121247e-16;1.676358e-16;45;0;2.235144e-16;1.970751e-16;-1.110223e-16;3.341031e-17;4.976229e-18;2.220446e-16;-2.843409e-17;0.855102;1.110223e-16;-1.110223e-16;0
1.039336;1.006526;0.833989;8.39567e-13;0;0;8.39567e-13;0;-1.110223e-16;-8.072557e-18;0;0;0;0;5.838938e-19;-1.116062e-16;5.609505e-17;45;0;7.479339e-17;7.459952e-17;0;-3.022178e-17;1.407667e-17;-1.110223e-16;4.429846e-17;0.833989;-1.110223e-16;1.110223e-16;0
1.106501;1.006526;0.792891;8.39567e-13;0;0;8.39567e-13;-1.110223e-16;-1.110223e-16;5.118798e-17;0;0;0;0;-5.983432e-17;-1.622103e-16;5.118798e-17;45;0;6.825065e-17;9.471966e-17;-1.110223e-16;7.860594e-17;2.377002e-17;-1.110223e-16;-5.483592e-17;0.792891;-2.220446e-16;2.220446e-16;0
1.173667;1.006526;0.75506;8.39567e-13;0;0;8.39567e-13;-1.110223e-16;2.220446e-16;-1.252055e-17;0;0;0;0;2.225146e-16;-1.114923e-16;1.670035e-16;45;0;2.226713e-16;1.963579e-16;-1.110223e-16;-2.28963e-17;-2.144798e-18;2.220446e-16;2.07515e-17;0.75506;1.110223e-16;-1.110223e-16;0
1.240832;1.006526;0.715408;8.39567e-13;0;0;8.39567e-13;-1.110223e-16;0;-1.388257e-17;0;0;0;0;1.709593e-18;-1.127319e-16;5.722074e-17;45;0;7.629433e-17;7.573089e-17;-1.110223e-16;-6.570145e-18;-2.119499e-17;0;-1.462485e-17;0.715408;-1.110223e-16;1.110223e-16;0
1.307997;1.006526;0.614388;8.39567e-13;0;0;8.39567e-13;0;-1.110223e-16;-1.441966e-17;0;0;0;0;1.842266e-18;-1.128646e-16;5.735341e-17;45;0;7.647123e-17;7.586459e-17;0;-2.57482e-18;-2.62645e-17;-1.110223e-16;-2.368968e-17;0.614388;-1.110223e-16;1.110223e-16;0
1.375163;1.006526;0.543999;8.39567e-13;0;0;8.39567e-13;-2.220446e-16;2.220446e-16;-3.580713e-17;0;0;0;0;2.249132e-16;-2.249132e-16;2.249132e-16;45;0;2.998843e-16;2.597074e-16;-2.220446e-16;-4.580071e-17;-2.581355e-17;2.220446e-16;1.998717e-17;0.543999;0;0;0
1.442328;1.006526;0.446643;8.39567e-13;0;0;8.39567e-13;2.220446e-16;2.220446e-16;-9.847761e-18;0;0;0;0;2.318924e-16;2.121968e-16;9.847761e-18;45;0;1.313035e-17;1.484658e-16;2.220446e-16;-3.299383e-17;1.32983e-17;2.220446e-16;4.629213e-17;0.446643;4.440892e-16;-4.440892e-16;0
1.509493;1.006526;0.34341;8.39567e-13;0;0;8.39567e-13;2.220446e-16;-2.220446e-16;-4.057352e-17;0;0;0;0;2.257211e-16;-2.257211e-16;2.257211e-16;45;0;3.009615e-16;2.606403e-16;2.220446e-16;1.659215e-17;-9.77392e-17;-2.220446e-16;-1.143314e-16;0.34341;0;0;0
-0.371137;0.93936;0.2591;8.39567e-13;0;0;8.39567e-13;-2.220446e-16;2.220446e-16;1.018377e-16;0;0;0;0;2.442841e-16;-2.442841e-16;2.442841e-16;45;0;3.257122e-16;2.82075e-16;-2.220446e-16;1.811168e-16;2.255864e-17;2.220446e-16;-1.585582e-16;0.2591;0;0;0
-0.303971;0.93936;0.404005;8.39567e-13;0;0;8.39567e-13;0;0;-2.111232e-17;0;0;0;0;2.111232e-17;-2.111232e-17;2.111232e-17;45;0;2.814976e-17;2.43784e-17;0;-3.419039e-17;-8.034246e-18;0;2.615614e-17;0.404005;0;0;0
-0.236806;0.93936;0.47477;8.39567e-13;0;0;8.39567e-13;-2.220446e-16;-1.110223e-16;-2.417965e-17;0;0;0;0;-1.059848e-16;-2.270821e-16;6.054869e-17;45;0;8.073158e-17;1.312027e-16;-2.220446e-16;-2.702051e-17;-2.133879e-17;-1.110223e-16;5.681727e-18;0.47477;-3.330669e-16;3.330669e-16;0
-0.169641;0.93936;0.552362;8.39567e-13;0;0;8.39567e-13;2.220446e-16;-1.110223e-16;4.179526e-17;0;0;0;0;2.272093e-16;-1.161869e-16;1.716981e-16;45;0;2.289308e-16;2.016842e-16;2.220446e-16;5.901458e-17;2.457595e-17;-1.110223e-16;-3.443863e-17;0.552362;1.110223e-16;-1.110223e-16;0
-0.102475;0.93936;0.61215;8.39567e-13;0;0;8.39567e-13;-1.110223e-16;0;-1.915188e-17;0;0;0;0;3.210927e-18;-1.142332e-16;5.872208e-17;45;0;7.829611e-17;7.724804e-17;-1.110223e-16;-3.04097e-17;-7.89406e-18;0;2.251564e-17;0.61215;-1.110223e-16;1.110223e-16;0
-0.03531;0.93936;0.665766;8.39567e-13;0;0;8.39567e-13;0;0;-1.557589e-18;0;0;0;0;1.557589e-18;-1.557589e-18;1.557589e-18;45;0;2.076785e-18;1.798549e-18;0;-3.115178e-18;0;0;3.115178e-18;0.665766;0;0;0
0.031855;0.93936;0.738725;8.39567e-13;0;0;8.39567e-13;2.220446e-16;2.220446e-16;2.992164e-17;0;0;0;0;2.519663e-16;1.92123e-16;2.992164e-17;45;0;3.989552e-17;1.520084e-16;2.220446e-16;5.984328e-17;0;2.220446e-16;-5.984328e-17;0.738725;4.440892e-16;-4.440892e-16;0
0.099021;0.93936;0.77731;8.39567e-13;0;0;8.39567e-13;-1.110223e-16;2.220446e-16;-2.776046e-17;0;0;0;0;2.243425e-16;-1.133202e-16;1.688314e-16;45;0;2.251085e-16;1.984312e-16;-1.110223e-16;-3.724372e-17;-1.82772e-17;2.220446e-16;1.896652e-17;0.77731;1.110223e-16;-1.110223e-16;0
0.166186;0.93936;0.8126;8.39567e-13;0;0;8.39567e-13;-1.110223e-16;2.220446e-16;1.181174e-17;0;0;0;0;2.22463e-16;-1.114407e-16;1.669518e-16;45;0;2.226024e-16;1.962993e-16;-1.110223e-16;3.303511e-17;-9.411619e-18;2.220446e-16;-4.244672e-17;0.8126;1.110223e-16;-1.110223e-16;0
0.233352;0.93936;0.842288;8.39567e-13;0;0;8.39567e-13;-1.110223e-16;-1.110223e-16;1.383678e-18;0;0;0;0;-1.096386e-16;-1.12406e-16;1.383678e-18;45;0;1.844904e-18;7.403211e-17;-1.110223e-16;2.182616e-17;-1.905881e-17;-1.110223e-16;-4.088497e-17;0.842288;-2.220446e-16;2.220446e-16;0
0.300517;0.93936;0.861284;8.39567e-13;0;0;8.39567e-13;0;-1.110223e-16;7.871061e-18;0;0;0;0;5.552515e-19;-1.115776e-16;5.60664e-17;45;0;7.47552e-17;7.457081e-17;0;5.309116e-17;-3.734904e-17;-1.110223e-16;-9.04402e-17;0.861284;-1.110223e-16;1.110223e-16;0
0.367682;0.93936;0.882413;8.39567e-13;0;0;8.39567e-13;-1.110223e-16;0;-1.756362e-17;0;0;0;0;2.712285e-18;-1.137346e-16;5.822344e-17;45;0;7.763125e-17;7.674313e-17;-1.110223e-16;-1.785632e-17;-1.727091e-17;0;5.854071e-19;0.882413;-1.110223e-16;1.110223e-16;0
0.434848;0.93936;0.905797;8.39567e-13;0;0;8.39567e-13;0;0;1.027138e-17;0;0;0;0;1.027138e-17;-1.027138e-17;1.027138e-17;45;0;1.369518e-17;1.186037e-17;0;2.456099e-17;-4.018221e-18;0;-2.857921e-17;0.905797;0;0;0
0.502013;0.93936;0.926782;8.39567e-13;0;0;8.39567e-13;2.220446e-16;2.220446e-16;-5.784174e-19;0;0;0;0;2.22623e-16;2.214662e-16;5.784174e-19;45;0;7.712232e-19;1.480312e-16;2.220446e-16;-6.262601e-18;5.105766e-18;2.220446e-16;1.136837e-17;0.926782;4.440892e-16;-4.440892e-16;0
0.569178;0.93936;0.931813;8.39567e-13;0;0;8.39567e-13;0;2.220446e-16;-1.323835e-17;0;0;0;0;2.228311e-16;-7.864876e-19;1.118088e-16;45;0;1.490784e-16;1.488169e-16;0;-3.550536e-17;9.028659e-18;2.220446e-16;4.453402e-17;0.931813;2.220446e-16;-2.220446e-16;0
0.636344;0.93936;0.93462;8.39567e-13;0;0;8.39567e-13;0;2.220446e-16;-2.225916e-18;0;0;0;0;2.220669e-16;-2.231175e-20;1.110446e-16;45;0;1.480595e-16;1.480521e-16;0;-1.889204e-18;-2.562628e-18;2.220446e-16;-6.734245e-19;0.93462;2.220446e-16;-2.220446e-16;0
0.703509;0.93936;0.917144;8.39567e-13;0;0;8.39567e-13;-1.110223e-16;-1.110223e-16;-9.664667e-18;0;0;0;0;-1.013576e-16;-1.20687e-16;9.664667e-18;45;0;1.288622e-17;7.485147e-17;-1.110223e-16;-3.963979e-18;-1.536536e-17;-1.110223e-16;-1.140138e-17;0.917144;-2.220446e-16;2.220446e-16;0
0.770674;0.93936;0.910377;8.39567e-13;0;0;8.39567e-13;0;2.220446e-16;2.578934e-17;0;0;0;0;2.250006e-16;-2.955948e-18;1.139782e-16;45;0;1.51971e-16;1.509953e-16;0;2.060778e-17;3.097089e-17;2.220446e-16;1.036311e-17;0.910377;2.220446e-16;-2.220446e-16;0
0.83784;0.93936;0.904125;8.39567e-13;0;0;8.39567e-13;-1.110223e-16;-1.110223e-16;2.748371e-17;0;0;0;0;-8.353859e-17;-1.38506e-16;2.748371e-17;45;0;3.664494e-17;8.05316e-17;-1.110223e-16;6.131668e-18;4.883575e-17;-1.110223e-16;4.270408e-17;0.904125;-2.220446e-16;2.220446e-16;0
0.905005;0.93936;0.858477;8.39567e-13;0;0;8.39567e-13;0;-1.110223e-16;-3.273036e-17;0;0;0;0;8.930796e-18;-1.199531e-16;6.444195e-17;45;0;8.59226e-17;8.310577e-17;0;-4.878475e-17;-1.667597e-17;-1.110223e-16;3.210878e-17;0.858477;-1.110223e-16;1.110223e-16;0
0.97217;0.93936;0.84605;8.39567e-13;0;0;8.39567e-13;0;-1.110223e-16;-3.870341e-17;0;0;0;0;1.216042e-17;-1.231827e-16;6.767157e-17;45;0;9.022876e-17;8.646082e-17;0;-1.59641e-17;-6.144272e-17;-1.110223e-16;-4.547862e-17;0.84605;-1.110223e-16;1.110223e-16;0
1.039336;0.93936;0.834748;8.39567e-13;0;0;8.39567e-13;2.220446e-16;2.220446e-16;6.273944e-18;0;0;0;0;2.283186e-16;2.157707e-16;6.273944e-18;45;0;8.365259e-18;1.482069e-16;2.220446e-16;1.619431e-17;-3.64642e-18;2.220446e-16;-1.984073e-17;0.834748;4.440892e-16;-4.440892e-16;0
1.106501;0.93936;0.803328;8.39567e-13;0;0;8.39567e-13;0;0;-3.087368e-17;0;0;0;0;3.087368e-17;-3.087368e-17;3.087368e-17;45;0;4.11649e-17;3.564985e-17;0;-6.174735e-17;0;0;6.174735e-17;0.803328;0;0;0
1.173667;0.93936;0.740097;8.39567e-13;0;0;8.39567e-13;0;2.220446e-16;-2.661344e-17;0;0;0;0;2.251899e-16;-3.145235e-18;1.141675e-16;45;0;1.522234e-16;1.511859e-16;0;-2.753555e-17;-2.569133e-17;2.220446e-16;1.844222e-18;0.740097;2.220446e-16;-2.220446e-16;0
1.240832;0.93936;0.702303;8.39567e-13;0;0;8.39567e-13;-1.110223e-16;0;-2.402112e-17;0;0;0;0;4.974401e-18;-1.159967e-16;6.048555e-17;45;0;8.06474e-17;7.904146e-17;-1.110223e-16;-3.260426e-17;-1.543798e-17;0;1.716628e-17;0.702303;-1.110223e-16;1.110223e-16;0
1.307997;0.93936;0.639293;8.39567e-13;0;0;8.39567e-13;0;0;2.431973e-17;0;0;0;0;2.431973e-17;-2.431973e-17;2.431973e-17;45;0;3.24263e-17;2.8082e-17;0;2.254092e-17;2.609853e-17;0;3.557611e-18;0.639293;0;0;0
1.375163;0.93936;0.568326;8.39567e-13;0;0;8.39567e-13;2.220446e-16;-1.110223e-16;-3.547272e-18;0;0;0;0;2.220824e-16;-1.110601e-16;1.665712e-16;45;0;2.22095e-16;1.958678e-16;2.220446e-16;-2.866581e-17;2.157126e-17;-1.110223e-16;5.023707e-17;0.568326;1.110223e-16;-1.110223e-16;0
1.442328;0.93936;0.459647;8.39567e-13;0;0;8.39567e-13;-2.220446e-16;0;2.882754e-17;0;0;0;0;3.68157e-18;-2.257262e-16;1.147039e-16;45;0;1.529385e-16;1.517262e-16;-2.220446e-16;5.19083e-17;5.746767e-18;0;-4.616154e-17;0.459647;-2.220446e-16;2.220446e-16;0
1.509493;0.93936;0.354029;8.39567e-13;0;0;8.39567e-13;0;2.220446e-16;-2.126235e-17;0;0;0;0;2.240623e-16;-2.017686e-18;1.1304e-16;45;0;1.5072e-16;1.500519e-16;0;4.650252e-18;-4.717495e-17;2.220446e-16;-5.18252e-17;0.354029;2.220446e-16;-2.220446e-16;0
-0.371137;0.872195;0.26027;8.39567e-13;0;0;8.39567e-13;0;0;5.167185e-17;0;0;0;0;5.167185e-17;-5.167185e-17;5.167185e-17;45;0;6.889579e-17;5.966551e-17;0;4.707057e-17;5.627313e-17;0;9.202561e-18;0.26027;0;0;0
-0.303971;0.872195;0.390548;8.39567e-13;0;0;8.39567e-13;0;-1.110223e-16;-3.127802e-17;0;0;0;0;8.205427e-18;-1.192277e-16;6.371658e-17;45;0;8.495544e-17;8.235666e-17;0;-5.457253e-17;-7.983506e-18;-1.110223e-16;4.658903e-17;0.390548;-1.110223e-16;1.110223e-16;0
-0.236806;0.872195;0.48035;8.39567e-13;0;0;8.39567e-13;0;0;7.997047e-18;0;0;0;0;7.997047e-18;-7.997047e-18;7.997047e-18;45;0;1.066273e-17;9.234194e-18;0;-3.18272e-18;1.917681e-17;0;2.235953e-17;0.48035;0;0;0
-0.169641;0.872195;0.554719;8.39567e-13;0;0;8.39567e-13;-1.110223e-16;2.220446e-16;2.228073e-17;0;0;0;0;2.235285e-16;-1.125062e-16;1.680173e-16;45;0;2.240231e-16;1.975078e-16;-1.110223e-16;2.669814e-18;4.189164e-17;2.220446e-16;3.922182e-17;0.554719;1.110223e-16;-1.110223e-16;0
-0.102475;0.872195;0.628993;8.39567e-13;0;0;8.39567e-13;0;2.220446e-16;2.577788e-18;0;0;0;0;2.220745e-16;-2.992235e-20;1.110522e-16;45;0;1.480696e-16;1.480597e-16;0;-2.477427e-17;2.992984e-17;2.220446e-16;5.470411e-17;0.628993;2.220446e-16;-2.220446e-16;0
-0.03531;0.872195;0.69464;8.39567e-13;0;0;8.39567e-13;2.220446e-16;0;2.234017e-17;0;0;0;0;2.2427e-16;-2.225368e-18;1.132477e-16;45;0;1.509969e-16;1.502606e-16;2.220446e-16;7.58383e-17;-3.115796e-17;0;-1.069963e-16;0.69464;2.220446e-16;-2.220446e-16;0
0.031855;0.872195;0.7456;8.39567e-13;0;0;8.39567e-13;2.220446e-16;0;-1.914426e-17;0;0;0;0;2.236831e-16;-1.63849e-18;1.126608e-16;45;0;1.502144e-16;1.496712e-16;2.220446e-16;-1.806087e-17;-2.022765e-17;0;-2.16678e-18;0.7456;2.220446e-16;-2.220446e-16;0
0.099021;0.872195;0.76949;8.39567e-13;0;0;8.39567e-13;0;0;-3.204085e-17;0;0;0;0;3.204085e-17;-3.204085e-17;3.204085e-17;45;0;4.272114e-17;3.699759e-17;0;-2.508034e-17;-3.900136e-17;0;-1.392102e-17;0.76949;0;0;0
0.166186;0.872195;0.78413;8.39567e-13;0;0;8.39567e-13;-1.110223e-16;2.220446e-16;2.51206e-17;0;0;0;0;2.239286e-16;-1.129063e-16;1.684174e-16;45;0;2.245566e-16;1.979616e-16;-1.110223e-16;5.953589e-17;-9.294691e-18;2.220446e-16;-6.883058e-17;0.78413;1.110223e-16;-1.110223e-16;0
0.233352;0.872195;0.824812;8.39567e-13;0;0;8.39567e-13;0;2.220446e-16;1.002722e-17;0;0;0;0;2.224965e-16;-4.518951e-19;1.114742e-16;45;0;1.486323e-16;1.484819e-16;0;4.611014e-17;-2.60557e-17;2.220446e-16;-7.216584e-17;0.824812;2.220446e-16;-2.220446e-16;0
0.300517;0.872195;0.870908;8.39567e-13;0;0;8.39567e-13;2.220446e-16;2.220446e-16;2.481213e-17;0;0;0;0;2.468567e-16;1.972325e-16;2.481213e-17;45;0;3.308284e-17;1.507769e-16;2.220446e-16;4.962426e-17;0;2.220446e-16;-4.962426e-17;0.870908;4.440892e-16;-4.440892e-16;0
0.367682;0.872195;0.889147;8.39567e-13;0;0;8.39567e-13;0;-1.110223e-16;4.91838e-19;0;0;0;0;2.17884e-21;-1.110245e-16;5.551333e-17;45;0;7.401778e-17;7.401705e-17;0;6.076938e-17;-5.97857e-17;-1.110223e-16;-1.205551e-16;0.889147;-1.110223e-16;1.110223e-16;0
0.434848;0.872195;0.903994;8.39567e-13;0;0;8.39567e-13;-1.110223e-16;-1.110223e-16;-7.107107e-18;0;0;0;0;-1.039152e-16;-1.181294e-16;7.107107e-18;45;0;9.476142e-18;7.446844e-17;-1.110223e-16;1.613662e-17;-3.035083e-17;-1.110223e-16;-4.648746e-17;0.903994;-2.220446e-16;2.220446e-16;0
0.502013;0.872195;0.919598;8.39567e-13;0;0;8.39567e-13;-3.330669e-16;0;7.328551e-18;0;0;0;0;1.611739e-19;-3.332281e-16;1.666946e-16;45;0;2.222595e-16;2.222058e-16;-3.330669e-16;1.721698e-17;-2.55988e-18;0;-1.977686e-17;0.919598;-3.330669e-16;3.330669e-16;0
0.569178;0.872195;0.927149;8.39567e-13;0;0;8.39567e-13;-1.110223e-16;2.220446e-16;-2.15826e-17;0;0;0;0;2.234373e-16;-1.12415e-16;1.679262e-16;45;0;2.239016e-16;1.974044e-16;-1.110223e-16;-5.672541e-17;1.356021e-17;2.220446e-16;7.028563e-17;0.927149;1.110223e-16;-1.110223e-16;0
0.636344;0.872195;0.901821;8.39567e-13;0;0;8.39567e-13;-1.110223e-16;0;-2.011188e-18;0;0;0;0;3.642106e-20;-1.110587e-16;5.554757e-17;45;0;7.406343e-17;7.405129e-17;-1.110223e-16;6.002958e-18;-1.002533e-17;0;-1.602829e-17;0.901821;-1.110223e-16;1.110223e-16;0
0.703509;0.872195;0.886136;8.39567e-13;0;0;8.39567e-13;0;-1.110223e-16;-2.409335e-18;0;0;0;0;5.226123e-20;-1.110746e-16;5.556341e-17;45;0;7.408455e-17;7.406714e-17;0;-7.387265e-18;2.568595e-18;-1.110223e-16;9.95586e-18;0.886136;-1.110223e-16;1.110223e-16;0
0.770674;0.872195;0.931961;8.39567e-13;0;0;8.39567e-13;0;0;3.63152e-17;0;0;0;0;3.63152e-17;-3.63152e-17;3.63152e-17;45;0;4.842026e-17;4.193318e-17;0;5.471964e-17;1.791075e-17;0;-3.680889e-17;0.931961;0;0;0
0.83784;0.872195;0.911595;8.39567e-13;0;0;8.39567e-13;0;-1.110223e-16;2.766447e-18;0;0;0;0;6.889139e-20;-1.110912e-16;5.558005e-17;45;0;7.410672e-17;7.408377e-17;0;-3.879122e-18;9.412016e-18;-1.110223e-16;1.329114e-17;0.911595;-1.110223e-16;1.110223e-16;0
0.905005;0.872195;0.869603;8.39567e-13;0;0;8.39567e-13;0;-1.110223e-16;-1.085533e-17;0;0;0;0;1.051435e-18;-1.120737e-16;5.656258e-17;45;0;7.541678e-17;7.506876e-17;0;-2.171067e-17;0;-1.110223e-16;2.171067e-17;0.869603;-1.110223e-16;1.110223e-16;0
0.97217;0.872195;0.854582;8.39567e-13;0;0;8.39567e-13;2.220446e-16;-3.330669e-16;7.087645e-18;0;0;0;0;2.221351e-16;-3.331574e-16;2.776462e-16;45;0;3.70195e-16;3.227271e-16;2.220446e-16;1.965464e-17;-5.479352e-18;-3.330669e-16;-2.5134e-17;0.854582;-1.110223e-16;1.110223e-16;0
1.039336;0.872195;0.821073;8.39567e-13;0;0;8.39567e-13;2.220446e-16;0;1.376209e-17;0;0;0;0;2.228943e-16;-8.497078e-19;1.11872e-16;45;0;1.491627e-16;1.488803e-16;2.220446e-16;3.726088e-17;-9.736706e-18;0;-4.699759e-17;0.821073;2.220446e-16;-2.220446e-16;0
1.106501;0.872195;0.810332;8.39567e-13;0;0;8.39567e-13;0;0;3.030417e-17;0;0;0;0;3.030417e-17;-3.030417e-17;3.030417e-17;45;0;4.040556e-17;3.499224e-17;0;5.154416e-17;9.064188e-18;0;-4.247997e-17;0.810332;0;0;0
1.173667;0.872195;0.760763;8.39567e-13;0;0;8.39567e-13;2.220446e-16;-3.330669e-16;-6.46346e-17;0;0;0;0;2.29471e-16;-3.404933e-16;2.849821e-16;45;0;3.799762e-16;3.311435e-16;2.220446e-16;-1.047456e-16;-2.452364e-17;-3.330669e-16;8.022192e-17;0.760763;-1.110223e-16;1.110223e-16;0
1.240832;0.872195;0.69276;8.39567e-13;0;0;8.39567e-13;-3.330669e-16;2.220446e-16;-2.25851e-18;0;0;0;0;2.220538e-16;-3.330761e-16;2.775649e-16;45;0;3.700866e-16;3.226339e-16;-3.330669e-16;1.791856e-17;-2.243558e-17;2.220446e-16;-4.035414e-17;0.69276;-1.110223e-16;1.110223e-16;0
1.307997;0.872195;0.627605;8.39567e-13;0;0;8.39567e-13;2.220446e-16;0;1.035572e-17;0;0;0;0;2.225265e-16;-4.819244e-19;1.115042e-16;45;0;1.486723e-16;1.485119e-16;2.220446e-16;3.466892e-17;-1.395748e-17;0;-4.86264e-17;0.627605;2.220446e-16;-2.220446e-16;0
1.375163;0.872195;0.549205;8.39567e-13;0;0;8.39567e-13;-2.220446e-16;-1.110223e-16;1.248644e-18;0;0;0;0;-1.110083e-16;-2.220586e-16;5.552519e-17;45;0;7.403359e-17;1.282056e-16;-2.220446e-16;4.0458e-17;-3.796071e-17;-1.110223e-16;-7.84187e-17;0.549205;-3.330669e-16;3.330669e-16;0
1.442328;0.872195;0.460339;8.39567e-13;0;0;8.39567e-13;0;2.220446e-16;7.068219e-18;0;0;0;0;2.222694e-16;-2.24771e-19;1.112471e-16;45;0;1.483294e-16;1.482546e-16;0;7.751803e-18;6.384634e-18;2.220446e-16;-1.367169e-18;0.460339;2.220446e-16;-2.220446e-16;0
1.509493;0.872195;0.388846;8.39567e-13;0;0;8.39567e-13;-1.110223e-16;0;-2.816213e-17;0;0;0;0;6.735084e-18;-1.177574e-16;6.224623e-17;45;0;8.299498e-17;8.084352e-17;-1.110223e-16;-5.718741e-18;-5.060553e-17;0;-4.488679e-17;0.388846;-1.110223e-16;1.110223e-16;0
-0.371137;0.805029;0.275679;8.39567e-13;0;0;8.39567e-13;-2.220446e-16;2.220446e-16;-1.683086e-17;0;0;0;0;2.226816e-16;-2.226816e-16;2.226816e-16;45;0;2.969088e-16;2.571305e-16;-2.220446e-16;-4.872713e-17;1.506541e-17;2.220446e-16;6.379254e-17;0.275679;0;0;0
-0.303971;0.805029;0.382829;8.39567e-13;0;0;8.39567e-13;0;0;3.766983e-17;0;0;0;0;3.766983e-17;-3.766983e-17;3.766983e-17;45;0;5.022644e-17;4.349737e-17;0;5.916276e-17;1.617689e-17;0;-4.298587e-17;0.382829;0;0;0
-0.236806;0.805029;0.502768;8.39567e-13;0;0;8.39567e-13;-2.220446e-16;-1.110223e-16;-7.58681e-18;0;0;0;0;-1.105062e-16;-2.225607e-16;5.602721e-17;45;0;7.470294e-17;1.284965e-16;-2.220446e-16;8.417358e-18;-2.359098e-17;-1.110223e-16;-3.200834e-17;0.502768;-3.330669e-16;3.330669e-16;0
-0.169641;0.805029;0.582532;8.39567e-13;0;0;8.39567e-13;-1.110223e-16;-1.110223e-16;1.376147e-17;0;0;0;0;-9.726084e-17;-1.247838e-16;1.376147e-17;45;0;1.834862e-17;7.570142e-17;-1.110223e-16;2.752294e-17;0;-1.110223e-16;-2.752294e-17;0.582532;-2.220446e-16;2.220446e-16;0
-0.102475;0.805029;0.642677;8.39567e-13;0;0;8.39567e-13;0;-3.330669e-16;-1.338302e-17;0;0;0;0;5.368801e-19;-3.336038e-16;1.670703e-16;45;0;2.227605e-16;2.225817e-16;0;-2.138387e-17;-5.382169e-18;-3.330669e-16;1.60017e-17;0.642677;-3.330669e-16;3.330669e-16;0
-0.03531;0.805029;0.686525;8.39567e-13;0;0;8.39567e-13;-2.220446e-16;0;5.206472e-17;0;0;0;0;1.160187e-17;-2.336465e-16;1.226242e-16;45;0;1.634989e-16;1.597721e-16;-2.220446e-16;4.245371e-17;6.167572e-17;0;1.922201e-17;0.686525;-2.220446e-16;2.220446e-16;0
0.031855;0.805029;0.738442;8.39567e-13;0;0;8.39567e-13;0;-3.330669e-16;4.169032e-17;0;0;0;0;5.139125e-18;-3.38206e-16;1.716726e-16;45;0;2.288968e-16;2.272031e-16;0;4.659192e-17;3.678873e-17;-3.330669e-16;-9.803186e-18;0.738442;-3.330669e-16;3.330669e-16;0
0.099021;0.805029;0.752296;8.39567e-13;0;0;8.39567e-13;0;0;-1.414929e-17;0;0;0;0;1.414929e-17;-1.414929e-17;1.414929e-17;45;0;1.886572e-17;1.63382e-17;0;-1.847647e-17;-9.822123e-18;0;8.654342e-18;0.752296;0;0;0
0.166186;0.805029;0.774979;8.39567e-13;0;0;8.39567e-13;4.440892e-16;-3.330669e-16;3.105044e-17;0;0;0;0;4.453278e-16;-3.343055e-16;3.898167e-16;45;0;5.197556e-16;4.516402e-16;4.440892e-16;2.003175e-17;4.206913e-17;-3.330669e-16;2.203738e-17;0.774979;1.110223e-16;-1.110223e-16;0
0.233352;0.805029;0.828006;8.39567e-13;0;0;8.39567e-13;-1.110223e-16;2.220446e-16;-6.69564e-18;0;0;0;0;2.221792e-16;-1.111568e-16;1.66668e-16;45;0;2.22224e-16;1.959775e-16;-1.110223e-16;-3.784231e-17;2.445103e-17;2.220446e-16;6.229334e-17;0.828006;1.110223e-16;-1.110223e-16;0
0.300517;0.805029;0.890572;8.39567e-13;0;0;8.39567e-13;2.220446e-16;-3.330669e-16;-8.691057e-18;0;0;0;0;2.221806e-16;-3.332029e-16;2.776918e-16;45;0;3.702557e-16;3.227794e-16;2.220446e-16;5.019729e-19;-1.788409e-17;-3.330669e-16;-1.838606e-17;0.890572;-1.110223e-16;1.110223e-16;0
0.367682;0.805029;0.90883;8.39567e-13;0;0;8.39567e-13;-1.110223e-16;0;1.697757e-17;0;0;0;0;2.538188e-18;-1.135605e-16;5.804934e-17;45;0;7.739912e-17;7.656708e-17;-1.110223e-16;3.395514e-17;0;0;-3.395514e-17;0.90883;-1.110223e-16;1.110223e-16;0
0.434848;0.805029;0.924777;8.39567e-13;0;0;8.39567e-13;0;0;-1.242454e-17;0;0;0;0;1.242454e-17;-1.242454e-17;1.242454e-17;45;0;1.656605e-17;1.434662e-17;0;-1.970696e-17;-5.142107e-18;0;1.456486e-17;0.924777;0;0;0
0.502013;0.805029;0.911106;8.39567e-13;0;0;8.39567e-13;2.220446e-16;2.220446e-16;-1.95592e-17;0;0;0;0;2.416038e-16;2.024854e-16;1.95592e-17;45;0;2.607894e-17;1.497427e-16;2.220446e-16;-2.168593e-17;-1.743247e-17;2.220446e-16;4.253462e-18;0.911106;4.440892e-16;-4.440892e-16;0
0.569178;0.805029;0.921825;8.39567e-13;0;0;8.39567e-13;-1.110223e-16;0;-7.319909e-18;0;0;0;0;4.805355e-19;-1.115028e-16;5.599168e-17;45;0;7.465558e-17;7.449592e-17;-1.110223e-16;8.566435e-18;-2.320625e-17;0;-3.177269e-17;0.921825;-1.110223e-16;1.110223e-16;0
0.636344;0.805029;0.922584;8.39567e-13;0;0;8.39567e-13;0;0;-4.190134e-18;0;0;0;0;4.190134e-18;-4.190134e-18;4.190134e-18;45;0;5.586845e-18;4.83835e-18;0;1.688413e-18;-1.006868e-17;0;-1.175709e-17;0.922584;0;0;0
0.703509;0.805029;0.894425;8.39567e-13;0;0;8.39567e-13;0;2.220446e-16;2.014722e-18;0;0;0;0;2.220629e-16;-1.827907e-20;1.110406e-16;45;0;1.480541e-16;1.48048e-16;0;-5.005015e-18;9.034458e-18;2.220446e-16;1.403947e-17;0.894425;2.220446e-16;-2.220446e-16;0
0.770674;0.805029;0.938516;8.39567e-13;0;0;8.39567e-13;-1.110223e-16;0;2.937344e-17;0;0;0;0;7.292404e-18;-1.183147e-16;6.280356e-17;45;0;8.373807e-17;8.141621e-17;-1.110223e-16;4.342214e-17;1.532473e-17;0;-2.80974e-17;0.938516;-1.110223e-16;1.110223e-16;0
0.83784;0.805029;0.922107;8.39567e-13;0;0;8.39567e-13;0;0;2.304367e-18;0;0;0;0;2.304367e-18;-2.304367e-18;2.304367e-18;45;0;3.072489e-18;2.660854e-18;0;1.013044e-18;3.595689e-18;0;2.582645e-18;0.922107;0;0;0
0.905005;0.805029;0.879468;8.39567e-13;0;0;8.39567e-13;2.220446e-16;0;-1.702551e-17;0;0;0;0;2.233425e-16;-1.297864e-18;1.123202e-16;45;0;1.497602e-16;1.493295e-16;2.220446e-16;3.004563e-18;-3.705559e-17;0;-4.006015e-17;0.879468;2.220446e-16;-2.220446e-16;0
0.97217;0.805029;0.849109;8.39567e-13;0;0;8.39567e-13;-3.330669e-16;0;-3.086925e-18;0;0;0;0;2.860772e-20;-3.330955e-16;1.665621e-16;45;0;2.220827e-16;2.220732e-16;-3.330669e-16;2.558366e-17;-3.175751e-17;0;-5.734117e-17;0.849109;-3.330669e-16;3.330669e-16;0
1.039336;0.805029;0.814203;8.39567e-13;0;0;8.39567e-13;2.220446e-16;0;-4.729177e-19;0;0;0;0;2.220456e-16;-1.007231e-21;1.110233e-16;45;0;1.480311e-16;1.480307e-16;2.220446e-16;1.562943e-17;-1.657526e-17;0;-3.220469e-17;0.814203;2.220446e-16;-2.220446e-16;0
1.106501;0.805029;0.791555;8.39567e-13;0;0;8.39567e-13;2.220446e-16;0;3.147315e-17;0;0;0;0;2.264195e-16;-4.374885e-18;1.153972e-16;45;0;1.538629e-16;1.524256e-16;2.220446e-16;7.524514e-18;5.542178e-17;0;4.789727e-17;0.791555;2.220446e-16;-2.220446e-16;0
1.173667;0.805029;0.749114;8.39567e-13;0;0;8.39567e-13;-2.220446e-16;-1.110223e-16;-4.453369e-17;0;0;0;0;-9.536648e-17;-2.377004e-16;7.116697e-17;45;0;9.48893e-17;1.381265e-16;-2.220446e-16;-8.08663e-17;-8.201088e-18;-1.110223e-16;7.266522e-17;0.749114;-3.330669e-16;3.330669e-16;0
1.240832;0.805029;0.680462;8.39567e-13;0;0;8.39567e-13;2.220446e-16;-1.110223e-16;2.63544e-18;0;0;0;0;2.220655e-16;-1.110432e-16;1.665543e-16;45;0;2.220724e-16;1.958486e-16;2.220446e-16;-9.467894e-18;1.473877e-17;-1.110223e-16;2.420667e-17;0.680462;1.110223e-16;-1.110223e-16;0
1.307997;0.805029;0.611478;8.39567e-13;0;0;8.39567e-13;0;-1.110223e-16;-2.267851e-17;0;0;0;0;4.453862e-18;-1.154762e-16;5.996502e-17;45;0;7.995335e-17;7.851086e-17;0;-3.201269e-17;-1.334433e-17;-1.110223e-16;1.866836e-17;0.611478;-1.110223e-16;1.110223e-16;0
1.375163;0.805029;0.523909;8.39567e-13;0;0;8.39567e-13;0;2.220446e-16;-2.003074e-17;0;0;0;0;2.238371e-16;-1.792511e-18;1.128148e-16;45;0;1.504198e-16;1.498258e-16;0;-4.006147e-17;0;2.220446e-16;4.006147e-17;0.523909;2.220446e-16;-2.220446e-16;0
1.442328;0.805029;0.442606;8.39567e-13;0;0;8.39567e-13;-2.220446e-16;2.220446e-16;2.723177e-17;0;0;0;0;2.237082e-16;-2.237082e-16;2.237082e-16;45;0;2.982776e-16;2.58316e-16;-2.220446e-16;2.483101e-17;2.963252e-17;2.220446e-16;4.80152e-18;0.442606;0;0;0
1.509493;0.805029;0.380788;8.39567e-13;0;0;8.39567e-13;0;2.220446e-16;5.111369e-18;0;0;0;0;2.221622e-16;-1.175992e-19;1.111399e-16;45;0;1.481865e-16;1.481473e-16;0;-2.263065e-17;3.285339e-17;2.220446e-16;5.548404e-17;0.380788;2.220446e-16;-2.220446e-16;0
-0.371137;0.737864;0.294784;8.39567e-13;0;0;8.39567e-13;-4.440892e-16;0;-5.512193e-17;0;0;0;0;6.739647e-18;-4.508288e-16;2.287843e-16;45;0;3.050457e-16;3.028241e-16;-4.440892e-16;-1.432764e-16;3.303251e-17;0;1.763089e-16;0.294784;-4.440892e-16;4.440892e-16;0
-0.303971;0.737864;0.389824;8.39567e-13;0;0;8.39567e-13;-2.220446e-16;-1.110223e-16;-5.962519e-17;0;0;0;0;-8.506781e-17;-2.479991e-16;8.146564e-17;45;0;1.086209e-16;1.455157e-16;-2.220446e-16;-1.103472e-16;-8.903196e-18;-1.110223e-16;1.01444e-16;0.389824;-3.330669e-16;3.330669e-16;0
-0.236806;0.737864;0.490888;8.39567e-13;0;0;8.39567e-13;0;2.220446e-16;-3.557865e-19;0;0;0;0;2.220452e-16;-5.700822e-22;1.110229e-16;45;0;1.480305e-16;1.480303e-16;0;5.28904e-18;-6.000613e-18;2.220446e-16;-1.128965e-17;0.490888;2.220446e-16;-2.220446e-16;0
-0.169641;0.737864;0.573102;8.39567e-13;0;0;8.39567e-13;0;2.220446e-16;-9.466506e-18;0;0;0;0;2.224475e-16;-4.02858e-19;1.114252e-16;45;0;1.485669e-16;1.484328e-16;0;9.645628e-18;-2.857864e-17;2.220446e-16;-3.822427e-17;0.573102;2.220446e-16;-2.220446e-16;0
-0.102475;0.737864;0.628327;8.39567e-13;0;0;8.39567e-13;0;2.220446e-16;-3.972124e-17;0;0;0;0;2.289364e-16;-6.891769e-18;1.179141e-16;45;0;1.572188e-16;1.549726e-16;0;-2.406806e-17;-5.537441e-17;2.220446e-16;-3.130636e-17;0.628327;2.220446e-16;-2.220446e-16;0
-0.03531;0.737864;0.682225;8.39567e-13;0;0;8.39567e-13;-2.220446e-16;0;4.445968e-18;0;0;0;0;8.898531e-20;-2.221336e-16;1.111113e-16;45;0;1.481484e-16;1.481187e-16;-2.220446e-16;2.56801e-17;-1.678816e-17;0;-4.246826e-17;0.682225;-2.220446e-16;2.220446e-16;0
0.031855;0.737864;0.729498;8.39567e-13;0;0;8.39567e-13;2.220446e-16;0;-2.293778e-17;0;0;0;0;2.243894e-16;-2.344772e-18;1.133671e-16;45;0;1.511561e-16;1.503806e-16;2.220446e-16;-3.648509e-17;-9.390478e-18;0;2.709462e-17;0.729498;2.220446e-16;-2.220446e-16;0
0.099021;0.737864;0.740883;8.39567e-13;0;0;8.39567e-13;0;2.220446e-16;-1.257272e-17;0;0;0;0;2.227542e-16;-7.096305e-19;1.117319e-16;45;0;1.489759e-16;1.487399e-16;0;-2.514543e-17;0;2.220446e-16;2.514543e-17;0.740883;2.220446e-16;-2.220446e-16;0
0.166186;0.737864;0.792093;8.39567e-13;0;0;8.39567e-13;2.220446e-16;-1.110223e-16;-1.625457e-17;0;0;0;0;2.22836e-16;-1.118137e-16;1.673248e-16;45;0;2.230998e-16;1.967224e-16;2.220446e-16;-1.592889e-17;-1.658025e-17;-1.110223e-16;-6.513587e-19;0.792093;1.110223e-16;-1.110223e-16;0
0.233352;0.737864;0.844793;8.39567e-13;0;0;8.39567e-13;2.220446e-16;-1.110223e-16;-1.520087e-17;0;0;0;0;2.227369e-16;-1.117146e-16;1.672258e-16;45;0;2.229677e-16;1.9661e-16;2.220446e-16;-2.178647e-17;-8.615276e-18;-1.110223e-16;1.317119e-17;0.844793;1.110223e-16;-1.110223e-16;0
0.300517;0.737864;0.883409;8.39567e-13;0;0;8.39567e-13;-3.330669e-16;0;3.998017e-17;0;0;0;0;4.731852e-18;-3.377988e-16;1.712653e-16;45;0;2.283537e-16;2.267929e-16;-3.330669e-16;1.478799e-17;6.517234e-17;0;5.038435e-17;0.883409;-3.330669e-16;3.330669e-16;0
0.367682;0.737864;0.910281;8.39567e-13;0;0;8.39567e-13;-3.330669e-16;0;4.143899e-17;0;0;0;0;5.078262e-18;-3.381452e-16;1.716117e-16;45;0;2.288156e-16;2.271418e-16;-3.330669e-16;6.571214e-18;7.630676e-17;0;6.973555e-17;0.910281;-3.330669e-16;3.330669e-16;0
0.434848;0.737864;0.948568;8.39567e-13;0;0;8.39567e-13;0;0;-1.715408e-17;0;0;0;0;1.715408e-17;-1.715408e-17;1.715408e-17;45;0;2.287211e-17;1.980783e-17;0;-6.309008e-18;-2.799915e-17;0;-2.169015e-17;0.948568;0;0;0
0.502013;0.737864;0.929097;8.39567e-13;0;0;8.39567e-13;2.220446e-16;2.220446e-16;-1.38371e-17;0;0;0;0;2.358817e-16;2.082075e-16;1.38371e-17;45;0;1.844946e-17;1.488895e-16;2.220446e-16;-2.218172e-17;-5.492474e-18;2.220446e-16;1.668925e-17;0.929097;4.440892e-16;-4.440892e-16;0
0.569178;0.737864;0.938299;8.39567e-13;0;0;8.39567e-13;2.220446e-16;0;1.170457e-17;0;0;0;0;2.226599e-16;-6.152743e-19;1.116376e-16;45;0;1.488501e-16;1.486454e-16;2.220446e-16;-1.942301e-18;2.535144e-17;0;2.729374e-17;0.938299;2.220446e-16;-2.220446e-16;0
0.636344;0.737864;0.952418;8.39567e-13;0;0;8.39567e-13;-1.110223e-16;-4.440892e-16;2.218643e-17;0;0;0;0;-1.095509e-16;-4.455606e-16;1.680048e-16;45;0;2.240065e-16;2.680913e-16;-1.110223e-16;1.412241e-17;3.025045e-17;-4.440892e-16;1.612804e-17;0.952418;-5.551115e-16;5.551115e-16;0
0.703509;0.737864;0.917362;8.39567e-13;0;0;8.39567e-13;0;0;9.930709e-18;0;0;0;0;9.930709e-18;-9.930709e-18;9.930709e-18;45;0;1.324095e-17;1.1467e-17;0;-9.909068e-18;2.977049e-17;0;3.967956e-17;0.917362;0;0;0
0.770674;0.737864;0.910376;8.39567e-13;0;0;8.39567e-13;0;2.220446e-16;9.244045e-18;0;0;0;0;2.224288e-16;-3.841786e-19;1.114065e-16;45;0;1.48542e-16;1.484141e-16;0;6.862582e-18;1.162551e-17;2.220446e-16;4.762927e-18;0.910376;2.220446e-16;-2.220446e-16;0
0.83784;0.737864;0.907038;8.39567e-13;0;0;8.39567e-13;-1.110223e-16;2.220446e-16;-1.913017e-18;0;0;0;0;2.220556e-16;-1.110333e-16;1.665444e-16;45;0;2.220592e-16;1.958374e-16;-1.110223e-16;-4.426514e-17;4.043911e-17;2.220446e-16;8.470426e-17;0.907038;1.110223e-16;-1.110223e-16;0
0.905005;0.737864;0.887144;8.39567e-13;0;0;8.39567e-13;-1.110223e-16;-3.330669e-16;1.219411e-17;0;0;0;0;-1.103546e-16;-3.337346e-16;1.1169e-16;45;0;1.489199e-16;1.963305e-16;-1.110223e-16;-1.067692e-17;3.506513e-17;-3.330669e-16;4.574205e-17;0.887144;-4.440892e-16;4.440892e-16;0
0.97217;0.737864;0.849649;8.39567e-13;0;0;8.39567e-13;0;0;1.026556e-17;0;0;0;0;1.026556e-17;-1.026556e-17;1.026556e-17;45;0;1.368741e-17;1.185365e-17;0;1.819893e-17;2.332187e-18;0;-1.586675e-17;0.849649;0;0;0
1.039336;0.737864;0.825506;8.39567e-13;0;0;8.39567e-13;0;0;1.388182e-17;0;0;0;0;1.388182e-17;-1.388182e-17;1.388182e-17;45;0;1.85091e-17;1.602935e-17;0;2.084258e-17;6.921073e-18;0;-1.39215e-17;0.825506;0;0;0
1.106501;0.737864;0.778693;8.39567e-13;0;0;8.39567e-13;-3.330669e-16;2.220446e-16;1.176429e-17;0;0;0;0;2.222938e-16;-3.333161e-16;2.77805e-16;45;0;3.704066e-16;3.229092e-16;-3.330669e-16;5.845972e-19;2.294398e-17;2.220446e-16;2.235939e-17;0.778693;-1.110223e-16;1.110223e-16;0
1.173667;0.737864;0.751457;8.39567e-13;0;0;8.39567e-13;2.220446e-16;-1.110223e-16;1.872443e-20;0;0;0;0;2.220446e-16;-1.110223e-16;1.665335e-16;45;0;2.220446e-16;1.958249e-16;2.220446e-16;-9.014864e-18;9.052313e-18;-1.110223e-16;1.806718e-17;0.751457;1.110223e-16;-1.110223e-16;0
1.240832;0.737864;0.718422;8.39567e-13;0;0;8.39567e-13;-1.110223e-16;2.220446e-16;5.262518e-17;0;0;0;0;2.301617e-16;-1.191394e-16;1.746505e-16;45;0;2.328674e-16;2.050365e-16;-1.110223e-16;7.394852e-17;3.130184e-17;2.220446e-16;-4.264668e-17;0.718422;1.110223e-16;-1.110223e-16;0
1.307997;0.737864;0.656215;8.39567e-13;0;0;8.39567e-13;-2.220446e-16;-1.110223e-16;6.207163e-17;0;0;0;0;-8.326056e-17;-2.498063e-16;8.327289e-17;45;0;1.110305e-16;1.468734e-16;-2.220446e-16;5.806063e-17;6.608263e-17;-1.110223e-16;8.021987e-18;0.656215;-3.330669e-16;3.330669e-16;0
1.375163;0.737864;0.569362;8.39567e-13;0;0;8.39567e-13;0;-1.110223e-16;-3.113302e-17;0;0;0;0;8.134373e-18;-1.191567e-16;6.364553e-17;45;0;8.48607e-17;8.228337e-17;0;-7.379763e-17;1.15316e-17;-1.110223e-16;8.532923e-17;0.569362;-1.110223e-16;1.110223e-16;0
1.442328;0.737864;0.459655;8.39567e-13;0;0;8.39567e-13;6.661338e-16;2.220446e-16;4.668932e-17;0;0;0;0;6.709894e-16;2.17189e-16;2.269002e-16;45;0;3.025336e-16;3.953431e-16;6.661338e-16;8.878326e-17;4.595388e-18;2.220446e-16;-8.418787e-17;0.459655;8.881784e-16;-8.881784e-16;0
1.509493;0.737864;0.381217;8.39567e-13;0;0;8.39567e-13;-1.110223e-16;-2.220446e-16;-2.28044e-17;0;0;0;0;-1.065207e-16;-2.265462e-16;6.001273e-17;45;0;8.001698e-17;1.308739e-16;-1.110223e-16;-4.062942e-17;-4.97938e-18;-2.220446e-16;3.565004e-17;0.381217;-3.330669e-16;3.330669e-16;0
-0.371137;0.670699;0.353381;8.39567e-13;0;0;8.39567e-13;0;2.220446e-16;-3.238841e-17;0;0;0;0;2.266725e-16;-4.627861e-18;1.156502e-16;45;0;1.542002e-16;1.52681e-16;0;-2.43077e-17;-4.046911e-17;2.220446e-16;-1.616141e-17;0.353381;2.220446e-16;-2.220446e-16;0
-0.303971;0.670699;0.379637;8.39567e-13;0;0;8.39567e-13;2.220446e-16;0;9.110313e-18;0;0;0;0;2.224178e-16;-3.731618e-19;1.113955e-16;45;0;1.485273e-16;1.484031e-16;2.220446e-16;2.480655e-17;-6.585926e-18;0;-3.139248e-17;0.379637;2.220446e-16;-2.220446e-16;0
-0.236806;0.670699;0.481223;8.39567e-13;0;0;8.39567e-13;-2.220446e-16;2.220446e-16;3.372574e-17;0;0;0;0;2.245913e-16;-2.245913e-16;2.245913e-16;45;0;2.99455e-16;2.593357e-16;-2.220446e-16;6.596058e-17;1.490893e-18;2.220446e-16;-6.446969e-17;0.481223;0;0;0
-0.169641;0.670699;0.56103;8.39567e-13;0;0;8.39567e-13;2.220446e-16;0;1.30862e-17;0;0;0;0;2.228132e-16;-7.685753e-19;1.117909e-16;45;0;1.490545e-16;1.48799e-16;2.220446e-16;-6.818888e-18;3.299129e-17;0;3.981018e-17;0.56103;2.220446e-16;-2.220446e-16;0
-0.102475;0.670699;0.619477;8.39567e-13;0;0;8.39567e-13;2.220446e-16;-1.110223e-16;4.195239e-17;0;0;0;0;2.272476e-16;-1.162253e-16;1.717364e-16;45;0;2.289819e-16;2.017277e-16;2.220446e-16;6.874198e-17;1.516279e-17;-1.110223e-16;-5.357919e-17;0.619477;1.110223e-16;-1.110223e-16;0
-0.03531;0.670699;0.688088;8.39567e-13;0;0;8.39567e-13;-1.110223e-16;0;-1.304573e-17;0;0;0;0;1.512345e-18;-1.125347e-16;5.70235e-17;45;0;7.603133e-17;7.553226e-17;-1.110223e-16;-2.661437e-17;5.229052e-19;0;2.713728e-17;0.688088;-1.110223e-16;1.110223e-16;0
0.031855;0.670699;0.699507;8.39567e-13;0;0;8.39567e-13;0;0;3.329141e-17;0;0;0;0;3.329141e-17;-3.329141e-17;3.329141e-17;45;0;4.438854e-17;3.84416e-17;0;3.870074e-17;2.788207e-17;0;-1.081867e-17;0.699507;0;0;0
0.099021;0.670699;0.739665;8.39567e-13;0;0;8.39567e-13;0;0;-4.005372e-18;0;0;0;0;4.005372e-18;-4.005372e-18;4.005372e-18;45;0;5.340496e-18;4.625005e-18;0;-2.415366e-17;1.614292e-17;0;4.029658e-17;0.739665;0;0;0
0.166186;0.670699;0.814624;8.39567e-13;0;0;8.39567e-13;0;-1.110223e-16;-1.499908e-17;0;0;0;0;1.990679e-18;-1.13013e-16;5.750183e-17;45;0;7.666911e-17;7.601424e-17;0;2.563077e-18;-3.256125e-17;-1.110223e-16;-3.512432e-17;0.814624;-1.110223e-16;1.110223e-16;0
0.233352;0.670699;0.845925;8.39567e-13;0;0;8.39567e-13;0;-1.110223e-16;-2.626108e-18;0;0;0;0;6.20829e-20;-1.110844e-16;5.557324e-17;45;0;7.409765e-17;7.407696e-17;0;-1.944213e-17;1.418991e-17;-1.110223e-16;3.363204e-17;0.845925;-1.110223e-16;1.110223e-16;0
0.300517;0.670699;0.86229;8.39567e-13;0;0;8.39567e-13;0;2.220446e-16;-2.650387e-17;0;0;0;0;2.251644e-16;-3.119743e-18;1.14142e-16;45;0;1.521894e-16;1.511602e-16;0;-4.073676e-17;-1.227097e-17;2.220446e-16;2.846579e-17;0.86229;2.220446e-16;-2.220446e-16;0
0.367682;0.670699;0.883374;8.39567e-13;0;0;8.39567e-13;0;2.220446e-16;-1.890611e-17;0;0;0;0;2.236429e-16;-1.598267e-18;1.126206e-16;45;0;1.501608e-16;1.496308e-16;0;1.13744e-17;-4.918663e-17;2.220446e-16;-6.056104e-17;0.883374;2.220446e-16;-2.220446e-16;0
0.434848;0.670699;0.909863;8.39567e-13;0;0;8.39567e-13;0;-1.110223e-16;3.823553e-17;0;0;0;0;1.189392e-17;-1.229162e-16;6.740508e-17;45;0;8.987343e-17;8.61828e-17;0;3.580211e-17;4.066896e-17;-1.110223e-16;4.866847e-18;0.909863;-1.110223e-16;1.110223e-16;0
0.502013;0.670699;0.919526;8.39567e-13;0;0;8.39567e-13;-1.110223e-16;0;-5.517434e-18;0;0;0;0;2.73524e-19;-1.112958e-16;5.578468e-17;45;0;7.437956e-17;7.428856e-17;-1.110223e-16;-2.108004e-17;1.004518e-17;0;3.112522e-17;0.919526;-1.110223e-16;1.110223e-16;0
0.569178;0.670699;0.951618;8.39567e-13;0;0;8.39567e-13;2.220446e-16;0;-3.589123e-17;0;0;0;0;2.277019e-16;-5.657309e-18;1.166796e-16;45;0;1.555728e-16;1.537217e-16;2.220446e-16;-3.758593e-17;-3.419653e-17;0;3.3894e-18;0.951618;2.220446e-16;-2.220446e-16;0
0.636344;0.670699;0.963606;8.39567e-13;0;0;8.39567e-13;2.220446e-16;-1.110223e-16;1.232248e-17;0;0;0;0;2.224999e-16;-1.114776e-16;1.669887e-16;45;0;2.226516e-16;1.963412e-16;2.220446e-16;1.706945e-17;7.575519e-18;-1.110223e-16;-9.493927e-18;0.963606;1.110223e-16;-1.110223e-16;0
0.703509;0.670699;0.913795;8.39567e-13;0;0;8.39567e-13;2.220446e-16;0;5.182014e-18;0;0;0;0;2.221655e-16;-1.208706e-19;1.111432e-16;45;0;1.481909e-16;1.481506e-16;2.220446e-16;2.391293e-17;-1.35489e-17;0;-3.746183e-17;0.913795;2.220446e-16;-2.220446e-16;0
0.770674;0.670699;0.887557;8.39567e-13;0;0;8.39567e-13;-1.110223e-16;0;-5.876342e-18;0;0;0;0;3.101647e-19;-1.113325e-16;5.582132e-17;45;0;7.442842e-17;7.432525e-17;-1.110223e-16;-4.67043e-18;-7.082255e-18;0;-2.411825e-18;0.887557;-1.110223e-16;1.110223e-16;0
0.83784;0.670699;0.90313;8.39567e-13;0;0;8.39567e-13;2.220446e-16;-1.110223e-16;-4.232392e-17;0;0;0;0;2.273387e-16;-1.163164e-16;1.718275e-16;45;0;2.291034e-16;2.018312e-16;2.220446e-16;-4.751985e-17;-3.712798e-17;-1.110223e-16;1.039187e-17;0.90313;1.110223e-16;-1.110223e-16;0
0.905005;0.670699;0.88216;8.39567e-13;0;0;8.39567e-13;-3.330669e-16;2.220446e-16;1.610632e-17;0;0;0;0;2.225115e-16;-3.335338e-16;2.780227e-16;45;0;3.706969e-16;3.231589e-16;-3.330669e-16;2.519582e-17;7.016818e-18;2.220446e-16;-1.8179e-17;0.88216;-1.110223e-16;1.110223e-16;0
0.97217;0.670699;0.839528;8.39567e-13;0;0;8.39567e-13;2.220446e-16;-3.330669e-16;-6.664033e-18;0;0;0;0;2.221246e-16;-3.331469e-16;2.776357e-16;45;0;3.70181e-16;3.227151e-16;2.220446e-16;3.664091e-18;-1.699216e-17;-3.330669e-16;-2.065625e-17;0.839528;-1.110223e-16;1.110223e-16;0
1.039336;0.670699;0.815619;8.39567e-13;0;0;8.39567e-13;0;0;8.221662e-18;0;0;0;0;8.221662e-18;-8.221662e-18;8.221662e-18;45;0;1.096222e-17;9.493558e-18;0;-1.622057e-17;3.26639e-17;0;4.888447e-17;0.815619;0;0;0
1.106501;0.670699;0.775527;8.39567e-13;0;0;8.39567e-13;0;2.220446e-16;6.695535e-17;0;0;0;0;2.406717e-16;-1.862711e-17;1.296494e-16;45;0;1.728659e-16;1.670035e-16;0;7.88022e-17;5.51085e-17;2.220446e-16;-2.369371e-17;0.775527;2.220446e-16;-2.220446e-16;0
1.173667;0.670699;0.756283;8.39567e-13;0;0;8.39567e-13;2.220446e-16;-1.110223e-16;-8.923223e-18;0;0;0;0;2.222835e-16;-1.112612e-16;1.667723e-16;45;0;2.223631e-16;1.960958e-16;2.220446e-16;-4.95468e-17;3.170035e-17;-1.110223e-16;8.124715e-17;0.756283;1.110223e-16;-1.110223e-16;0
1.240832;0.670699;0.71051;8.39567e-13;0;0;8.39567e-13;0;0;7.565586e-17;0;0;0;0;7.565586e-17;-7.565586e-17;7.565586e-17;45;0;1.008745e-16;8.735987e-17;0;1.198036e-16;3.15081e-17;0;-8.829552e-17;0.71051;0;0;0
1.307997;0.670699;0.645787;8.39567e-13;0;0;8.39567e-13;2.220446e-16;0;9.403098e-18;0;0;0;0;2.224421e-16;-3.974888e-19;1.114198e-16;45;0;1.485597e-16;1.484274e-16;2.220446e-16;2.580262e-17;-6.996427e-18;0;-3.279905e-17;0.645787;2.220446e-16;-2.220446e-16;0
1.375163;0.670699;0.560373;8.39567e-13;0;0;8.39567e-13;0;0;1.112062e-17;0;0;0;0;1.112062e-17;-1.112062e-17;1.112062e-17;45;0;1.482749e-17;1.284098e-17;0;-1.346875e-17;3.570999e-17;0;4.917874e-17;0.560373;0;0;0
1.442328;0.670699;0.445204;8.39567e-13;0;0;8.39567e-13;2.220446e-16;0;-5.44979e-17;0;0;0;0;2.346992e-16;-1.265459e-17;1.236769e-16;45;0;1.649025e-16;1.608503e-16;2.220446e-16;-9.148473e-17;-1.751107e-17;0;7.397366e-17;0.445204;2.220446e-16;-2.220446e-16;0
1.509493;0.670699;0.36507;8.39567e-13;0;0;8.39567e-13;2.220446e-16;-2.220446e-16;1.812088e-17;0;0;0;0;2.227828e-16;-2.227828e-16;2.227828e-16;45;0;2.970437e-16;2.572474e-16;2.220446e-16;1.919662e-17;1.704514e-17;-2.220446e-16;-2.15148e-18;0.36507;0;0;0
-0.371137;0.603533;0.334433;8.39567e-13;0;0;8.39567e-13;4.440892e-16;0;-9.916483e-17;0;0;0;0;4.652266e-16;-2.113736e-17;2.43182e-16;45;0;3.242426e-16;3.174315e-16;4.440892e-16;-2.830283e-16;8.469861e-17;0;3.677269e-16;0.334433;4.440892e-16;-4.440892e-16;0
-0.303971;0.603533;0.356938;8.39567e-13;0;0;8.39567e-13;4.440892e-16;2.220446e-16;-8.896175e-17;0;0;0;0;4.753348e-16;1.90799e-16;1.422679e-16;45;0;1.896905e-16;2.762077e-16;4.440892e-16;-1.092437e-16;-6.867977e-17;2.220446e-16;4.056397e-17;0.356938;6.661338e-16;-6.661338e-16;0
-0.236806;0.603533;0.497182;8.39567e-13;0;0;8.39567e-13;0;2.220446e-16;-2.113625e-17;0;0;0;0;2.240387e-16;-1.994036e-18;1.130163e-16;45;0;1.506884e-16;1.500282e-16;0;-4.22725e-17;0;2.220446e-16;4.22725e-17;0.497182;2.220446e-16;-2.220446e-16;0
-0.169641;0.603533;0.565777;8.39567e-13;0;0;8.39567e-13;2.220446e-16;-1.110223e-16;3.229367e-17;0;0;0;0;2.251469e-16;-1.141246e-16;1.696357e-16;45;0;2.261809e-16;1.993437e-16;2.220446e-16;4.544855e-17;1.913879e-17;-1.110223e-16;-2.630976e-17;0.565777;1.110223e-16;-1.110223e-16;0
-0.102475;0.603533;0.609558;8.39567e-13;0;0;8.39567e-13;-2.220446e-16;0;-1.806299e-17;0;0;0;0;1.459799e-18;-2.235044e-16;1.124821e-16;45;0;1.499761e-16;1.494919e-16;-2.220446e-16;-6.724427e-18;-2.940155e-17;0;-2.267712e-17;0.609558;-2.220446e-16;2.220446e-16;0
-0.03531;0.603533;0.694752;8.39567e-13;0;0;8.39567e-13;0;0;4.56079e-18;0;0;0;0;4.56079e-18;-4.56079e-18;4.56079e-18;45;0;6.081053e-18;5.266346e-18;0;1.431049e-18;7.690531e-18;0;6.259482e-18;0.694752;0;0;0
0.031855;0.603533;0.724216;8.39567e-13;0;0;8.39567e-13;-1.110223e-16;0;-9.754589e-18;0;0;0;0;8.505371e-19;-1.118728e-16;5.636169e-17;45;0;7.514892e-17;7.486702e-17;-1.110223e-16;-1.950918e-17;0;0;1.950918e-17;0.724216;-1.110223e-16;1.110223e-16;0
0.099021;0.603533;0.776068;8.39567e-13;0;0;8.39567e-13;2.220446e-16;0;2.875773e-17;0;0;0;0;2.257087e-16;-3.664047e-18;1.146864e-16;45;0;1.529151e-16;1.517085e-16;2.220446e-16;8.974978e-17;-3.223432e-17;0;-1.219841e-16;0.776068;2.220446e-16;-2.220446e-16;0
0.166186;0.603533;0.826994;8.39567e-13;0;0;8.39567e-13;-2.220446e-16;2.220446e-16;-2.801736e-19;0;0;0;0;2.220448e-16;-2.220448e-16;2.220448e-16;45;0;2.960597e-16;2.563952e-16;-2.220446e-16;3.344519e-17;-3.400554e-17;2.220446e-16;-6.745074e-17;0.826994;0;0;0
0.233352;0.603533;0.861335;8.39567e-13;0;0;8.39567e-13;2.220446e-16;2.220446e-16;6.232662e-18;0;0;0;0;2.282773e-16;2.158119e-16;6.232662e-18;45;0;8.310216e-18;1.482046e-16;2.220446e-16;1.246532e-17;0;2.220446e-16;-1.246532e-17;0.861335;4.440892e-16;-4.440892e-16;0
0.300517;0.603533;0.87651;8.39567e-13;0;0;8.39567e-13;0;-1.110223e-16;-1.722424e-17;0;0;0;0;2.610811e-18;-1.136331e-16;5.812196e-17;45;0;7.749595e-17;7.664051e-17;0;1.579513e-17;-5.024362e-17;-1.110223e-16;-6.603875e-17;0.87651;-1.110223e-16;1.110223e-16;0
0.367682;0.603533;0.893353;8.39567e-13;0;0;8.39567e-13;2.220446e-16;-1.110223e-16;4.493544e-18;0;0;0;0;2.221052e-16;-1.110829e-16;1.665941e-16;45;0;2.221254e-16;1.958937e-16;2.220446e-16;-1.870416e-17;2.769125e-17;-1.110223e-16;4.639541e-17;0.893353;1.110223e-16;-1.110223e-16;0
0.434848;0.603533;0.876006;8.39567e-13;0;0;8.39567e-13;2.220446e-16;-1.110223e-16;3.63434e-17;0;0;0;0;2.259642e-16;-1.149419e-16;1.70453e-16;45;0;2.272707e-16;2.002711e-16;2.220446e-16;3.657219e-17;3.611462e-17;-1.110223e-16;-4.575644e-19;0.876006;1.110223e-16;-1.110223e-16;0
0.502013;0.603533;0.890157;8.39567e-13;0;0;8.39567e-13;0;2.220446e-16;-1.612225e-17;0;0;0;0;2.232091e-16;-1.164501e-18;1.121868e-16;45;0;1.495824e-16;1.491957e-16;0;-1.254178e-17;-1.970273e-17;2.220446e-16;-7.160943e-18;0.890157;2.220446e-16;-2.220446e-16;0
0.569178;0.603533;0.921211;8.39567e-13;0;0;8.39567e-13;2.220446e-16;-1.110223e-16;-2.865412e-17;0;0;0;0;2.244918e-16;-1.134695e-16;1.689806e-16;45;0;2.253075e-16;1.986005e-16;2.220446e-16;-1.149393e-16;5.763104e-17;-1.110223e-16;1.725703e-16;0.921211;1.110223e-16;-1.110223e-16;0
0.636344;0.603533;0.951638;8.39567e-13;0;0;8.39567e-13;-3.330669e-16;-3.330669e-16;-3.19194e-17;0;0;0;0;-3.011475e-16;-3.649863e-16;3.19194e-17;45;0;4.25592e-17;2.250828e-16;-3.330669e-16;-1.998323e-17;-4.385556e-17;-3.330669e-16;-2.387233e-17;0.951638;-6.661338e-16;6.661338e-16;0
0.703509;0.603533;0.91767;8.39567e-13;0;0;8.39567e-13;-1.110223e-16;0;3.496975e-17;0;0;0;0;1.009656e-17;-1.211189e-16;6.560771e-17;45;0;8.747694e-17;8.431318e-17;-1.110223e-16;2.515339e-17;4.478612e-17;0;1.963273e-17;0.91767;-1.110223e-16;1.110223e-16;0
0.770674;0.603533;0.916935;8.39567e-13;0;0;8.39567e-13;0;0;-1.595732e-17;0;0;0;0;1.595732e-17;-1.595732e-17;1.595732e-17;45;0;2.127643e-17;1.842593e-17;0;-4.477757e-17;1.286292e-17;0;5.764049e-17;0.916935;0;0;0
0.83784;0.603533;0.913196;8.39567e-13;0;0;8.39567e-13;2.220446e-16;-1.110223e-16;-1.526529e-18;0;0;0;0;2.220516e-16;-1.110293e-16;1.665405e-16;45;0;2.220539e-16;1.958329e-16;2.220446e-16;-2.751032e-17;2.445726e-17;-1.110223e-16;5.196758e-17;0.913196;1.110223e-16;-1.110223e-16;0
0.905005;0.603533;0.87426;8.39567e-13;0;0;8.39567e-13;2.220446e-16;0;1.860547e-17;0;0;0;0;2.235928e-16;-1.548187e-18;1.125705e-16;45;0;1.50094e-16;1.495806e-16;2.220446e-16;1.817438e-17;1.903656e-17;0;8.621779e-19;0.87426;2.220446e-16;-2.220446e-16;0
0.97217;0.603533;0.84894;8.39567e-13;0;0;8.39567e-13;2.220446e-16;-1.110223e-16;1.61157e-17;0;0;0;0;2.228226e-16;-1.118003e-16;1.673114e-16;45;0;2.230819e-16;1.967071e-16;2.220446e-16;2.39401e-18;2.983739e-17;-1.110223e-16;2.744338e-17;0.84894;1.110223e-16;-1.110223e-16;0
1.039336;0.603533;0.841943;8.39567e-13;0;0;8.39567e-13;-1.110223e-16;0;-1.351235e-18;0;0;0;0;1.644323e-20;-1.110387e-16;5.55276e-17;45;0;7.403679e-17;7.403131e-17;-1.110223e-16;-1.199022e-17;9.287747e-18;0;2.127796e-17;0.841943;-1.110223e-16;1.110223e-16;0
1.106501;0.603533;0.800281;8.39567e-13;0;0;8.39567e-13;2.220446e-16;0;1.557718e-17;0;0;0;0;2.231321e-16;-1.087467e-18;1.121098e-16;45;0;1.494797e-16;1.491185e-16;2.220446e-16;-1.407128e-17;4.522565e-17;0;5.929694e-17;0.800281;2.220446e-16;-2.220446e-16;0
1.173667;0.603533;0.766702;8.39567e-13;0;0;8.39567e-13;2.220446e-16;0;-9.257769e-18;0;0;0;0;2.224299e-16;-3.853182e-19;1.114076e-16;45;0;1.485435e-16;1.484152e-16;2.220446e-16;-4.422062e-19;-1.807333e-17;0;-1.763113e-17;0.766702;2.220446e-16;-2.220446e-16;0
1.240832;0.603533;0.698274;8.39567e-13;0;0;8.39567e-13;0;2.220446e-16;-2.289923e-17;0;0;0;0;2.243816e-16;-2.336979e-18;1.133593e-16;45;0;1.511457e-16;1.503728e-16;0;-4.955597e-17;3.757496e-18;2.220446e-16;5.331346e-17;0.698274;2.220446e-16;-2.220446e-16;0
1.307997;0.603533;0.631854;8.39567e-13;0;0;8.39567e-13;0;2.220446e-16;3.956878e-17;0;0;0;0;2.288851e-16;-6.840499e-18;1.178628e-16;45;0;1.571504e-16;1.549206e-16;0;8.097198e-17;-1.834412e-18;2.220446e-16;-8.280638e-17;0.631854;2.220446e-16;-2.220446e-16;0
1.375163;0.603533;0.571982;8.39567e-13;0;0;8.39567e-13;0;0;1.589215e-17;0;0;0;0;1.589215e-17;-1.589215e-17;1.589215e-17;45;0;2.118954e-17;1.835068e-17;0;3.822244e-17;-6.438135e-18;0;-4.466057e-17;0.571982;0;0;0
1.442328;0.603533;0.47687;8.39567e-13;0;0;8.39567e-13;-4.440892e-16;-1.110223e-16;8.595712e-17;0;0;0;0;-9.014706e-17;-4.649644e-16;1.874087e-16;45;0;2.498783e-16;2.847246e-16;-4.440892e-16;1.098601e-16;6.205411e-17;-1.110223e-16;-4.780602e-17;0.47687;-5.551115e-16;5.551115e-16;0
1.509493;0.603533;0.399257;8.39567e-13;0;0;8.39567e-13;-1.110223e-16;2.220446e-16;-2.82966e-17;0;0;0;0;2.244315e-16;-1.134092e-16;1.689204e-16;45;0;2.252271e-16;1.985321e-16;-1.110223e-16;2.06762e-17;-7.72694e-17;2.220446e-16;-9.79456e-17;0.399257;1.110223e-16;-1.110223e-16;0
-0.371137;0.536368;0.218476;8.39567e-13;0;0;8.39567e-13;2.220446e-16;0;-7.148286e-17;0;0;0;0;2.430668e-16;-2.10222e-17;1.320445e-16;45;0;1.760593e-16;1.694871e-16;2.220446e-16;-2.097036e-16;6.673785e-17;0;2.764414e-16;0.218476;2.220446e-16;-2.220446e-16;0
-0.303971;0.536368;0.352116;8.39567e-13;0;0;8.39567e-13;0;0;5.172648e-17;0;0;0;0;5.172648e-17;-5.172648e-17;5.172648e-17;45;0;6.896865e-17;5.97286e-17;0;1.097711e-16;-6.318144e-18;0;-1.160893e-16;0.352116;0;0;0
-0.236806;0.536368;0.479412;8.39567e-13;0;0;8.39567e-13;0;2.220446e-16;2.587397e-17;0;0;0;0;2.250197e-16;-2.975127e-18;1.139974e-16;45;0;1.519966e-16;1.510146e-16;0;2.475259e-17;2.699535e-17;2.220446e-16;2.242759e-18;0.479412;2.220446e-16;-2.220446e-16;0
-0.169641;0.536368;0.564385;8.39567e-13;0;0;8.39567e-13;2.220446e-16;2.220446e-16;3.29546e-18;0;0;0;0;2.253401e-16;2.187491e-16;3.29546e-18;45;0;4.393946e-18;1.480786e-16;2.220446e-16;7.891054e-19;5.801814e-18;2.220446e-16;5.012709e-18;0.564385;4.440892e-16;-4.440892e-16;0
-0.102475;0.536368;0.595486;8.39567e-13;0;0;8.39567e-13;2.220446e-16;-1.110223e-16;1.321692e-17;0;0;0;0;2.225683e-16;-1.11546e-16;1.670571e-16;45;0;2.227428e-16;1.964187e-16;2.220446e-16;7.940359e-18;1.849348e-17;-1.110223e-16;1.055312e-17;0.595486;1.110223e-16;-1.110223e-16;0
-0.03531;0.536368;0.696134;8.39567e-13;0;0;8.39567e-13;2.220446e-16;-1.110223e-16;-7.286524e-18;0;0;0;0;2.222039e-16;-1.111816e-16;1.666928e-16;45;0;2.222571e-16;1.960056e-16;2.220446e-16;-1.457305e-17;0;-1.110223e-16;1.457305e-17;0.696134;1.110223e-16;-1.110223e-16;0
0.031855;0.536368;0.737213;8.39567e-13;0;0;8.39567e-13;0;-1.110223e-16;2.753619e-17;0;0;0;0;6.454401e-18;-1.174767e-16;6.196555e-17;45;0;8.262074e-17;8.055551e-17;0;4.647084e-17;8.601537e-18;-1.110223e-16;-3.78693e-17;0.737213;-1.110223e-16;1.110223e-16;0
0.099021;0.536368;0.787943;8.39567e-13;0;0;8.39567e-13;-3.330669e-16;2.220446e-16;1.112479e-17;0;0;0;0;2.222675e-16;-3.332898e-16;2.777786e-16;45;0;3.703715e-16;3.22879e-16;-3.330669e-16;7.074559e-17;-4.849601e-17;2.220446e-16;-1.192416e-16;0.787943;-1.110223e-16;1.110223e-16;0
0.166186;0.536368;0.833207;8.39567e-13;0;0;8.39567e-13;2.220446e-16;0;-4.716196e-17;0;0;0;0;2.316465e-16;-9.601914e-18;1.206242e-16;45;0;1.608323e-16;1.577291e-16;2.220446e-16;-7.758567e-17;-1.673824e-17;0;6.084743e-17;0.833207;2.220446e-16;-2.220446e-16;0
0.233352;0.536368;0.873519;8.39567e-13;0;0;8.39567e-13;0;2.220446e-16;-1.757777e-17;0;0;0;0;2.234275e-16;-1.382901e-18;1.124052e-16;45;0;1.498736e-16;1.494148e-16;0;8.232628e-18;-4.338817e-17;2.220446e-16;-5.16208e-17;0.873519;2.220446e-16;-2.220446e-16;0
0.300517;0.536368;0.881371;8.39567e-13;0;0;8.39567e-13;-1.110223e-16;-1.110223e-16;-8.182323e-18;0;0;0;0;-1.0284e-16;-1.192046e-16;8.182323e-18;45;0;1.090976e-17;7.461547e-17;-1.110223e-16;-3.788519e-17;2.152055e-17;-1.110223e-16;5.940574e-17;0.881371;-2.220446e-16;2.220446e-16;0
0.367682;0.536368;0.898299;8.39567e-13;0;0;8.39567e-13;2.220446e-16;0;-7.756186e-18;0;0;0;0;2.223152e-16;-2.705996e-19;1.112929e-16;45;0;1.483905e-16;1.483004e-16;2.220446e-16;6.653483e-18;-2.216585e-17;0;-2.881934e-17;0.898299;2.220446e-16;-2.220446e-16;0
0.434848;0.536368;0.880708;8.39567e-13;0;0;8.39567e-13;-1.110223e-16;0;3.052897e-17;0;0;0;0;7.841086e-18;-1.188634e-16;6.335223e-17;45;0;8.446965e-17;8.198104e-17;-1.110223e-16;2.620646e-17;3.485148e-17;0;8.645019e-18;0.880708;-1.110223e-16;1.110223e-16;0
0.502013;0.536368;0.898926;8.39567e-13;0;0;8.39567e-13;2.220446e-16;0;-5.984496e-18;0;0;0;0;2.222058e-16;-1.611758e-19;1.111835e-16;45;0;1.482446e-16;1.481909e-16;2.220446e-16;-4.343541e-18;-7.625451e-18;0;-3.281909e-18;0.898926;2.220446e-16;-2.220446e-16;0
0.569178;0.536368;0.90583;8.39567e-13;0;0;8.39567e-13;0;0;3.070054e-17;0;0;0;0;3.070054e-17;-3.070054e-17;3.070054e-17;45;0;4.093405e-17;3.544993e-17;0;2.124262e-17;4.015845e-17;0;1.891584e-17;0.90583;0;0;0
0.636344;0.536368;0.93313;8.39567e-13;0;0;8.39567e-13;2.220446e-16;2.220446e-16;-3.653916e-17;0;0;0;0;2.585838e-16;1.855054e-16;3.653916e-17;45;0;4.871888e-17;1.539251e-16;2.220446e-16;-2.702732e-17;-4.6051e-17;2.220446e-16;-1.902369e-17;0.93313;4.440892e-16;-4.440892e-16;0
0.703509;0.536368;0.928571;8.39567e-13;0;0;8.39567e-13;0;2.220446e-16;-4.353443e-17;0;0;0;0;2.30275e-16;-8.230364e-18;1.192527e-16;45;0;1.590036e-16;1.563323e-16;0;-5.2375e-17;-3.469387e-17;2.220446e-16;1.768113e-17;0.928571;2.220446e-16;-2.220446e-16;0
0.770674;0.536368;0.935722;8.39567e-13;0;0;8.39567e-13;2.220446e-16;2.220446e-16;-4.459953e-17;0;0;0;0;2.666441e-16;1.774451e-16;4.459953e-17;45;0;5.946604e-17;1.567321e-16;2.220446e-16;-5.432851e-17;-3.487055e-17;2.220446e-16;1.945796e-17;0.935722;4.440892e-16;-4.440892e-16;0
0.83784;0.536368;0.898828;8.39567e-13;0;0;8.39567e-13;-1.110223e-16;0;1.991887e-17;0;0;0;0;3.465535e-18;-1.144878e-16;5.897669e-17;45;0;7.863558e-17;7.750623e-17;-1.110223e-16;3.983775e-17;0;0;-3.983775e-17;0.898828;-1.110223e-16;1.110223e-16;0
0.905005;0.536368;0.856248;8.39567e-13;0;0;8.39567e-13;0;-1.110223e-16;-1.645289e-17;0;0;0;0;2.38691e-18;-1.134092e-16;5.789806e-17;45;0;7.719741e-17;7.64142e-17;0;2.572491e-18;-3.547827e-17;-1.110223e-16;-3.805076e-17;0.856248;-1.110223e-16;1.110223e-16;0
0.97217;0.536368;0.872345;8.39567e-13;0;0;8.39567e-13;0;0;-4.805952e-17;0;0;0;0;4.805952e-17;-4.805952e-17;4.805952e-17;45;0;6.407937e-17;5.549436e-17;0;-1.431267e-17;-8.180638e-17;0;-6.749372e-17;0.872345;0;0;0
1.039336;0.536368;0.839414;8.39567e-13;0;0;8.39567e-13;-3.330669e-16;-1.110223e-16;1.446138e-17;0;0;0;0;-1.100844e-16;-3.340048e-16;1.119602e-16;45;0;1.492803e-16;1.965356e-16;-3.330669e-16;3.782744e-17;-8.904681e-18;-1.110223e-16;-4.673212e-17;0.839414;-4.440892e-16;4.440892e-16;0
1.106501;0.536368;0.784361;8.39567e-13;0;0;8.39567e-13;-3.330669e-16;2.220446e-16;9.458311e-18;0;0;0;0;2.222057e-16;-3.33228e-16;2.777169e-16;45;0;3.702892e-16;3.228081e-16;-3.330669e-16;1.3432e-17;5.484622e-18;2.220446e-16;-7.947378e-18;0.784361;-1.110223e-16;1.110223e-16;0
1.173667;0.536368;0.761661;8.39567e-13;0;0;8.39567e-13;-4.440892e-16;2.220446e-16;-1.680893e-17;0;0;0;0;2.224685e-16;-4.445131e-16;3.334908e-16;45;0;4.446544e-16;3.921305e-16;-4.440892e-16;-3.784575e-17;4.227881e-18;2.220446e-16;4.207363e-17;0.761661;-2.220446e-16;2.220446e-16;0
1.240832;0.536368;0.701349;8.39567e-13;0;0;8.39567e-13;2.220446e-16;2.220446e-16;-3.124262e-17;0;0;0;0;2.532872e-16;1.90802e-16;3.124262e-17;45;0;4.165682e-17;1.523623e-16;2.220446e-16;-7.567074e-17;1.31855e-17;2.220446e-16;8.885624e-17;0.701349;4.440892e-16;-4.440892e-16;0
1.307997;0.536368;0.640863;8.39567e-13;0;0;8.39567e-13;0;-1.110223e-16;-1.851634e-17;0;0;0;0;3.006732e-18;-1.14029e-16;5.851788e-17;45;0;7.802384e-17;7.704116e-17;0;-4.434204e-17;7.309362e-18;-1.110223e-16;5.16514e-17;0.640863;-1.110223e-16;1.110223e-16;0
1.375163;0.536368;0.572418;8.39567e-13;0;0;8.39567e-13;0;0;-3.999004e-17;0;0;0;0;3.999004e-17;-3.999004e-17;3.999004e-17;45;0;5.332005e-17;4.617651e-17;0;-8.653455e-17;6.554484e-18;0;9.308904e-17;0.572418;0;0;0
1.442328;0.536368;0.486704;8.39567e-13;0;0;8.39567e-13;0;2.220446e-16;-5.802556e-18;0;0;0;0;2.221961e-16;-1.515312e-19;1.111738e-16;45;0;1.482318e-16;1.481813e-16;0;-1.160511e-17;0;2.220446e-16;1.160511e-17;0.486704;2.220446e-16;-2.220446e-16;0
1.509493;0.536368;0.410456;8.39567e-13;0;0;8.39567e-13;-1.110223e-16;-2.220446e-16;-3.053648e-17;0;0;0;0;-1.031776e-16;-2.298893e-16;6.335585e-17;45;0;8.447447e-17;1.329583e-16;-1.110223e-16;1.703299e-17;-7.810594e-17;-2.220446e-16;-9.513893e-17;0.410456;-3.330669e-16;3.330669e-16;0
-0.371137;0.469203;0.272725;8.39567e-13;0;0;8.39567e-13;-1.110223e-16;0;-4.832651e-17;0;0;0;0;1.808871e-17;-1.29111e-16;7.359986e-17;45;0;9.813315e-17;9.269377e-17;-1.110223e-16;-9.665302e-17;0;0;9.665302e-17;0.272725;-1.110223e-16;1.110223e-16;0
-0.303971;0.469203;0.377073;8.39567e-13;0;0;8.39567e-13;0;-1.110223e-16;2.097285e-18;0;0;0;0;3.960498e-20;-1.110619e-16;5.555076e-17;45;0;7.406768e-17;7.405448e-17;0;4.19457e-18;0;-1.110223e-16;-4.19457e-18;0.377073;-1.110223e-16;1.110223e-16;0
-0.236806;0.469203;0.488961;8.39567e-13;0;0;8.39567e-13;-2.220446e-16;0;2.095209e-17;0;0;0;0;1.959739e-18;-2.240043e-16;1.12982e-16;45;0;1.506427e-16;1.499937e-16;-2.220446e-16;3.628054e-17;5.623633e-18;0;-3.06569e-17;0.488961;-2.220446e-16;2.220446e-16;0
-0.169641;0.469203;0.576375;8.39567e-13;0;0;8.39567e-13;2.220446e-16;2.220446e-16;3.851774e-17;0;0;0;0;2.605623e-16;1.835269e-16;3.851774e-17;45;0;5.135699e-17;1.54567e-16;2.220446e-16;5.448847e-17;2.254701e-17;2.220446e-16;-3.194146e-17;0.576375;4.440892e-16;-4.440892e-16;0
-0.102475;0.469203;0.603413;8.39567e-13;0;0;8.39567e-13;0;2.220446e-16;-2.584543e-17;0;0;0;0;2.250133e-16;-2.968653e-18;1.13991e-16;45;0;1.519879e-16;1.510081e-16;0;-1.092554e-17;-4.076533e-17;2.220446e-16;-2.983979e-17;0.603413;2.220446e-16;-2.220446e-16;0
-0.03531;0.469203;0.668066;8.39567e-13;0;0;8.39567e-13;-1.110223e-16;0;-3.643034e-17;0;0;0;0;1.088657e-17;-1.219089e-16;6.639773e-17;45;0;8.85303e-17;8.513378e-17;-1.110223e-16;-6.104484e-17;-1.181585e-17;0;4.9229e-17;0.668066;-1.110223e-16;1.110223e-16;0
0.031855;0.469203;0.704536;8.39567e-13;0;0;8.39567e-13;0;0;7.239769e-18;0;0;0;0;7.239769e-18;-7.239769e-18;7.239769e-18;45;0;9.653027e-18;8.359766e-18;0;4.069664e-17;-2.62171e-17;0;-6.691374e-17;0.704536;0;0;0
0.099021;0.469203;0.742006;8.39567e-13;0;0;8.39567e-13;-1.110223e-16;0;-1.499939e-18;0;0;0;0;2.026085e-20;-1.110426e-16;5.553141e-17;45;0;7.404188e-17;7.403513e-17;-1.110223e-16;1.335518e-17;-1.635505e-17;0;-2.971023e-17;0.742006;-1.110223e-16;1.110223e-16;0
0.166186;0.469203;0.814823;8.39567e-13;0;0;8.39567e-13;2.220446e-16;2.220446e-16;-7.157583e-17;0;0;0;0;2.936204e-16;1.504688e-16;7.157583e-17;45;0;9.543443e-17;1.695394e-16;2.220446e-16;-8.080518e-17;-6.234646e-17;2.220446e-16;1.845872e-17;0.814823;4.440892e-16;-4.440892e-16;0
0.233352;0.469203;0.866322;8.39567e-13;0;0;8.39567e-13;0;2.220446e-16;-3.043677e-17;0;0;0;0;2.261411e-16;-4.096543e-18;1.151188e-16;45;0;1.534918e-16;1.521447e-16;0;-3.269482e-17;-2.817871e-17;2.220446e-16;4.516108e-18;0.866322;2.220446e-16;-2.220446e-16;0
0.300517;0.469203;0.864802;8.39567e-13;0;0;8.39567e-13;0;2.220446e-16;-2.442445e-17;0;0;0;0;2.246995e-16;-2.654895e-18;1.136772e-16;45;0;1.515696e-16;1.506924e-16;0;-2.104598e-17;-2.780292e-17;2.220446e-16;-6.756941e-18;0.864802;2.220446e-16;-2.220446e-16;0
0.367682;0.469203;0.892468;8.39567e-13;0;0;8.39567e-13;-1.110223e-16;0;1.111215e-17;0;0;0;0;1.101284e-18;-1.121236e-16;5.661243e-17;45;0;7.548325e-17;7.511885e-17;-1.110223e-16;2.699608e-17;-4.771777e-18;0;-3.176785e-17;0.892468;-1.110223e-16;1.110223e-16;0
0.434848;0.469203;0.898181;8.39567e-13;0;0;8.39567e-13;2.220446e-16;-3.330669e-16;8.580684e-18;0;0;0;0;2.221772e-16;-3.331995e-16;2.776884e-16;45;0;3.702512e-16;3.227754e-16;2.220446e-16;-5.950726e-18;2.311209e-17;-3.330669e-16;2.906282e-17;0.898181;-1.110223e-16;1.110223e-16;0
0.502013;0.469203;0.909682;8.39567e-13;0;0;8.39567e-13;0;0;-2.916492e-18;0;0;0;0;2.916492e-18;-2.916492e-18;2.916492e-18;45;0;3.888656e-18;3.367675e-18;0;-2.387701e-17;1.804403e-17;0;4.192104e-17;0.909682;0;0;0
0.569178;0.469203;0.897315;8.39567e-13;0;0;8.39567e-13;2.220446e-16;0;-3.854413e-18;0;0;0;0;2.221115e-16;-6.688759e-20;1.110892e-16;45;0;1.481189e-16;1.480966e-16;2.220446e-16;-2.227851e-17;1.456968e-17;0;3.684819e-17;0.897315;2.220446e-16;-2.220446e-16;0
0.636344;0.469203;0.90457;8.39567e-13;0;0;8.39567e-13;-1.110223e-16;0;4.718495e-17;0;0;0;0;1.734423e-17;-1.283665e-16;7.285538e-17;45;0;9.714051e-17;9.190626e-17;-1.110223e-16;4.86552e-17;4.571469e-17;0;-2.940509e-18;0.90457;-1.110223e-16;1.110223e-16;0
0.703509;0.469203;0.923489;8.39567e-13;0;0;8.39567e-13;-3.330669e-16;2.220446e-16;-3.171827e-18;0;0;0;0;2.220627e-16;-3.33085e-16;2.775739e-16;45;0;3.700985e-16;3.226441e-16;-3.330669e-16;1.943048e-17;-2.577413e-17;2.220446e-16;-4.520461e-17;0.923489;-1.110223e-16;1.110223e-16;0
0.770674;0.469203;0.913906;8.39567e-13;0;0;8.39567e-13;0;0;1.895103e-17;0;0;0;0;1.895103e-17;-1.895103e-17;1.895103e-17;45;0;2.526803e-17;2.188276e-17;0;4.37128e-18;3.353077e-17;0;2.915949e-17;0.913906;0;0;0
0.83784;0.469203;0.856675;8.39567e-13;0;0;8.39567e-13;2.220446e-16;0;-3.359835e-17;0;0;0;0;2.270171e-16;-4.972528e-18;1.159948e-16;45;0;1.546598e-16;1.530292e-16;2.220446e-16;-9.717409e-18;-5.747929e-17;0;-4.776188e-17;0.856675;2.220446e-16;-2.220446e-16;0
0.905005;0.469203;0.853389;8.39567e-13;0;0;8.39567e-13;-1.110223e-16;0;-5.861681e-18;0;0;0;0;3.086231e-19;-1.113309e-16;5.581978e-17;45;0;7.442636e-17;7.432371e-17;-1.110223e-16;4.464617e-18;-1.618798e-17;0;-2.06526e-17;0.853389;-1.110223e-16;1.110223e-16;0
0.97217;0.469203;0.879652;8.39567e-13;0;0;8.39567e-13;-1.110223e-16;2.220446e-16;-8.19606e-18;0;0;0;0;2.222462e-16;-1.112239e-16;1.66735e-16;45;0;2.223134e-16;1.960535e-16;-1.110223e-16;-4.379368e-18;-1.201275e-17;2.220446e-16;-7.633384e-18;0.879652;1.110223e-16;-1.110223e-16;0
1.039336;0.469203;0.847639;8.39567e-13;0;0;8.39567e-13;-1.110223e-16;0;3.240352e-17;0;0;0;0;8.765409e-18;-1.197877e-16;6.427656e-17;45;0;8.570208e-17;8.293482e-17;-1.110223e-16;4.067926e-17;2.412778e-17;0;-1.655147e-17;0.847639;-1.110223e-16;1.110223e-16;0
1.106501;0.469203;0.797375;8.39567e-13;0;0;8.39567e-13;2.220446e-16;-1.110223e-16;-2.631984e-18;0;0;0;0;2.220654e-16;-1.110431e-16;1.665542e-16;45;0;2.220723e-16;1.958485e-16;2.220446e-16;-3.096038e-18;-2.167931e-18;-1.110223e-16;9.281073e-19;0.797375;1.110223e-16;-1.110223e-16;0
1.173667;0.469203;0.754788;8.39567e-13;0;0;8.39567e-13;-1.110223e-16;0;2.474739e-17;0;0;0;0;5.266486e-18;-1.162888e-16;6.077764e-17;45;0;8.103685e-17;7.933964e-17;-1.110223e-16;1.238237e-17;3.711241e-17;0;2.473003e-17;0.754788;-1.110223e-16;1.110223e-16;0
1.240832;0.469203;0.693874;8.39567e-13;0;0;8.39567e-13;0;2.220446e-16;3.940289e-17;0;0;0;0;2.288295e-16;-6.784909e-18;1.178072e-16;45;0;1.570763e-16;1.548642e-16;0;5.900761e-17;1.979816e-17;2.220446e-16;-3.920945e-17;0.693874;2.220446e-16;-2.220446e-16;0
1.307997;0.469203;0.626739;8.39567e-13;0;0;8.39567e-13;2.220446e-16;0;-5.088138e-18;0;0;0;0;2.221612e-16;-1.165332e-19;1.111388e-16;45;0;1.481851e-16;1.481463e-16;2.220446e-16;-2.258162e-17;1.240535e-17;0;3.498697e-17;0.626739;2.220446e-16;-2.220446e-16;0
1.375163;0.469203;0.546106;8.39567e-13;0;0;8.39567e-13;4.440892e-16;2.220446e-16;4.083578e-17;0;0;0;0;4.513611e-16;2.147727e-16;1.182942e-16;45;0;1.577256e-16;2.606949e-16;4.440892e-16;4.390329e-17;3.776827e-17;2.220446e-16;-6.135017e-18;0.546106;6.661338e-16;-6.661338e-16;0
1.442328;0.469203;0.450479;8.39567e-13;0;0;8.39567e-13;-2.220446e-16;-1.110223e-16;5.770025e-18;0;0;0;0;-1.107232e-16;-2.223437e-16;5.581023e-17;45;0;7.441363e-17;1.283705e-16;-2.220446e-16;1.05081e-19;1.143497e-17;-1.110223e-16;1.132989e-17;0.450479;-3.330669e-16;3.330669e-16;0
1.509493;0.469203;0.350081;8.39567e-13;0;0;8.39567e-13;-1.110223e-16;0;5.067643e-17;0;0;0;0;1.96526e-17;-1.306749e-16;7.516374e-17;45;0;1.002183e-16;9.435218e-17;-1.110223e-16;1.478281e-17;8.657006e-17;0;7.178725e-17;0.350081;-1.110223e-16;1.110223e-16;0
-0.371137;0.402037;0.300623;8.39567e-13;0;0;8.39567e-13;0;2.220446e-16;5.643263e-17;0;0;0;0;2.355638e-16;-1.351923e-17;1.245415e-16;45;0;1.660554e-16;1.617374e-16;0;1.486122e-17;9.800405e-17;2.220446e-16;8.314283e-17;0.300623;2.220446e-16;-2.220446e-16;0
-0.303971;0.402037;0.377296;8.39567e-13;0;0;8.39567e-13;0;-1.110223e-16;3.692107e-17;0;0;0;0;1.115708e-17;-1.221794e-16;6.666824e-17;45;0;8.889098e-17;8.541519e-17;0;9.012096e-17;-1.627881e-17;-1.110223e-16;-1.063998e-16;0.377296;-1.110223e-16;1.110223e-16;0
-0.236806;0.402037;0.492445;8.39567e-13;0;0;8.39567e-13;0;0;3.826426e-17;0;0;0;0;3.826426e-17;-3.826426e-17;3.826426e-17;45;0;5.101901e-17;4.418376e-17;0;5.077528e-17;2.575324e-17;0;-2.502203e-17;0.492445;0;0;0
-0.169641;0.402037;0.587288;8.39567e-13;0;0;8.39567e-13;0;2.220446e-16;2.330515e-17;0;0;0;0;2.244643e-16;-2.419673e-18;1.13442e-16;45;0;1.51256e-16;1.504559e-16;0;6.418226e-17;-1.757196e-17;2.220446e-16;-8.175422e-17;0.587288;2.220446e-16;-2.220446e-16;0
-0.102475;0.402037;0.626303;8.39567e-13;0;0;8.39567e-13;2.220446e-16;2.220446e-16;1.703073e-17;0;0;0;0;2.390753e-16;2.050139e-16;1.703073e-17;45;0;2.270764e-17;1.493303e-16;2.220446e-16;2.702509e-17;7.036365e-18;2.220446e-16;-1.998873e-17;0.626303;4.440892e-16;-4.440892e-16;0
-0.03531;0.402037;0.671258;8.39567e-13;0;0;8.39567e-13;-2.220446e-16;0;1.331844e-17;0;0;0;0;7.959984e-19;-2.228406e-16;1.118183e-16;45;0;1.490911e-16;1.488264e-16;-2.220446e-16;7.523059e-17;-4.859372e-17;0;-1.238243e-16;0.671258;-2.220446e-16;2.220446e-16;0
0.031855;0.402037;0.729902;8.39567e-13;0;0;8.39567e-13;2.220446e-16;2.220446e-16;6.690668e-17;0;0;0;0;2.889513e-16;1.551379e-16;6.690668e-17;45;0;8.920891e-17;1.669775e-16;2.220446e-16;5.951089e-17;7.430247e-17;2.220446e-16;1.479159e-17;0.729902;4.440892e-16;-4.440892e-16;0
0.099021;0.402037;0.750497;8.39567e-13;0;0;8.39567e-13;2.220446e-16;2.220446e-16;1.183893e-17;0;0;0;0;2.338835e-16;2.102057e-16;1.183893e-17;45;0;1.578524e-17;1.486596e-16;2.220446e-16;5.959418e-18;1.771845e-17;2.220446e-16;1.175903e-17;0.750497;4.440892e-16;-4.440892e-16;0
0.166186;0.402037;0.786854;8.39567e-13;0;0;8.39567e-13;2.220446e-16;-1.110223e-16;-1.172453e-17;0;0;0;0;2.224568e-16;-1.114345e-16;1.669457e-16;45;0;2.225942e-16;1.962924e-16;2.220446e-16;-1.563684e-17;-7.812221e-18;-1.110223e-16;7.824617e-18;0.786854;1.110223e-16;-1.110223e-16;0
0.233352;0.402037;0.865189;8.39567e-13;0;0;8.39567e-13;0;0;3.087022e-17;0;0;0;0;3.087022e-17;-3.087022e-17;3.087022e-17;45;0;4.116029e-17;3.564586e-17;0;4.309341e-17;1.864703e-17;0;-2.444638e-17;0.865189;0;0;0
0.300517;0.402037;0.8691;8.39567e-13;0;0;8.39567e-13;0;2.220446e-16;-7.033467e-19;0;0;0;0;2.220468e-16;-2.227893e-21;1.110245e-16;45;0;1.480327e-16;1.48032e-16;0;-1.241464e-17;1.100794e-17;2.220446e-16;2.342258e-17;0.8691;2.220446e-16;-2.220446e-16;0
0.367682;0.402037;0.896913;8.39567e-13;0;0;8.39567e-13;2.220446e-16;2.220446e-16;1.445722e-17;0;0;0;0;2.365018e-16;2.075874e-16;1.445722e-17;45;0;1.92763e-17;1.489681e-16;2.220446e-16;-1.372841e-18;3.028729e-17;2.220446e-16;3.166013e-17;0.896913;4.440892e-16;-4.440892e-16;0
0.434848;0.402037;0.891534;8.39567e-13;0;0;8.39567e-13;-1.110223e-16;2.220446e-16;4.611603e-17;0;0;0;0;2.283119e-16;-1.172895e-16;1.728007e-16;45;0;2.304009e-16;2.029359e-16;-1.110223e-16;5.776988e-17;3.446219e-17;2.220446e-16;-2.330768e-17;0.891534;1.110223e-16;-1.110223e-16;0
0.502013;0.402037;0.917169;8.39567e-13;0;0;8.39567e-13;-3.330669e-16;-1.110223e-16;-5.134387e-18;0;0;0;0;-1.109036e-16;-3.331856e-16;1.11141e-16;45;0;1.48188e-16;1.959147e-16;-3.330669e-16;-3.211751e-17;2.184874e-17;-1.110223e-16;5.396625e-17;0.917169;-4.440892e-16;4.440892e-16;0
0.569178;0.402037;0.908348;8.39567e-13;0;0;8.39567e-13;0;0;4.008632e-18;0;0;0;0;4.008632e-18;-4.008632e-18;4.008632e-18;45;0;5.344843e-18;4.62877e-18;0;-6.143439e-18;1.41607e-17;0;2.030414e-17;0.908348;0;0;0
0.636344;0.402037;0.899395;8.39567e-13;0;0;8.39567e-13;2.220446e-16;0;1.540849e-17;0;0;0;0;2.231088e-16;-1.064152e-18;1.120865e-16;45;0;1.494486e-16;1.490951e-16;2.220446e-16;-3.526122e-17;6.60782e-17;0;1.013394e-16;0.899395;2.220446e-16;-2.220446e-16;0
0.703509;0.402037;0.928163;8.39567e-13;0;0;8.39567e-13;2.220446e-16;2.220446e-16;8.381116e-18;0;0;0;0;2.304257e-16;2.136635e-16;8.381116e-18;45;0;1.117482e-17;1.483458e-16;2.220446e-16;-1.933974e-17;3.610198e-17;2.220446e-16;5.544172e-17;0.928163;4.440892e-16;-4.440892e-16;0
0.770674;0.402037;0.910603;8.39567e-13;0;0;8.39567e-13;-1.110223e-16;0;1.387149e-17;0;0;0;0;1.706907e-18;-1.127292e-16;5.721805e-17;45;0;7.629074e-17;7.572819e-17;-1.110223e-16;-6.592884e-18;3.433587e-17;0;4.092875e-17;0.910603;-1.110223e-16;1.110223e-16;0
0.83784;0.402037;0.889304;8.39567e-13;0;0;8.39567e-13;2.220446e-16;-1.110223e-16;1.353222e-17;0;0;0;0;2.225935e-16;-1.115712e-16;1.670824e-16;45;0;2.227765e-16;1.964474e-16;2.220446e-16;2.706443e-17;0;-1.110223e-16;-2.706443e-17;0.889304;1.110223e-16;-1.110223e-16;0
0.905005;0.402037;0.878146;8.39567e-13;0;0;8.39567e-13;2.220446e-16;-1.110223e-16;1.172639e-17;0;0;0;0;2.22457e-16;-1.114346e-16;1.669458e-16;45;0;2.225944e-16;1.962925e-16;2.220446e-16;8.137452e-18;1.531533e-17;-1.110223e-16;7.177879e-18;0.878146;1.110223e-16;-1.110223e-16;0
0.97217;0.402037;0.864133;8.39567e-13;0;0;8.39567e-13;2.220446e-16;0;-7.594654e-18;0;0;0;0;2.223041e-16;-2.594589e-19;1.112818e-16;45;0;1.483757e-16;1.482893e-16;2.220446e-16;1.535098e-18;-1.67244e-17;0;-1.82595e-17;0.864133;2.220446e-16;-2.220446e-16;0
1.039336;0.402037;0.842281;8.39567e-13;0;0;8.39567e-13;0;-3.330669e-16;8.2417e-18;0;0;0;0;2.038151e-19;-3.332707e-16;1.667373e-16;45;0;2.223164e-16;2.222484e-16;0;5.106606e-17;-3.458266e-17;-3.330669e-16;-8.564873e-17;0.842281;-3.330669e-16;3.330669e-16;0
1.106501;0.402037;0.789819;8.39567e-13;0;0;8.39567e-13;-1.110223e-16;0;-5.451118e-17;0;0;0;0;2.22896e-17;-1.333119e-16;7.780075e-17;45;0;1.037343e-16;9.716048e-17;-1.110223e-16;-9.605272e-17;-1.296964e-17;0;8.308308e-17;0.789819;-1.110223e-16;1.110223e-16;0
1.173667;0.402037;0.763025;8.39567e-13;0;0;8.39567e-13;2.220446e-16;2.220446e-16;6.205956e-19;0;0;0;0;2.226652e-16;2.21424e-16;6.205956e-19;45;0;8.274608e-19;1.480315e-16;2.220446e-16;-7.134839e-18;8.37603e-18;2.220446e-16;1.551087e-17;0.763025;4.440892e-16;-4.440892e-16;0
1.240832;0.402037;0.697593;8.39567e-13;0;0;8.39567e-13;2.220446e-16;2.220446e-16;-3.440309e-17;0;0;0;0;2.564477e-16;1.876415e-16;3.440309e-17;45;0;4.587079e-17;1.532674e-16;2.220446e-16;-2.248232e-17;-4.632387e-17;2.220446e-16;-2.384155e-17;0.697593;4.440892e-16;-4.440892e-16;0
1.307997;0.402037;0.639749;8.39567e-13;0;0;8.39567e-13;0;2.220446e-16;-3.469635e-17;0;0;0;0;2.273399e-16;-5.295315e-18;1.163176e-16;45;0;1.550902e-16;1.533555e-16;0;-2.696372e-17;-4.242897e-17;2.220446e-16;-1.546524e-17;0.639749;2.220446e-16;-2.220446e-16;0
1.375163;0.402037;0.560201;8.39567e-13;0;0;8.39567e-13;-2.220446e-16;-3.330669e-16;3.103306e-17;0;0;0;0;-2.139591e-16;-3.411524e-16;6.359669e-17;45;0;8.479559e-17;1.990766e-16;-2.220446e-16;6.206613e-17;0;-3.330669e-16;-6.206613e-17;0.560201;-5.551115e-16;5.551115e-16;0
1.442328;0.402037;0.459796;8.39567e-13;0;0;8.39567e-13;4.440892e-16;0;-1.131276e-17;0;0;0;0;4.443772e-16;-2.879954e-19;2.223326e-16;45;0;2.964435e-16;2.963475e-16;4.440892e-16;-1.734403e-17;-5.281492e-18;0;1.206254e-17;0.459796;4.440892e-16;-4.440892e-16;0
1.509493;0.402037;0.330656;8.39567e-13;0;0;8.39567e-13;2.220446e-16;0;-3.598788e-17;0;0;0;0;2.277317e-16;-5.687078e-18;1.167094e-16;45;0;1.556125e-16;1.537519e-16;2.220446e-16;-2.946886e-17;-4.250691e-17;0;-1.303805e-17;0.330656;2.220446e-16;-2.220446e-16;0
-0.371137;0.334872;0.269511;8.39567e-13;0;0;8.39567e-13;-2.220446e-16;2.220446e-16;7.780295e-17;0;0;0;0;2.352809e-16;-2.352809e-16;2.352809e-16;45;0;3.137079e-16;2.71679e-16;-2.220446e-16;1.104028e-16;4.520313e-17;2.220446e-16;-6.519966e-17;0.269511;0;0;0
-0.303971;0.334872;0.386031;8.39567e-13;0;0;8.39567e-13;2.220446e-16;2.220446e-16;-4.389274e-17;0;0;0;0;2.659373e-16;1.781519e-16;4.389274e-17;45;0;5.852366e-17;1.564659e-16;2.220446e-16;-8.194549e-17;-5.839998e-18;2.220446e-16;7.610549e-17;0.386031;4.440892e-16;-4.440892e-16;0
-0.236806;0.334872;0.469415;8.39567e-13;0;0;8.39567e-13;4.440892e-16;-1.110223e-16;-5.35456e-17;0;0;0;0;4.49207e-16;-1.161401e-16;2.826735e-16;45;0;3.768981e-16;3.447681e-16;4.440892e-16;-1.193979e-16;1.230675e-17;-1.110223e-16;1.317047e-16;0.469415;3.330669e-16;-3.330669e-16;0
-0.169641;0.334872;0.558357;8.39567e-13;0;0;8.39567e-13;0;2.220446e-16;-2.079846e-17;0;0;0;0;2.239759e-16;-1.931351e-18;1.129537e-16;45;0;1.506049e-16;1.499652e-16;0;-4.159693e-17;0;2.220446e-16;4.159693e-17;0.558357;2.220446e-16;-2.220446e-16;0
-0.102475;0.334872;0.621255;8.39567e-13;0;0;8.39567e-13;0;2.220446e-16;6.475356e-17;0;0;0;0;2.395485e-16;-1.750386e-17;1.285262e-16;45;0;1.713682e-16;1.658418e-16;0;6.254211e-17;6.696501e-17;2.220446e-16;4.422895e-18;0.621255;2.220446e-16;-2.220446e-16;0
-0.03531;0.334872;0.639442;8.39567e-13;0;0;8.39567e-13;2.220446e-16;2.220446e-16;-7.553471e-18;0;0;0;0;2.295981e-16;2.144911e-16;7.553471e-18;45;0;1.00713e-17;1.482865e-16;2.220446e-16;-7.239579e-18;-7.867364e-18;2.220446e-16;-6.277843e-19;0.639442;4.440892e-16;-4.440892e-16;0
0.031855;0.334872;0.72733;8.39567e-13;0;0;8.39567e-13;0;2.220446e-16;5.824941e-17;0;0;0;0;2.363975e-16;-1.435292e-17;1.253752e-16;45;0;1.67167e-16;1.62594e-16;0;1.021142e-16;1.438462e-17;2.220446e-16;-8.772958e-17;0.72733;2.220446e-16;-2.220446e-16;0
0.099021;0.334872;0.793932;8.39567e-13;0;0;8.39567e-13;-2.220446e-16;0;4.343231e-17;0;0;0;0;8.193119e-18;-2.302377e-16;1.192154e-16;45;0;1.589539e-16;1.562945e-16;-2.220446e-16;6.102849e-17;2.583612e-17;0;-3.519237e-17;0.793932;-2.220446e-16;2.220446e-16;0
0.166186;0.334872;0.811708;8.39567e-13;0;0;8.39567e-13;-3.330669e-16;0;1.72332e-17;0;0;0;0;8.892881e-19;-3.339562e-16;1.674227e-16;45;0;2.232303e-16;2.229345e-16;-3.330669e-16;1.871674e-17;1.574966e-17;0;-2.967083e-18;0.811708;-3.330669e-16;3.330669e-16;0
0.233352;0.334872;0.867644;8.39567e-13;0;0;8.39567e-13;0;0;-7.535577e-18;0;0;0;0;7.535577e-18;-7.535577e-18;7.535577e-18;45;0;1.004744e-17;8.701334e-18;0;2.186843e-17;-3.693958e-17;0;-5.880802e-17;0.867644;0;0;0
0.300517;0.334872;0.86306;8.39567e-13;0;0;8.39567e-13;0;2.220446e-16;3.262973e-17;0;0;0;0;2.267403e-16;-4.695677e-18;1.15718e-16;45;0;1.542906e-16;1.527495e-16;0;3.571749e-17;2.954196e-17;2.220446e-16;-6.175536e-18;0.86306;2.220446e-16;-2.220446e-16;0
0.367682;0.334872;0.899638;8.39567e-13;0;0;8.39567e-13;2.220446e-16;0;-1.41193e-17;0;0;0;0;2.229388e-16;-8.942128e-19;1.119165e-16;45;0;1.49222e-16;1.489248e-16;2.220446e-16;-2.090401e-17;-7.334599e-18;0;1.356941e-17;0.899638;2.220446e-16;-2.220446e-16;0
0.434848;0.334872;0.900452;8.39567e-13;0;0;8.39567e-13;0;2.220446e-16;-7.685755e-18;0;0;0;0;2.223103e-16;-2.657134e-19;1.11288e-16;45;0;1.48384e-16;1.482955e-16;0;-1.273711e-19;-1.524414e-17;2.220446e-16;-1.511677e-17;0.900452;2.220446e-16;-2.220446e-16;0
0.502013;0.334872;0.921707;8.39567e-13;0;0;8.39567e-13;-3.330669e-16;-1.110223e-16;-9.484221e-19;0;0;0;0;-1.110183e-16;-3.33071e-16;1.110264e-16;45;0;1.480351e-16;1.95828e-16;-3.330669e-16;2.121776e-17;-2.31146e-17;-1.110223e-16;-4.433236e-17;0.921707;-4.440892e-16;4.440892e-16;0
0.569178;0.334872;0.917206;8.39567e-13;0;0;8.39567e-13;-1.110223e-16;2.220446e-16;-1.993171e-17;0;0;0;0;2.232331e-16;-1.122108e-16;1.67722e-16;45;0;2.236293e-16;1.971728e-16;-1.110223e-16;-8.877664e-18;-3.098576e-17;2.220446e-16;-2.21081e-17;0.917206;1.110223e-16;-1.110223e-16;0
0.636344;0.334872;0.921801;8.39567e-13;0;0;8.39567e-13;-3.330669e-16;0;2.663522e-18;0;0;0;0;2.129872e-20;-3.330882e-16;1.665547e-16;45;0;2.22073e-16;2.220659e-16;-3.330669e-16;-2.351389e-18;7.678434e-18;0;1.002982e-17;0.921801;-3.330669e-16;3.330669e-16;0
0.703509;0.334872;0.943416;8.39567e-13;0;0;8.39567e-13;2.220446e-16;0;2.095655e-17;0;0;0;0;2.240052e-16;-1.960567e-18;1.129829e-16;45;0;1.506438e-16;1.499946e-16;2.220446e-16;2.968486e-17;1.222825e-17;0;-1.74566e-17;0.943416;2.220446e-16;-2.220446e-16;0
0.770674;0.334872;0.91725;8.39567e-13;0;0;8.39567e-13;2.220446e-16;0;-2.003285e-18;0;0;0;0;2.220627e-16;-1.807215e-20;1.110404e-16;45;0;1.480538e-16;1.480478e-16;2.220446e-16;-9.69795e-18;5.69138e-18;0;1.538933e-17;0.91725;2.220446e-16;-2.220446e-16;0
0.83784;0.334872;0.912779;8.39567e-13;0;0;8.39567e-13;-1.110223e-16;2.220446e-16;2.203072e-17;0;0;0;0;2.234955e-16;-1.124732e-16;1.679844e-16;45;0;2.239791e-16;1.974704e-16;-1.110223e-16;3.138853e-17;1.267291e-17;2.220446e-16;-1.871562e-17;0.912779;1.110223e-16;-1.110223e-16;0
0.905005;0.334872;0.887548;8.39567e-13;0;0;8.39567e-13;2.220446e-16;0;-4.326435e-17;0;0;0;0;2.301766e-16;-8.132032e-18;1.191543e-16;45;0;1.588725e-16;1.562323e-16;2.220446e-16;-4.719937e-17;-3.932932e-17;0;7.870055e-18;0.887548;2.220446e-16;-2.220446e-16;0
0.97217;0.334872;0.862568;8.39567e-13;0;0;8.39567e-13;-1.110223e-16;2.220446e-16;-2.654379e-17;0;0;0;0;2.241468e-16;-1.131244e-16;1.686356e-16;45;0;2.248475e-16;1.982091e-16;-1.110223e-16;-3.061212e-17;-2.247546e-17;2.220446e-16;8.136666e-18;0.862568;1.110223e-16;-1.110223e-16;0
1.039336;0.334872;0.853476;8.39567e-13;0;0;8.39567e-13;-1.110223e-16;0;3.170776e-17;0;0;0;0;8.417478e-18;-1.194398e-16;6.392863e-17;45;0;8.523817e-17;8.257548e-17;-1.110223e-16;3.495338e-17;2.846213e-17;0;-6.491255e-18;0.853476;-1.110223e-16;1.110223e-16;0
1.106501;0.334872;0.806929;8.39567e-13;0;0;8.39567e-13;-1.110223e-16;2.220446e-16;-3.602938e-17;0;0;0;0;2.258975e-16;-1.148752e-16;1.703863e-16;45;0;2.271818e-16;2.001955e-16;-1.110223e-16;-4.168736e-18;-6.789002e-17;2.220446e-16;-6.372128e-17;0.806929;1.110223e-16;-1.110223e-16;0
1.173667;0.334872;0.758718;8.39567e-13;0;0;8.39567e-13;0;0;2.596067e-17;0;0;0;0;2.596067e-17;-2.596067e-17;2.596067e-17;45;0;3.461423e-17;2.99768e-17;0;4.373219e-17;8.189145e-18;0;-3.554305e-17;0.758718;0;0;0
1.240832;0.334872;0.714554;8.39567e-13;0;0;8.39567e-13;-2.220446e-16;0;-1.762012e-17;0;0;0;0;1.389531e-18;-2.234341e-16;1.124118e-16;45;0;1.498824e-16;1.494214e-16;-2.220446e-16;-1.534634e-17;-1.98939e-17;0;-4.547559e-18;0.714554;-2.220446e-16;2.220446e-16;0
1.307997;0.334872;0.663067;8.39567e-13;0;0;8.39567e-13;0;2.220446e-16;2.279726e-17;0;0;0;0;2.24361e-16;-2.316424e-18;1.133387e-16;45;0;1.511183e-16;1.503521e-16;0;3.210554e-17;1.348898e-17;2.220446e-16;-1.861656e-17;0.663067;2.220446e-16;-2.220446e-16;0
1.375163;0.334872;0.574326;8.39567e-13;0;0;8.39567e-13;2.220446e-16;0;-3.304501e-17;0;0;0;0;2.268581e-16;-4.813462e-18;1.158358e-16;45;0;1.544477e-16;1.528685e-16;2.220446e-16;-7.541337e-17;9.323356e-18;0;8.473673e-17;0.574326;2.220446e-16;-2.220446e-16;0
1.442328;0.334872;0.486089;8.39567e-13;0;0;8.39567e-13;0;2.220446e-16;-2.07676e-17;0;0;0;0;2.239703e-16;-1.925672e-18;1.12948e-16;45;0;1.505973e-16;1.499595e-16;0;-4.661931e-17;5.084108e-18;2.220446e-16;5.170342e-17;0.486089;2.220446e-16;-2.220446e-16;0
1.509493;0.334872;0.339859;8.39567e-13;0;0;8.39567e-13;6.661338e-16;0;-8.881599e-17;0;0;0;0;6.777724e-16;-1.163854e-17;3.447055e-16;45;0;4.596073e-16;4.557773e-16;6.661338e-16;-1.067274e-16;-7.09046e-17;0;3.582277e-17;0.339859;6.661338e-16;-6.661338e-16;0
-0.371137;0.267707;0.271226;8.39567e-13;0;0;8.39567e-13;8.881784e-16;0;7.671783e-17;0;0;0;0;8.947564e-16;-6.577909e-18;4.506671e-16;45;0;6.008895e-16;5.987089e-16;8.881784e-16;1.534357e-16;0;0;-1.534357e-16;0.271226;8.881784e-16;-8.881784e-16;0
-0.303971;0.267707;0.365684;8.39567e-13;0;0;8.39567e-13;0;0;-1.464193e-17;0;0;0;0;1.464193e-17;-1.464193e-17;1.464193e-17;45;0;1.952258e-17;1.690705e-17;0;-2.323363e-17;-6.050232e-18;0;1.71834e-17;0.365684;0;0;0
-0.236806;0.267707;0.446658;8.39567e-13;0;0;8.39567e-13;-2.220446e-16;0;-2.145423e-17;0;0;0;0;2.053935e-18;-2.240985e-16;1.130762e-16;45;0;1.507683e-16;1.500884e-16;-2.220446e-16;-2.339018e-17;-1.951827e-17;0;3.871911e-18;0.446658;-2.220446e-16;2.220446e-16;0
-0.169641;0.267707;0.521157;8.39567e-13;0;0;8.39567e-13;0;-1.110223e-16;-4.549424e-17;0;0;0;0;1.626081e-17;-1.272831e-16;7.177196e-17;45;0;9.569594e-17;9.076253e-17;0;-5.214316e-17;-3.884532e-17;-1.110223e-16;1.329784e-17;0.521157;-1.110223e-16;1.110223e-16;0
-0.102475;0.267707;0.610471;8.39567e-13;0;0;8.39567e-13;2.220446e-16;-1.110223e-16;-4.716863e-17;0;0;0;0;2.285957e-16;-1.175734e-16;1.730846e-16;45;0;2.307794e-16;2.032582e-16;2.220446e-16;-6.151083e-17;-3.282643e-17;-1.110223e-16;2.86844e-17;0.610471;1.110223e-16;-1.110223e-16;0
-0.03531;0.267707;0.647303;8.39567e-13;0;0;8.39567e-13;4.440892e-16;0;2.149274e-17;0;0;0;0;4.45127e-16;-1.037767e-18;2.230824e-16;45;0;2.974432e-16;2.970978e-16;4.440892e-16;3.512112e-17;7.864368e-18;0;-2.725675e-17;0.647303;4.440892e-16;-4.440892e-16;0
0.031855;0.267707;0.711765;8.39567e-13;0;0;8.39567e-13;4.440892e-16;0;4.114746e-17;0;0;0;0;4.478696e-16;-3.780371e-18;2.25825e-16;45;0;3.011e-16;2.998478e-16;4.440892e-16;9.587573e-17;-1.358082e-17;0;-1.094565e-16;0.711765;4.440892e-16;-4.440892e-16;0
0.099021;0.267707;0.792372;8.39567e-13;0;0;8.39567e-13;-2.220446e-16;-1.110223e-16;7.344189e-18;0;0;0;0;-1.105386e-16;-2.225283e-16;5.599487e-17;45;0;7.465982e-17;1.284777e-16;-2.220446e-16;-2.314701e-18;1.700308e-17;-1.110223e-16;1.931778e-17;0.792372;-3.330669e-16;3.330669e-16;0
0.166186;0.267707;0.801962;8.39567e-13;0;0;8.39567e-13;2.220446e-16;-1.110223e-16;-2.801496e-17;0;0;0;0;2.243846e-16;-1.133623e-16;1.688734e-16;45;0;2.251645e-16;1.984789e-16;2.220446e-16;-2.120386e-17;-3.482606e-17;-1.110223e-16;-1.36222e-17;0.801962;1.110223e-16;-1.110223e-16;0
0.233352;0.267707;0.814881;8.39567e-13;0;0;8.39567e-13;0;-1.110223e-16;-2.69499e-18;0;0;0;0;6.538053e-20;-1.110877e-16;5.557653e-17;45;0;7.410204e-17;7.408026e-17;0;3.425898e-17;-3.964896e-17;-1.110223e-16;-7.390793e-17;0.814881;-1.110223e-16;1.110223e-16;0
0.300517;0.267707;0.839039;8.39567e-13;0;0;8.39567e-13;-3.330669e-16;2.220446e-16;-1.121745e-17;0;0;0;0;2.222712e-16;-3.332935e-16;2.777823e-16;45;0;3.703765e-16;3.228832e-16;-3.330669e-16;-3.373863e-18;-1.906104e-17;2.220446e-16;-1.568718e-17;0.839039;-1.110223e-16;1.110223e-16;0
0.367682;0.267707;0.882735;8.39567e-13;0;0;8.39567e-13;0;0;1.516925e-17;0;0;0;0;1.516925e-17;-1.516925e-17;1.516925e-17;45;0;2.022567e-17;1.751594e-17;0;2.157445e-17;8.764048e-18;0;-1.281041e-17;0.882735;0;0;0
0.434848;0.267707;0.916988;8.39567e-13;0;0;8.39567e-13;2.220446e-16;2.220446e-16;5.707694e-18;0;0;0;0;2.277523e-16;2.163369e-16;5.707694e-18;45;0;7.610259e-18;1.481764e-16;2.220446e-16;2.115502e-17;-9.739631e-18;2.220446e-16;-3.089465e-17;0.916988;4.440892e-16;-4.440892e-16;0
0.502013;0.267707;0.915252;8.39567e-13;0;0;8.39567e-13;2.220446e-16;-1.110223e-16;-9.554011e-18;0;0;0;0;2.223184e-16;-1.112961e-16;1.668073e-16;45;0;2.224097e-16;1.961354e-16;2.220446e-16;-3.266332e-17;1.35553e-17;-1.110223e-16;4.621863e-17;0.915252;1.110223e-16;-1.110223e-16;0
0.569178;0.267707;0.92105;8.39567e-13;0;0;8.39567e-13;-1.110223e-16;0;2.154081e-17;0;0;0;0;4.032903e-18;-1.150552e-16;5.954405e-17;45;0;7.939207e-17;7.808249e-17;-1.110223e-16;3.476083e-17;8.320791e-18;0;-2.644004e-17;0.92105;-1.110223e-16;1.110223e-16;0
0.636344;0.267707;0.943194;8.39567e-13;0;0;8.39567e-13;-1.110223e-16;0;4.292519e-18;0;0;0;0;1.657167e-19;-1.11188e-16;5.567687e-17;45;0;7.423583e-17;7.418064e-17;-1.110223e-16;1.858927e-17;-1.000423e-17;0;-2.85935e-17;0.943194;-1.110223e-16;1.110223e-16;0
0.703509;0.267707;0.916923;8.39567e-13;0;0;8.39567e-13;2.220446e-16;-1.110223e-16;-1.316795e-17;0;0;0;0;2.225644e-16;-1.115421e-16;1.670532e-16;45;0;2.227377e-16;1.964144e-16;2.220446e-16;-1.13365e-17;-1.49994e-17;-1.110223e-16;-3.662893e-18;0.916923;1.110223e-16;-1.110223e-16;0
0.770674;0.267707;0.901811;8.39567e-13;0;0;8.39567e-13;-1.110223e-16;2.220446e-16;-1.748219e-17;0;0;0;0;2.229597e-16;-1.119374e-16;1.674486e-16;45;0;2.232647e-16;1.968627e-16;-1.110223e-16;-2.210917e-17;-1.28552e-17;2.220446e-16;9.253976e-18;0.901811;1.110223e-16;-1.110223e-16;0
0.83784;0.267707;0.910081;8.39567e-13;0;0;8.39567e-13;-1.110223e-16;2.220446e-16;2.534862e-17;0;0;0;0;2.239628e-16;-1.129405e-16;1.684516e-16;45;0;2.246021e-16;1.980004e-16;-1.110223e-16;3.39496e-17;1.674765e-17;2.220446e-16;-1.720195e-17;0.910081;1.110223e-16;-1.110223e-16;0
0.905005;0.267707;0.893797;8.39567e-13;0;0;8.39567e-13;-1.110223e-16;-1.110223e-16;2.336255e-17;0;0;0;0;-8.765975e-17;-1.343848e-16;2.336255e-17;45;0;3.115007e-17;7.877782e-17;-1.110223e-16;2.20802e-17;2.46449e-17;-1.110223e-16;2.564698e-18;0.893797;-2.220446e-16;2.220446e-16;0
0.97217;0.267707;0.866569;8.39567e-13;0;0;8.39567e-13;0;2.220446e-16;6.393559e-18;0;0;0;0;2.222285e-16;-1.839439e-19;1.112062e-16;45;0;1.48275e-16;1.482137e-16;0;3.978074e-17;-2.699363e-17;2.220446e-16;-6.677437e-17;0.866569;2.220446e-16;-2.220446e-16;0
1.039336;0.267707;0.856966;8.39567e-13;0;0;8.39567e-13;2.220446e-16;-1.110223e-16;2.276941e-17;0;0;0;0;2.23594e-16;-1.125717e-16;1.680828e-16;45;0;2.241104e-16;1.975821e-16;2.220446e-16;3.942938e-17;6.109442e-18;-1.110223e-16;-3.331994e-17;0.856966;1.110223e-16;-1.110223e-16;0
1.106501;0.267707;0.830063;8.39567e-13;0;0;8.39567e-13;2.220446e-16;-1.110223e-16;-8.151939e-18;0;0;0;0;2.22244e-16;-1.112217e-16;1.667329e-16;45;0;2.223105e-16;1.96051e-16;2.220446e-16;-2.922157e-17;1.291769e-17;-1.110223e-16;4.213926e-17;0.830063;1.110223e-16;-1.110223e-16;0
1.173667;0.267707;0.760844;8.39567e-13;0;0;8.39567e-13;0;0;1.604489e-17;0;0;0;0;1.604489e-17;-1.604489e-17;1.604489e-17;45;0;2.139318e-17;1.852704e-17;0;4.732044e-17;-1.523066e-17;0;-6.255109e-17;0.760844;0;0;0
1.240832;0.267707;0.693591;8.39567e-13;0;0;8.39567e-13;-3.330669e-16;0;4.755372e-18;0;0;0;0;6.788113e-20;-3.331348e-16;1.666013e-16;45;0;2.221351e-16;2.221125e-16;-3.330669e-16;2.483817e-17;-1.532743e-17;0;-4.01656e-17;0.693591;-3.330669e-16;3.330669e-16;0
1.307997;0.267707;0.635591;8.39567e-13;0;0;8.39567e-13;0;-1.110223e-16;-1.103106e-17;0;0;0;0;1.085422e-18;-1.121077e-16;5.659657e-17;45;0;7.54621e-17;7.51029e-17;0;1.781094e-19;-2.224022e-17;-1.110223e-16;-2.241833e-17;0.635591;-1.110223e-16;1.110223e-16;0
1.375163;0.267707;0.57202;8.39567e-13;0;0;8.39567e-13;2.220446e-16;-1.110223e-16;-1.181405e-17;0;0;0;0;2.224631e-16;-1.114408e-16;1.66952e-16;45;0;2.226026e-16;1.962995e-16;2.220446e-16;-2.514238e-17;1.514286e-18;-1.110223e-16;2.665666e-17;0.57202;1.110223e-16;-1.110223e-16;0
1.442328;0.267707;0.465893;8.39567e-13;0;0;8.39567e-13;4.440892e-16;-1.110223e-16;8.000483e-17;0;0;0;0;4.553898e-16;-1.223229e-16;2.888563e-16;45;0;3.851418e-16;3.515346e-16;4.440892e-16;1.493736e-16;1.06361e-17;-1.110223e-16;-1.387375e-16;0.465893;3.330669e-16;-3.330669e-16;0
1.509493;0.267707;0.35454;8.39567e-13;0;0;8.39567e-13;-4.440892e-16;-2.220446e-16;1.503433e-17;0;0;0;0;-2.210313e-16;-4.451025e-16;1.120356e-16;45;0;1.493808e-16;2.569821e-16;-4.440892e-16;2.270189e-17;7.366765e-18;-2.220446e-16;-1.533512e-17;0.35454;-6.661338e-16;6.661338e-16;0
-0.371137;0.200541;0.306413;8.39567e-13;0;0;8.39567e-13;0;-2.220446e-16;-3.039406e-17;0;0;0;0;4.085259e-18;-2.261299e-16;1.151076e-16;45;0;1.534767e-16;1.521333e-16;0;-6.535766e-17;4.569529e-18;-2.220446e-16;6.992718e-17;0.306413;-2.220446e-16;2.220446e-16;0
-0.303971;0.200541;0.392515;8.39567e-13;0;0;8.39567e-13;4.440892e-16;2.220446e-16;6.465506e-17;0;0;0;0;4.615435e-16;2.045903e-16;1.284766e-16;45;0;1.713021e-16;2.670433e-16;4.440892e-16;1.114038e-16;1.790635e-17;2.220446e-16;-9.34974e-17;0.392515;6.661338e-16;-6.661338e-16;0
-0.236806;0.200541;0.485656;8.39567e-13;0;0;8.39567e-13;-2.220446e-16;2.220446e-16;1.460047e-17;0;0;0;0;2.225241e-16;-2.225241e-16;2.225241e-16;45;0;2.966988e-16;2.569487e-16;-2.220446e-16;-9.985427e-18;3.918636e-17;2.220446e-16;4.917179e-17;0.485656;0;0;0
-0.169641;0.200541;0.548436;8.39567e-13;0;0;8.39567e-13;0;-1.110223e-16;-1.519107e-17;0;0;0;0;2.041056e-18;-1.130634e-16;5.755221e-17;45;0;7.673627e-17;7.606505e-17;0;-1.620768e-17;-1.417446e-17;-1.110223e-16;2.033227e-18;0.548436;-1.110223e-16;1.110223e-16;0
-0.102475;0.200541;0.618257;8.39567e-13;0;0;8.39567e-13;-1.110223e-16;2.220446e-16;-3.410474e-17;0;0;0;0;2.255009e-16;-1.144786e-16;1.699898e-16;45;0;2.26653e-16;1.997455e-16;-1.110223e-16;-6.072115e-17;-7.488335e-18;2.220446e-16;5.323281e-17;0.618257;1.110223e-16;-1.110223e-16;0
-0.03531;0.200541;0.67188;8.39567e-13;0;0;8.39567e-13;-1.110223e-16;0;-4.11218e-17;0;0;0;0;1.357206e-17;-1.245944e-16;6.908321e-17;45;0;9.211095e-17;8.793674e-17;-1.110223e-16;-5.935905e-17;-2.288455e-17;0;3.647451e-17;0.67188;-1.110223e-16;1.110223e-16;0
0.031855;0.200541;0.74739;8.39567e-13;0;0;8.39567e-13;4.440892e-16;0;-8.008472e-18;0;0;0;0;4.442336e-16;-1.443736e-19;2.22189e-16;45;0;2.96252e-16;2.962038e-16;4.440892e-16;-8.988568e-18;-7.028375e-18;0;1.960193e-18;0.74739;4.440892e-16;-4.440892e-16;0
0.099021;0.200541;0.822686;8.39567e-13;0;0;8.39567e-13;0;0;6.504859e-18;0;0;0;0;6.504859e-18;-6.504859e-18;6.504859e-18;45;0;8.673146e-18;7.511165e-18;0;1.300972e-17;0;0;-1.300972e-17;0.822686;0;0;0
0.166186;0.200541;0.821476;8.39567e-13;0;0;8.39567e-13;2.220446e-16;2.220446e-16;-7.372796e-17;0;0;0;0;2.957726e-16;1.483166e-16;7.372796e-17;45;0;9.830395e-17;1.707646e-16;2.220446e-16;-6.529224e-17;-8.216369e-17;2.220446e-16;-1.687146e-17;0.821476;4.440892e-16;-4.440892e-16;0
0.233352;0.200541;0.80506;8.39567e-13;0;0;8.39567e-13;0;-3.330669e-16;-2.382822e-17;0;0;0;0;1.696078e-18;-3.34763e-16;1.682295e-16;45;0;2.243061e-16;2.237428e-16;0;-2.239186e-18;-4.541725e-17;-3.330669e-16;-4.317807e-17;0.80506;-3.330669e-16;3.330669e-16;0
0.300517;0.200541;0.837794;8.39567e-13;0;0;8.39567e-13;2.220446e-16;-1.110223e-16;2.324795e-17;0;0;0;0;2.236595e-16;-1.126372e-16;1.681483e-16;45;0;2.241978e-16;1.976563e-16;2.220446e-16;2.556662e-17;2.092929e-17;-1.110223e-16;-4.637329e-18;0.837794;1.110223e-16;-1.110223e-16;0
0.367682;0.200541;0.844115;8.39567e-13;0;0;8.39567e-13;-1.110223e-16;2.220446e-16;-1.444853e-18;0;0;0;0;2.220509e-16;-1.110286e-16;1.665397e-16;45;0;2.22053e-16;1.95832e-16;-1.110223e-16;-1.043557e-17;7.545862e-18;2.220446e-16;1.798143e-17;0.844115;1.110223e-16;-1.110223e-16;0
0.434848;0.200541;0.959193;8.39567e-13;0;0;8.39567e-13;-1.110223e-16;0;-2.479534e-17;0;0;0;0;5.286024e-18;-1.163083e-16;6.079717e-17;45;0;8.10629e-17;7.93596e-17;-1.110223e-16;-3.321444e-17;-1.637623e-17;0;1.683822e-17;0.959193;-1.110223e-16;1.110223e-16;0
0.502013;0.200541;0.929327;8.39567e-13;0;0;8.39567e-13;0;0;4.811584e-18;0;0;0;0;4.811584e-18;-4.811584e-18;4.811584e-18;45;0;6.415445e-18;5.555938e-18;0;9.623168e-18;0;0;-9.623168e-18;0.929327;0;0;0
0.569178;0.200541;0.911402;8.39567e-13;0;0;8.39567e-13;2.220446e-16;-1.110223e-16;-3.738077e-17;0;0;0;0;2.261884e-16;-1.151661e-16;1.706772e-16;45;0;2.275696e-16;2.005256e-16;2.220446e-16;-3.796886e-18;-7.096465e-17;-1.110223e-16;-6.716777e-17;0.911402;1.110223e-16;-1.110223e-16;0
0.636344;0.200541;0.941492;8.39567e-13;0;0;8.39567e-13;0;-6.661338e-16;4.432968e-17;0;0;0;0;2.937088e-18;-6.690709e-16;3.36004e-16;45;0;4.480053e-16;4.470295e-16;0;3.831333e-17;5.034603e-17;-6.661338e-16;1.203271e-17;0.941492;-6.661338e-16;6.661338e-16;0
0.703509;0.200541;0.913736;8.39567e-13;0;0;8.39567e-13;-1.110223e-16;0;-3.408888e-17;0;0;0;0;9.631305e-18;-1.206536e-16;6.514246e-17;45;0;8.685661e-17;8.38308e-17;-1.110223e-16;-5.850222e-17;-9.675534e-18;0;4.882669e-17;0.913736;-1.110223e-16;1.110223e-16;0
0.770674;0.200541;0.895795;8.39567e-13;0;0;8.39567e-13;2.220446e-16;0;-1.422296e-17;0;0;0;0;2.229519e-16;-9.073371e-19;1.119296e-16;45;0;1.492395e-16;1.48938e-16;2.220446e-16;-2.780126e-17;-6.446608e-19;0;2.71566e-17;0.895795;2.220446e-16;-2.220446e-16;0
0.83784;0.200541;0.90643;8.39567e-13;0;0;8.39567e-13;0;2.220446e-16;-5.333844e-18;0;0;0;0;2.221727e-16;-1.280531e-19;1.111504e-16;45;0;1.482005e-16;1.481578e-16;0;-3.246849e-17;2.18008e-17;2.220446e-16;5.42693e-17;0.90643;2.220446e-16;-2.220446e-16;0
0.905005;0.200541;0.905349;8.39567e-13;0;0;8.39567e-13;0;2.220446e-16;3.762181e-17;0;0;0;0;2.282458e-16;-6.20121e-18;1.172235e-16;45;0;1.56298e-16;1.542725e-16;0;-4.068439e-18;7.931205e-17;2.220446e-16;8.338049e-17;0.905349;2.220446e-16;-2.220446e-16;0
0.97217;0.200541;0.877618;8.39567e-13;0;0;8.39567e-13;0;-1.110223e-16;-2.769087e-17;0;0;0;0;6.523294e-18;-1.175456e-16;6.203444e-17;45;0;8.27126e-17;8.062617e-17;0;-2.742416e-17;-2.795759e-17;-1.110223e-16;-5.334352e-19;0.877618;-1.110223e-16;1.110223e-16;0
1.039336;0.200541;0.836163;8.39567e-13;0;0;8.39567e-13;0;-1.110223e-16;-1.648805e-17;0;0;0;0;2.396911e-18;-1.134192e-16;5.790806e-17;45;0;7.721075e-17;7.642431e-17;0;-1.391463e-17;-1.906146e-17;-1.110223e-16;-5.146829e-18;0.836163;-1.110223e-16;1.110223e-16;0
1.106501;0.200541;0.824655;8.39567e-13;0;0;8.39567e-13;-1.110223e-16;-1.110223e-16;-1.910059e-17;0;0;0;0;-9.192172e-17;-1.301229e-16;1.910059e-17;45;0;2.546745e-17;7.723111e-17;-1.110223e-16;-1.016383e-17;-2.803735e-17;-1.110223e-16;-1.787352e-17;0.824655;-2.220446e-16;2.220446e-16;0
1.173667;0.200541;0.789595;8.39567e-13;0;0;8.39567e-13;0;2.220446e-16;1.789909e-17;0;0;0;0;2.234782e-16;-1.433596e-18;1.124559e-16;45;0;1.499412e-16;1.494656e-16;0;2.217439e-17;1.362379e-17;2.220446e-16;-8.550607e-18;0.789595;2.220446e-16;-2.220446e-16;0
1.240832;0.200541;0.713109;8.39567e-13;0;0;8.39567e-13;2.220446e-16;2.220446e-16;-1.844076e-18;0;0;0;0;2.238887e-16;2.202005e-16;1.844076e-18;45;0;2.458768e-18;1.480451e-16;2.220446e-16;-3.688153e-18;0;2.220446e-16;3.688153e-18;0.713109;4.440892e-16;-4.440892e-16;0
1.307997;0.200541;0.67275;8.39567e-13;0;0;8.39567e-13;2.220446e-16;0;8.939124e-17;0;0;0;0;2.535591e-16;-3.151452e-17;1.425368e-16;45;0;1.900491e-16;1.804638e-16;2.220446e-16;1.63788e-16;1.499451e-17;0;-1.487935e-16;0.67275;2.220446e-16;-2.220446e-16;0
1.375163;0.200541;0.594649;8.39567e-13;0;0;8.39567e-13;2.220446e-16;2.220446e-16;-4.999447e-17;0;0;0;0;2.720391e-16;1.720501e-16;4.999447e-17;45;0;6.66593e-17;1.58888e-16;2.220446e-16;-9.443927e-17;-5.549671e-18;2.220446e-16;8.88896e-17;0.594649;4.440892e-16;-4.440892e-16;0
1.442328;0.200541;0.455661;8.39567e-13;0;0;8.39567e-13;-2.220446e-16;0;1.161046e-17;0;0;0;0;6.05447e-19;-2.2265e-16;1.116277e-16;45;0;1.48837e-16;1.486356e-16;-2.220446e-16;4.441646e-17;-2.119554e-17;0;-6.561201e-17;0.455661;-2.220446e-16;2.220446e-16;0
1.509493;0.200541;0.373919;8.39567e-13;0;0;8.39567e-13;2.220446e-16;-2.220446e-16;-1.440213e-17;0;0;0;0;2.225112e-16;-2.225112e-16;2.225112e-16;45;0;2.966816e-16;2.569338e-16;2.220446e-16;-2.00477e-17;-8.756564e-18;-2.220446e-16;1.129114e-17;0.373919;0;0;0
-0.371137;0.133376;0.272703;8.39567e-13;0;0;8.39567e-13;0;-2.220446e-16;-1.236404e-16;0;0;0;0;5.514899e-17;-2.771936e-16;1.661713e-16;45;0;2.215617e-16;2.056584e-16;0;-1.439772e-16;-1.033036e-16;-2.220446e-16;4.067357e-17;0.272703;-2.220446e-16;2.220446e-16;0
-0.303971;0.133376;0.38663;8.39567e-13;0;0;8.39567e-13;0;-1.110223e-16;-5.524669e-17;0;0;0;0;2.280669e-17;-1.33829e-16;7.831784e-17;45;0;1.044238e-16;9.771283e-17;0;-1.048703e-16;-5.623079e-18;-1.110223e-16;9.924723e-17;0.38663;-1.110223e-16;1.110223e-16;0
-0.236806;0.133376;0.48463;8.39567e-13;0;0;8.39567e-13;2.220446e-16;0;-5.480616e-17;0;0;0;0;2.348353e-16;-1.279073e-17;1.23813e-16;45;0;1.65084e-16;1.609899e-16;2.220446e-16;-7.600627e-17;-3.360604e-17;0;4.240023e-17;0.48463;2.220446e-16;-2.220446e-16;0
-0.169641;0.133376;0.548541;8.39567e-13;0;0;8.39567e-13;0;2.220446e-16;4.67231e-17;0;0;0;0;2.314756e-16;-9.431005e-18;1.204533e-16;45;0;1.606044e-16;1.575549e-16;0;7.890459e-17;1.454161e-17;2.220446e-16;-6.436298e-17;0.548541;2.220446e-16;-2.220446e-16;0
-0.102475;0.133376;0.618207;8.39567e-13;0;0;8.39567e-13;0;0;3.3627e-19;0;0;0;0;3.3627e-19;-3.3627e-19;3.3627e-19;45;0;4.4836e-19;3.882911e-19;0;8.294095e-18;-7.621555e-18;0;-1.591565e-17;0.618207;0;0;0
-0.03531;0.133376;0.677249;8.39567e-13;0;0;8.39567e-13;0;0;-6.40722e-18;0;0;0;0;6.40722e-18;-6.40722e-18;6.40722e-18;45;0;8.54296e-18;7.398421e-18;0;1.084631e-17;-2.366075e-17;0;-3.450706e-17;0.677249;0;0;0
0.031855;0.133376;0.736889;8.39567e-13;0;0;8.39567e-13;-1.110223e-16;-1.110223e-16;-2.905579e-17;0;0;0;0;-8.196652e-17;-1.400781e-16;2.905579e-17;45;0;3.874105e-17;8.126409e-17;-1.110223e-16;-2.695148e-17;-3.11601e-17;-1.110223e-16;-4.208618e-18;0.736889;-2.220446e-16;2.220446e-16;0
0.099021;0.133376;0.784568;8.39567e-13;0;0;8.39567e-13;-3.330669e-16;2.220446e-16;-1.561049e-17;0;0;0;0;2.224832e-16;-3.335055e-16;2.779944e-16;45;0;3.706592e-16;3.231265e-16;-3.330669e-16;4.347881e-18;-3.556886e-17;2.220446e-16;-3.991674e-17;0.784568;-1.110223e-16;1.110223e-16;0
0.166186;0.133376;0.810547;8.39567e-13;0;0;8.39567e-13;2.220446e-16;2.220446e-16;-3.597905e-17;0;0;0;0;2.580237e-16;1.860656e-16;3.597905e-17;45;0;4.797207e-17;1.537491e-16;2.220446e-16;-3.69995e-17;-3.49586e-17;2.220446e-16;2.040893e-18;0.810547;4.440892e-16;-4.440892e-16;0
0.233352;0.133376;0.832339;8.39567e-13;0;0;8.39567e-13;0;-1.110223e-16;6.108428e-18;0;0;0;0;3.350734e-19;-1.113574e-16;5.584623e-17;45;0;7.446163e-17;7.43502e-17;0;-7.440668e-18;1.965753e-17;-1.110223e-16;2.709819e-17;0.832339;-1.110223e-16;1.110223e-16;0
0.300517;0.133376;0.852052;8.39567e-13;0;0;8.39567e-13;0;4.440892e-16;4.470288e-17;0;0;0;0;4.485444e-16;-4.455184e-18;2.264998e-16;45;0;3.019997e-16;3.005257e-16;0;9.08042e-18;8.032535e-17;4.440892e-16;7.124493e-17;0.852052;4.440892e-16;-4.440892e-16;0
0.367682;0.133376;0.853046;8.39567e-13;0;0;8.39567e-13;-2.220446e-16;-1.110223e-16;-3.659139e-17;0;0;0;0;-1.000472e-16;-2.330197e-16;6.648622e-17;45;0;8.864829e-17;1.349809e-16;-2.220446e-16;-1.491916e-17;-5.826361e-17;-1.110223e-16;-4.334445e-17;0.853046;-3.330669e-16;3.330669e-16;0
0.434848;0.133376;0.944346;8.39567e-13;0;0;8.39567e-13;2.220446e-16;0;-3.687349e-17;0;0;0;0;2.280078e-16;-5.963193e-18;1.169855e-16;45;0;1.559807e-16;1.540314e-16;2.220446e-16;-7.374698e-17;0;0;7.374698e-17;0.944346;2.220446e-16;-2.220446e-16;0
0.502013;0.133376;0.930322;8.39567e-13;0;0;8.39567e-13;2.220446e-16;2.220446e-16;8.122681e-18;0;0;0;0;2.301673e-16;2.139219e-16;8.122681e-18;45;0;1.083024e-17;1.483266e-16;2.220446e-16;4.69115e-17;-3.066614e-17;2.220446e-16;-7.757764e-17;0.930322;4.440892e-16;-4.440892e-16;0
0.569178;0.133376;0.949017;8.39567e-13;0;0;8.39567e-13;0;0;-5.345117e-18;0;0;0;0;5.345117e-18;-5.345117e-18;5.345117e-18;45;0;7.126824e-18;6.17201e-18;0;-2.566246e-17;1.497223e-17;0;4.063469e-17;0.949017;0;0;0
0.636344;0.133376;0.973284;8.39567e-13;0;0;8.39567e-13;-1.110223e-16;-1.110223e-16;-1.042701e-17;0;0;0;0;-1.005953e-16;-1.214493e-16;1.042701e-17;45;0;1.390268e-17;7.498776e-17;-1.110223e-16;-2.085401e-17;0;-1.110223e-16;2.085401e-17;0.973284;-2.220446e-16;2.220446e-16;0
0.703509;0.133376;0.93276;8.39567e-13;0;0;8.39567e-13;-3.330669e-16;2.220446e-16;-1.47018e-17;0;0;0;0;2.224337e-16;-3.33456e-16;2.779449e-16;45;0;3.705931e-16;3.230697e-16;-3.330669e-16;-5.378261e-18;-2.402535e-17;2.220446e-16;-1.864709e-17;0.93276;-1.110223e-16;1.110223e-16;0
0.770674;0.133376;0.91031;8.39567e-13;0;0;8.39567e-13;2.220446e-16;0;-3.28515e-18;0;0;0;0;2.220932e-16;-4.859317e-20;1.110709e-16;45;0;1.480945e-16;1.480783e-16;2.220446e-16;-2.59024e-17;1.93321e-17;0;4.523451e-17;0.91031;2.220446e-16;-2.220446e-16;0
0.83784;0.133376;0.926599;8.39567e-13;0;0;8.39567e-13;0;0;1.153143e-17;0;0;0;0;1.153143e-17;-1.153143e-17;1.153143e-17;45;0;1.537523e-17;1.331534e-17;0;2.306285e-17;0;0;-2.306285e-17;0.926599;0;0;0
0.905005;0.133376;0.89741;8.39567e-13;0;0;8.39567e-13;2.220446e-16;0;2.102119e-17;0;0;0;0;2.240172e-16;-1.972573e-18;1.129949e-16;45;0;1.506598e-16;1.500066e-16;2.220446e-16;-1.165852e-17;5.370089e-17;0;6.53594e-17;0.89741;2.220446e-16;-2.220446e-16;0
0.97217;0.133376;0.87022;8.39567e-13;0;0;8.39567e-13;-3.330669e-16;-1.110223e-16;-2.864845e-18;0;0;0;0;-1.109853e-16;-3.331039e-16;1.110593e-16;45;0;1.48079e-16;1.958529e-16;-3.330669e-16;-1.170309e-18;-4.559381e-18;-1.110223e-16;-3.389073e-18;0.87022;-4.440892e-16;4.440892e-16;0
1.039336;0.133376;0.822494;8.39567e-13;0;0;8.39567e-13;-1.110223e-16;-1.110223e-16;5.826926e-18;0;0;0;0;-1.051954e-16;-1.168492e-16;5.826926e-18;45;0;7.769234e-18;7.432006e-17;-1.110223e-16;-2.049522e-17;3.214907e-17;-1.110223e-16;5.264429e-17;0.822494;-2.220446e-16;2.220446e-16;0
1.106501;0.133376;0.795377;8.39567e-13;0;0;8.39567e-13;-1.110223e-16;2.220446e-16;1.315271e-17;0;0;0;0;2.225632e-16;-1.115409e-16;1.67052e-16;45;0;2.22736e-16;1.96413e-16;-1.110223e-16;-1.067438e-17;3.697979e-17;2.220446e-16;4.765417e-17;0.795377;1.110223e-16;-1.110223e-16;0
1.173667;0.133376;0.768981;8.39567e-13;0;0;8.39567e-13;-4.440892e-16;0;-7.920373e-17;0;0;0;0;1.370322e-17;-4.577925e-16;2.357478e-16;45;0;3.143304e-16;3.098637e-16;-4.440892e-16;-1.248016e-16;-3.360585e-17;0;9.119576e-17;0.768981;-4.440892e-16;4.440892e-16;0
1.240832;0.133376;0.719019;8.39567e-13;0;0;8.39567e-13;0;2.220446e-16;-2.035551e-17;0;0;0;0;2.238952e-16;-1.850628e-18;1.128729e-16;45;0;1.504972e-16;1.498842e-16;0;-5.721617e-17;1.650515e-17;2.220446e-16;7.372133e-17;0.719019;2.220446e-16;-2.220446e-16;0
1.307997;0.133376;0.676502;8.39567e-13;0;0;8.39567e-13;-2.220446e-16;-1.110223e-16;5.113454e-17;0;0;0;0;-9.106009e-17;-2.420068e-16;7.547336e-17;45;0;1.006312e-16;1.411415e-16;-2.220446e-16;5.610474e-17;4.616432e-17;-1.110223e-16;-9.94042e-18;0.676502;-3.330669e-16;3.330669e-16;0
1.375163;0.133376;0.596546;8.39567e-13;0;0;8.39567e-13;2.220446e-16;-1.110223e-16;1.854971e-17;0;0;0;0;2.230745e-16;-1.120522e-16;1.675634e-16;45;0;2.234178e-16;1.969929e-16;2.220446e-16;1.920966e-17;1.788976e-17;-1.110223e-16;-1.31991e-18;0.596546;1.110223e-16;-1.110223e-16;0
1.442328;0.133376;0.476395;8.39567e-13;0;0;8.39567e-13;-2.220446e-16;-1.110223e-16;4.231434e-17;0;0;0;0;-9.67338e-17;-2.363331e-16;6.979965e-17;45;0;9.30662e-17;1.371931e-16;-2.220446e-16;7.537672e-17;9.251963e-18;-1.110223e-16;-6.612476e-17;0.476395;-3.330669e-16;3.330669e-16;0
1.509493;0.133376;0.379087;8.39567e-13;0;0;8.39567e-13;-1.110223e-16;2.220446e-16;-5.328517e-17;0;0;0;0;2.303616e-16;-1.193394e-16;1.748505e-16;45;0;2.33134e-16;2.052636e-16;-1.110223e-16;-7.67524e-17;-2.981794e-17;2.220446e-16;4.693446e-17;0.379087;1.110223e-16;-1.110223e-16;0
-0.371137;0.06621;0.271295;8.39567e-13;0;0;8.39567e-13;0;-3.330669e-16;6.687984e-17;0;0;0;0;1.29277e-17;-3.459946e-16;1.794611e-16;45;0;2.392815e-16;2.350908e-16;0;1.180358e-16;1.572385e-17;-3.330669e-16;-1.02312e-16;0.271295;-3.330669e-16;3.330669e-16;0
-0.303971;0.06621;0.37609;8.39567e-13;0;0;8.39567e-13;-3.330669e-16;-1.110223e-16;1.339379e-17;0;0;0;0;-1.102173e-16;-3.338719e-16;1.118273e-16;45;0;1.491031e-16;1.964347e-16;-3.330669e-16;2.678758e-17;0;-1.110223e-16;-2.678758e-17;0.37609;-4.440892e-16;4.440892e-16;0
-0.236806;0.06621;0.489398;8.39567e-13;0;0;8.39567e-13;-2.220446e-16;-1.110223e-16;6.586627e-17;0;0;0;0;-8.039488e-17;-2.52672e-16;8.613857e-17;45;0;1.148514e-16;1.490607e-16;-2.220446e-16;1.258114e-16;5.921128e-18;-1.110223e-16;-1.198903e-16;0.489398;-3.330669e-16;3.330669e-16;0
-0.169641;0.06621;0.571005;8.39567e-13;0;0;8.39567e-13;2.220446e-16;-1.110223e-16;8.231721e-18;0;0;0;0;2.222479e-16;-1.112256e-16;1.667368e-16;45;0;2.223157e-16;1.960555e-16;2.220446e-16;3.038177e-17;-1.391833e-17;-1.110223e-16;-4.430011e-17;0.571005;1.110223e-16;-1.110223e-16;0
-0.102475;0.06621;0.627221;8.39567e-13;0;0;8.39567e-13;-2.220446e-16;4.440892e-16;-1.445433e-17;0;0;0;0;4.444027e-16;-2.223581e-16;3.333804e-16;45;0;4.445072e-16;3.920053e-16;-2.220446e-16;-3.286017e-17;3.951505e-18;4.440892e-16;3.681168e-17;0.627221;2.220446e-16;-2.220446e-16;0
-0.03531;0.06621;0.676676;8.39567e-13;0;0;8.39567e-13;0;2.220446e-16;5.192396e-17;0;0;0;0;2.335868e-16;-1.154217e-17;1.225645e-16;45;0;1.634193e-16;1.59711e-16;0;9.13329e-17;1.251502e-17;2.220446e-16;-7.881788e-17;0.676676;2.220446e-16;-2.220446e-16;0
0.031855;0.06621;0.723982;8.39567e-13;0;0;8.39567e-13;0;0;-1.853744e-18;0;0;0;0;1.853744e-18;-1.853744e-18;1.853744e-18;45;0;2.471659e-18;2.140519e-18;0;-3.707488e-18;0;0;3.707488e-18;0.723982;0;0;0
0.099021;0.06621;0.775426;8.39567e-13;0;0;8.39567e-13;0;0;5.836739e-17;0;0;0;0;5.836739e-17;-5.836739e-17;5.836739e-17;45;0;7.782318e-17;6.739685e-17;0;6.457356e-17;5.216122e-17;0;-1.241233e-17;0.775426;0;0;0
0.166186;0.06621;0.806025;8.39567e-13;0;0;8.39567e-13;0;2.220446e-16;-7.054844e-17;0;0;0;0;2.425633e-16;-2.05187e-17;1.31541e-16;45;0;1.75388e-16;1.689642e-16;0;-8.399242e-17;-5.710447e-17;2.220446e-16;2.688794e-17;0.806025;2.220446e-16;-2.220446e-16;0
0.233352;0.06621;0.831819;8.39567e-13;0;0;8.39567e-13;0;2.220446e-16;-3.963052e-18;0;0;0;0;2.221153e-16;-7.071002e-20;1.11093e-16;45;0;1.48124e-16;1.481005e-16;0;-2.89371e-17;2.1011e-17;2.220446e-16;4.99481e-17;0.831819;2.220446e-16;-2.220446e-16;0
0.300517;0.06621;0.875393;8.39567e-13;0;0;8.39567e-13;-1.110223e-16;0;-2.179562e-17;0;0;0;0;4.125558e-18;-1.151479e-16;5.963671e-17;45;0;7.951561e-17;7.817672e-17;-1.110223e-16;-7.292712e-17;2.933587e-17;0;1.02263e-16;0.875393;-1.110223e-16;1.110223e-16;0
0.367682;0.06621;0.879516;8.39567e-13;0;0;8.39567e-13;0;0;6.524155e-18;0;0;0;0;6.524155e-18;-6.524155e-18;6.524155e-18;45;0;8.698874e-18;7.533446e-18;0;8.07011e-18;4.978201e-18;0;-3.091909e-18;0.879516;0;0;0
0.434848;0.06621;0.894629;8.39567e-13;0;0;8.39567e-13;2.220446e-16;-3.330669e-16;-1.274172e-17;0;0;0;0;2.223369e-16;-3.333592e-16;2.778481e-16;45;0;3.704641e-16;3.229586e-16;2.220446e-16;-2.548343e-17;0;-3.330669e-16;2.548343e-17;0.894629;-1.110223e-16;1.110223e-16;0
0.502013;0.06621;0.912389;8.39567e-13;0;0;8.39567e-13;0;2.220446e-16;1.657001e-18;0;0;0;0;2.22057e-16;-1.236464e-20;1.110347e-16;45;0;1.480462e-16;1.480421e-16;0;2.338113e-17;-2.006713e-17;2.220446e-16;-4.344826e-17;0.912389;2.220446e-16;-2.220446e-16;0
0.569178;0.06621;0.938504;8.39567e-13;0;0;8.39567e-13;2.220446e-16;2.220446e-16;-3.669919e-17;0;0;0;0;2.587438e-16;1.853454e-16;3.669919e-17;45;0;4.893225e-17;1.539759e-16;2.220446e-16;-1.297704e-17;-6.042134e-17;2.220446e-16;-4.744431e-17;0.938504;4.440892e-16;-4.440892e-16;0
0.636344;0.06621;0.946959;8.39567e-13;0;0;8.39567e-13;-1.110223e-16;-1.110223e-16;8.25996e-18;0;0;0;0;-1.027623e-16;-1.192823e-16;8.25996e-18;45;0;1.101328e-17;7.462687e-17;-1.110223e-16;3.686182e-17;-2.034189e-17;-1.110223e-16;-5.720371e-17;0.946959;-2.220446e-16;2.220446e-16;0
0.703509;0.06621;0.914706;8.39567e-13;0;0;8.39567e-13;0;0;2.838698e-17;0;0;0;0;2.838698e-17;-2.838698e-17;2.838698e-17;45;0;3.78493e-17;3.277846e-17;0;1.694717e-17;3.982678e-17;0;2.28796e-17;0.914706;0;0;0
0.770674;0.06621;0.916859;8.39567e-13;0;0;8.39567e-13;0;-1.110223e-16;3.011786e-17;0;0;0;0;7.644001e-18;-1.186663e-16;6.315515e-17;45;0;8.420687e-17;8.177804e-17;0;3.436819e-17;2.586752e-17;-1.110223e-16;-8.500672e-18;0.916859;-1.110223e-16;1.110223e-16;0
0.83784;0.06621;0.935113;8.39567e-13;0;0;8.39567e-13;0;-1.110223e-16;1.812431e-17;0;0;0;0;2.883869e-18;-1.139062e-16;5.839502e-17;45;0;7.786003e-17;7.691676e-17;0;3.908945e-19;3.585772e-17;-1.110223e-16;3.546682e-17;0.935113;-1.110223e-16;1.110223e-16;0
0.905005;0.06621;0.903312;8.39567e-13;0;0;8.39567e-13;2.220446e-16;0;7.094538e-18;0;0;0;0;2.222711e-16;-2.264464e-19;1.112488e-16;45;0;1.483317e-16;1.482562e-16;2.220446e-16;9.195784e-18;4.993291e-18;0;-4.202493e-18;0.903312;2.220446e-16;-2.220446e-16;0
0.97217;0.06621;0.897099;8.39567e-13;0;0;8.39567e-13;-1.110223e-16;0;1.41712e-17;0;0;0;0;1.780305e-18;-1.128026e-16;5.729146e-17;45;0;7.638861e-17;7.580214e-17;-1.110223e-16;-1.348277e-17;4.182518e-17;0;5.530795e-17;0.897099;-1.110223e-16;1.110223e-16;0
1.039336;0.06621;0.845359;8.39567e-13;0;0;8.39567e-13;-1.110223e-16;0;7.541373e-18;0;0;0;0;5.099183e-19;-1.115322e-16;5.602107e-17;45;0;7.469476e-17;7.452537e-17;-1.110223e-16;3.265385e-17;-1.757111e-17;0;-5.022496e-17;0.845359;-1.110223e-16;1.110223e-16;0
1.106501;0.06621;0.794905;8.39567e-13;0;0;8.39567e-13;-1.110223e-16;-3.330669e-16;3.008702e-17;0;0;0;0;-1.070177e-16;-3.370715e-16;1.150269e-16;45;0;1.533692e-16;1.988828e-16;-1.110223e-16;2.589992e-17;3.427412e-17;-3.330669e-16;8.3742e-18;0.794905;-4.440892e-16;4.440892e-16;0
1.173667;0.06621;0.737265;8.39567e-13;0;0;8.39567e-13;0;-3.330669e-16;-3.475671e-17;0;0;0;0;3.588326e-18;-3.366552e-16;1.701218e-16;45;0;2.26829e-16;2.256424e-16;0;-6.553662e-17;-3.976793e-18;-3.330669e-16;6.155983e-17;0.737265;-3.330669e-16;3.330669e-16;0
1.240832;0.06621;0.688713;8.39567e-13;0;0;8.39567e-13;0;0;-4.375526e-18;0;0;0;0;4.375526e-18;-4.375526e-18;4.375526e-18;45;0;5.834034e-18;5.052422e-18;0;3.405923e-18;-1.215697e-17;0;-1.55629e-17;0.688713;0;0;0
1.307997;0.06621;0.646658;8.39567e-13;0;0;8.39567e-13;2.220446e-16;2.220446e-16;3.475989e-17;0;0;0;0;2.568045e-16;1.872847e-16;3.475989e-17;45;0;4.634652e-17;1.533747e-16;2.220446e-16;2.92812e-17;4.023858e-17;2.220446e-16;1.095738e-17;0.646658;4.440892e-16;-4.440892e-16;0
1.375163;0.06621;0.598136;8.39567e-13;0;0;8.39567e-13;0;2.220446e-16;3.99315e-17;0;0;0;0;2.290074e-16;-6.962765e-18;1.179851e-16;45;0;1.573134e-16;1.550446e-16;0;6.458706e-17;1.527593e-17;2.220446e-16;-4.931112e-17;0.598136;2.220446e-16;-2.220446e-16;0
1.442328;0.06621;0.474526;8.39567e-13;0;0;8.39567e-13;0;-1.110223e-16;1.615941e-17;0;0;0;0;2.304198e-18;-1.133265e-16;5.781535e-17;45;0;7.708713e-17;7.633066e-17;0;3.392824e-17;-1.609408e-18;-1.110223e-16;-3.553764e-17;0.474526;-1.110223e-16;1.110223e-16;0
1.509493;0.06621;0.355091;8.39567e-13;0;0;8.39567e-13;2.220446e-16;-2.220446e-16;-1.952776e-17;0;0;0;0;2.229016e-16;-2.229016e-16;2.229016e-16;45;0;2.972022e-16;2.573846e-16;2.220446e-16;6.239658e-18;-4.529519e-17;-2.220446e-16;-5.153484e-17;0.355091;0;0;0
-0.371137;-9.548888e-04;0.263426;8.39567e-13;0;0;8.39567e-13;-1.110223e-16;-2.220446e-16;7.3946e-17;0;0;0;0;-7.406996e-17;-2.589969e-16;9.246349e-17;45;0;1.232847e-16;1.540301e-16;-1.110223e-16;4.705583e-17;1.008362e-16;-2.220446e-16;5.378032e-17;0.263426;-3.330669e-16;3.330669e-16;0
-0.303971;-9.548888e-04;0.366079;8.39567e-13;0;0;8.39567e-13;2.220446e-16;2.220446e-16;-7.607521e-18;0;0;0;0;2.296521e-16;2.144371e-16;7.607521e-18;45;0;1.014336e-17;1.482902e-16;2.220446e-16;-4.04927e-18;-1.116577e-17;2.220446e-16;-7.116504e-18;0.366079;4.440892e-16;-4.440892e-16;0
-0.236806;-9.548888e-04;0.459714;8.39567e-13;0;0;8.39567e-13;-2.220446e-16;0;-4.87422e-18;0;0;0;0;1.069451e-19;-2.221515e-16;1.111293e-16;45;0;1.481723e-16;1.481367e-16;-2.220446e-16;1.404755e-17;-2.379599e-17;0;-3.784354e-17;0.459714;-2.220446e-16;2.220446e-16;0
-0.169641;-9.548888e-04;0.559791;8.39567e-13;0;0;8.39567e-13;0;-1.110223e-16;2.139837e-18;0;0;0;0;4.122776e-20;-1.110635e-16;5.555238e-17;45;0;7.406984e-17;7.40561e-17;0;4.279673e-18;0;-1.110223e-16;-4.279673e-18;0.559791;-1.110223e-16;1.110223e-16;0
-0.102475;-9.548888e-04;0.625147;8.39567e-13;0;0;8.39567e-13;-1.110223e-16;0;-3.51439e-17;0;0;0;0;1.018955e-17;-1.212118e-16;6.57007e-17;45;0;8.760093e-17;8.440967e-17;-1.110223e-16;-2.813485e-17;-4.215296e-17;0;-1.401811e-17;0.625147;-1.110223e-16;1.110223e-16;0
-0.03531;-9.548888e-04;0.671053;8.39567e-13;0;0;8.39567e-13;0;-1.110223e-16;-4.134579e-17;0;0;0;0;1.370563e-17;-1.247279e-16;6.921678e-17;45;0;9.228904e-17;8.807667e-17;0;-4.188721e-17;-4.080437e-17;-1.110223e-16;1.082831e-18;0.671053;-1.110223e-16;1.110223e-16;0
0.031855;-9.548888e-04;0.702795;8.39567e-13;0;0;8.39567e-13;-1.110223e-16;0;-3.025195e-17;0;0;0;0;7.708056e-18;-1.187304e-16;6.321921e-17;45;0;8.429228e-17;8.1844e-17;-1.110223e-16;-7.740004e-17;1.689615e-17;0;9.429619e-17;0.702795;-1.110223e-16;1.110223e-16;0
0.099021;-9.548888e-04;0.768518;8.39567e-13;0;0;8.39567e-13;-4.440892e-16;0;-3.275488e-17;0;0;0;0;2.402914e-18;-4.464921e-16;2.244475e-16;45;0;2.992634e-16;2.984656e-16;-4.440892e-16;-3.971317e-17;-2.579659e-17;0;1.391657e-17;0.768518;-4.440892e-16;4.440892e-16;0
0.166186;-9.548888e-04;0.804854;8.39567e-13;0;0;8.39567e-13;-1.110223e-16;0;2.246018e-18;0;0;0;0;4.541912e-20;-1.110677e-16;5.555657e-17;45;0;7.407543e-17;7.406029e-17;-1.110223e-16;-4.847753e-18;9.33979e-18;0;1.418754e-17;0.804854;-1.110223e-16;1.110223e-16;0
0.233352;-9.548888e-04;0.834218;8.39567e-13;0;0;8.39567e-13;-1.110223e-16;-1.110223e-16;1.844662e-17;0;0;0;0;-9.257569e-17;-1.294689e-16;1.844662e-17;45;0;2.459549e-17;7.701886e-17;-1.110223e-16;1.499004e-18;3.539423e-17;-1.110223e-16;3.389522e-17;0.834218;-2.220446e-16;2.220446e-16;0
0.300517;-9.548888e-04;0.874177;8.39567e-13;0;0;8.39567e-13;2.220446e-16;0;-1.247567e-17;0;0;0;0;2.227434e-16;-6.987523e-19;1.117211e-16;45;0;1.489614e-16;1.48729e-16;2.220446e-16;-2.849752e-17;3.546172e-18;0;3.204369e-17;0.874177;2.220446e-16;-2.220446e-16;0
0.367682;-9.548888e-04;0.888081;8.39567e-13;0;0;8.39567e-13;2.220446e-16;0;-3.109522e-17;0;0;0;0;2.26317e-16;-4.272383e-18;1.152947e-16;45;0;1.537262e-16;1.523221e-16;2.220446e-16;-4.228866e-17;-1.990178e-17;0;2.238688e-17;0.888081;2.220446e-16;-2.220446e-16;0
0.434848;-9.548888e-04;0.893355;8.39567e-13;0;0;8.39567e-13;0;-1.110223e-16;3.844194e-18;0;0;0;0;1.329476e-19;-1.111552e-16;5.56441e-17;45;0;7.419213e-17;7.414785e-17;0;8.962552e-18;-1.274165e-18;-1.110223e-16;-1.023672e-17;0.893355;-1.110223e-16;1.110223e-16;0
0.502013;-9.548888e-04;0.9107;8.39567e-13;0;0;8.39567e-13;0;0;2.364709e-17;0;0;0;0;2.364709e-17;-2.364709e-17;2.364709e-17;45;0;3.152945e-17;2.73053e-17;0;-1.25129e-17;5.980707e-17;0;7.231996e-17;0.9107;0;0;0
0.569178;-9.548888e-04;0.924628;8.39567e-13;0;0;8.39567e-13;2.220446e-16;0;-2.494145e-18;0;0;0;0;2.220726e-16;-2.801228e-20;1.110503e-16;45;0;1.480671e-16;1.480577e-16;2.220446e-16;-4.359989e-17;3.86116e-17;0;8.221148e-17;0.924628;2.220446e-16;-2.220446e-16;0
0.636344;-9.548888e-04;0.915581;8.39567e-13;0;0;8.39567e-13;0;0;4.864249e-17;0;0;0;0;4.864249e-17;-4.864249e-17;4.864249e-17;45;0;6.485666e-17;5.616752e-17;0;2.080352e-17;7.648147e-17;0;5.567795e-17;0.915581;0;0;0
0.703509;-9.548888e-04;0.90233;8.39567e-13;0;0;8.39567e-13;2.220446e-16;0;-3.130961e-17;0;0;0;0;2.26375e-16;-4.330389e-18;1.153527e-16;45;0;1.538036e-16;1.523806e-16;2.220446e-16;-3.706766e-17;-2.555156e-17;0;1.15161e-17;0.90233;2.220446e-16;-2.220446e-16;0
0.770674;-9.548888e-04;0.896566;8.39567e-13;0;0;8.39567e-13;0;0;3.099263e-17;0;0;0;0;3.099263e-17;-3.099263e-17;3.099263e-17;45;0;4.132351e-17;3.578721e-17;0;7.533166e-19;6.123195e-17;0;6.047864e-17;0.896566;0;0;0
0.83784;-9.548888e-04;0.872674;8.39567e-13;0;0;8.39567e-13;-1.110223e-16;0;6.405051e-18;0;0;0;0;3.682957e-19;-1.113906e-16;5.587945e-17;45;0;7.450593e-17;7.438347e-17;-1.110223e-16;2.536875e-18;1.027323e-17;0;7.736353e-18;0.872674;-1.110223e-16;1.110223e-16;0
0.905005;-9.548888e-04;0.880603;8.39567e-13;0;0;8.39567e-13;2.220446e-16;-1.110223e-16;1.516536e-17;0;0;0;0;2.227337e-16;-1.117114e-16;1.672225e-16;45;0;2.229634e-16;1.966064e-16;2.220446e-16;4.538623e-18;2.579209e-17;-1.110223e-16;2.125347e-17;0.880603;1.110223e-16;-1.110223e-16;0
0.97217;-9.548888e-04;0.87263;8.39567e-13;0;0;8.39567e-13;0;2.220446e-16;4.039768e-17;0;0;0;0;2.29166e-16;-7.121357e-18;1.181437e-16;45;0;1.575249e-16;1.552056e-16;0;3.322572e-17;4.756964e-17;2.220446e-16;1.434392e-17;0.87263;2.220446e-16;-2.220446e-16;0
1.039336;-9.548888e-04;0.839332;8.39567e-13;0;0;8.39567e-13;2.220446e-16;0;1.672775e-17;0;0;0;0;2.232977e-16;-1.253115e-18;1.122754e-16;45;0;1.497006e-16;1.492846e-16;2.220446e-16;2.410598e-17;9.349527e-18;0;-1.475645e-17;0.839332;2.220446e-16;-2.220446e-16;0
1.106501;-9.548888e-04;0.836464;8.39567e-13;0;0;8.39567e-13;-3.330669e-16;2.220446e-16;3.193534e-18;0;0;0;0;2.22063e-16;-3.330853e-16;2.775741e-16;45;0;3.700988e-16;3.226444e-16;-3.330669e-16;-1.163456e-17;1.802163e-17;2.220446e-16;2.96562e-17;0.836464;-1.110223e-16;1.110223e-16;0
1.173667;-9.548888e-04;0.771322;8.39567e-13;0;0;8.39567e-13;2.220446e-16;0;-8.998901e-17;0;0;0;0;2.539348e-16;-3.189017e-17;1.429125e-16;45;0;1.9055e-16;1.808595e-16;2.220446e-16;-1.480697e-16;-3.190832e-17;0;1.161614e-16;0.771322;2.220446e-16;-2.220446e-16;0
1.240832;-9.548888e-04;0.712017;8.39567e-13;0;0;8.39567e-13;0;-1.110223e-16;-1.935017e-17;0;0;0;0;3.275896e-18;-1.142982e-16;5.878704e-17;45;0;7.838273e-17;7.73139e-17;0;-6.817444e-17;2.94741e-17;-1.110223e-16;9.764854e-17;0.712017;-1.110223e-16;1.110223e-16;0
1.307997;-9.548888e-04;0.640066;8.39567e-13;0;0;8.39567e-13;0;2.220446e-16;-4.363817e-18;0;0;0;0;2.221303e-16;-8.572848e-20;1.11108e-16;45;0;1.48144e-16;1.481155e-16;0;1.3424e-17;-2.215164e-17;2.220446e-16;-3.557564e-17;0.640066;2.220446e-16;-2.220446e-16;0
1.375163;-9.548888e-04;0.587236;8.39567e-13;0;0;8.39567e-13;0;2.220446e-16;-3.130972e-17;0;0;0;0;2.26375e-16;-4.33042e-18;1.153527e-16;45;0;1.538036e-16;1.523807e-16;0;-8.102527e-17;1.840582e-17;2.220446e-16;9.943109e-17;0.587236;2.220446e-16;-2.220446e-16;0
1.442328;-9.548888e-04;0.486924;8.39567e-13;0;0;8.39567e-13;0;-1.110223e-16;6.504425e-17;0;0;0;0;3.00005e-17;-1.410228e-16;8.551165e-17;45;0;1.140155e-16;1.054476e-16;0;1.011314e-16;2.89571e-17;-1.110223e-16;-7.21743e-17;0.486924;-1.110223e-16;1.110223e-16;0
1.509493;-9.548888e-04;0.363948;8.39567e-13;0;0;8.39567e-13;0;2.220446e-16;6.566252e-17;0;0;0;0;2.400088e-16;-1.79642e-17;1.289865e-16;45;0;1.71982e-16;1.663176e-16;0;6.812042e-17;6.320461e-17;2.220446e-16;-4.915803e-18;0.363948;2.220446e-16;-2.220446e-16;0
-0.371137;-0.06812;0.24838;8.39567e-13;0;0;8.39567e-13;2.220446e-16;0;1.192426e-17;0;0;0;0;2.226831e-16;-6.385213e-19;1.116608e-16;45;0;1.488811e-16;1.486687e-16;2.220446e-16;-4.745793e-17;7.130644e-17;0;1.187644e-16;0.24838;2.220446e-16;-2.220446e-16;0
-0.303971;-0.06812;0.373627;8.39567e-13;0;0;8.39567e-13;0;-1.110223e-16;-2.572289e-18;0;0;0;0;5.956569e-20;-1.110819e-16;5.557071e-17;45;0;7.409429e-17;7.407444e-17;0;-1.549218e-17;1.03476e-17;-1.110223e-16;2.583978e-17;0.373627;-1.110223e-16;1.110223e-16;0
-0.236806;-0.06812;0.475324;8.39567e-13;0;0;8.39567e-13;0;2.220446e-16;-5.453496e-17;0;0;0;0;2.347155e-16;-1.267092e-17;1.236932e-16;45;0;1.649243e-16;1.608671e-16;0;-1.151693e-16;6.099363e-18;2.220446e-16;1.212686e-16;0.475324;2.220446e-16;-2.220446e-16;0
-0.169641;-0.06812;0.540658;8.39567e-13;0;0;8.39567e-13;-1.110223e-16;-1.110223e-16;-3.111137e-18;0;0;0;0;-1.079112e-16;-1.141334e-16;3.111137e-18;45;0;4.148183e-18;7.4102e-17;-1.110223e-16;-3.347909e-17;2.725682e-17;-1.110223e-16;6.073591e-17;0.540658;-2.220446e-16;2.220446e-16;0
-0.102475;-0.06812;0.61004;8.39567e-13;0;0;8.39567e-13;-1.110223e-16;-1.110223e-16;-2.782848e-17;0;0;0;0;-8.319382e-17;-1.388508e-16;2.782848e-17;45;0;3.710465e-17;8.068932e-17;-1.110223e-16;-6.278039e-17;7.123427e-18;-1.110223e-16;6.990382e-17;0.61004;-2.220446e-16;2.220446e-16;0
-0.03531;-0.06812;0.695295;8.39567e-13;0;0;8.39567e-13;2.220446e-16;-1.110223e-16;-3.568958e-17;0;0;0;0;2.25826e-16;-1.148037e-16;1.703148e-16;45;0;2.270864e-16;2.001143e-16;2.220446e-16;-2.208271e-17;-4.929645e-17;-1.110223e-16;-2.721373e-17;0.695295;1.110223e-16;-1.110223e-16;0
0.031855;-0.06812;0.714468;8.39567e-13;0;0;8.39567e-13;0;0;-2.605176e-17;0;0;0;0;2.605176e-17;-2.605176e-17;2.605176e-17;45;0;3.473567e-17;3.008197e-17;0;-2.566883e-17;-2.643469e-17;0;-7.658589e-19;0.714468;0;0;0
0.099021;-0.06812;0.760062;8.39567e-13;0;0;8.39567e-13;2.220446e-16;2.220446e-16;4.013084e-19;0;0;0;0;2.224459e-16;2.216433e-16;4.013084e-19;45;0;5.350779e-19;1.480305e-16;2.220446e-16;5.325976e-18;-4.52336e-18;2.220446e-16;-9.849336e-18;0.760062;4.440892e-16;-4.440892e-16;0
0.166186;-0.06812;0.770176;8.39567e-13;0;0;8.39567e-13;0;4.440892e-16;-2.354523e-17;0;0;0;0;4.453341e-16;-1.244858e-18;2.232895e-16;45;0;2.977193e-16;2.973052e-16;0;-2.646767e-17;-2.062278e-17;4.440892e-16;5.844893e-18;0.770176;4.440892e-16;-4.440892e-16;0
0.233352;-0.06812;0.815591;8.39567e-13;0;0;8.39567e-13;2.220446e-16;2.220446e-16;1.419776e-17;0;0;0;0;2.362424e-16;2.078469e-16;1.419776e-17;45;0;1.893034e-17;1.489348e-16;2.220446e-16;4.167807e-18;2.42277e-17;2.220446e-16;2.00599e-17;0.815591;4.440892e-16;-4.440892e-16;0
0.300517;-0.06812;0.884635;8.39567e-13;0;0;8.39567e-13;0;0;-2.082524e-18;0;0;0;0;2.082524e-18;-2.082524e-18;2.082524e-18;45;0;2.776699e-18;2.404692e-18;0;-3.160001e-17;2.743497e-17;0;5.903498e-17;0.884635;0;0;0
0.367682;-0.06812;0.890588;8.39567e-13;0;0;8.39567e-13;-1.110223e-16;-1.110223e-16;-9.261938e-18;0;0;0;0;-1.017604e-16;-1.202842e-16;9.261938e-18;45;0;1.234925e-17;7.478355e-17;-1.110223e-16;-1.820121e-17;-3.226633e-19;-1.110223e-16;1.787855e-17;0.890588;-2.220446e-16;2.220446e-16;0
0.434848;-0.06812;0.882555;8.39567e-13;0;0;8.39567e-13;0;0;1.239829e-17;0;0;0;0;1.239829e-17;-1.239829e-17;1.239829e-17;45;0;1.653105e-17;1.431631e-17;0;1.7078e-17;7.71857e-18;0;-9.35943e-18;0.882555;0;0;0
0.502013;-0.06812;0.899758;8.39567e-13;0;0;8.39567e-13;-1.110223e-16;0;1.276071e-18;0;0;0;0;1.4665e-20;-1.11037e-16;5.552582e-17;45;0;7.403442e-17;7.402953e-17;-1.110223e-16;4.666147e-17;-4.410933e-17;0;-9.07708e-17;0.899758;-1.110223e-16;1.110223e-16;0
0.569178;-0.06812;0.92369;8.39567e-13;0;0;8.39567e-13;2.220446e-16;-1.110223e-16;-2.912198e-17;0;0;0;0;2.245717e-16;-1.135494e-16;1.690606e-16;45;0;2.254141e-16;1.986912e-16;2.220446e-16;2.209815e-19;-5.846494e-17;-1.110223e-16;-5.868592e-17;0.92369;1.110223e-16;-1.110223e-16;0
0.636344;-0.06812;0.900775;8.39567e-13;0;0;8.39567e-13;0;-3.330669e-16;2.547503e-17;0;0;0;0;1.937221e-18;-3.350041e-16;1.684707e-16;45;0;2.246276e-16;2.239846e-16;0;4.966578e-17;1.284277e-18;-3.330669e-16;-4.83815e-17;0.900775;-3.330669e-16;3.330669e-16;0
0.703509;-0.06812;0.90898;8.39567e-13;0;0;8.39567e-13;2.220446e-16;0;2.1971e-17;0;0;0;0;2.241977e-16;-2.153121e-18;1.131754e-16;45;0;1.509006e-16;1.50188e-16;2.220446e-16;-2.493926e-18;4.643593e-17;0;4.892985e-17;0.90898;2.220446e-16;-2.220446e-16;0
0.770674;-0.06812;0.892458;8.39567e-13;0;0;8.39567e-13;2.220446e-16;2.220446e-16;8.16231e-18;0;0;0;0;2.302069e-16;2.138823e-16;8.16231e-18;45;0;1.088308e-17;1.483295e-16;2.220446e-16;6.634693e-17;-5.002231e-17;2.220446e-16;-1.163692e-16;0.892458;4.440892e-16;-4.440892e-16;0
0.83784;-0.06812;0.869517;8.39567e-13;0;0;8.39567e-13;2.220446e-16;2.220446e-16;2.402213e-17;0;0;0;0;2.460667e-16;1.980225e-16;2.402213e-17;45;0;3.202951e-17;1.506062e-16;2.220446e-16;1.717079e-17;3.087346e-17;2.220446e-16;1.370267e-17;0.869517;4.440892e-16;-4.440892e-16;0
0.905005;-0.06812;0.889681;8.39567e-13;0;0;8.39567e-13;0;0;-1.662468e-17;0;0;0;0;1.662468e-17;-1.662468e-17;1.662468e-17;45;0;2.216624e-17;1.919652e-17;0;-1.968524e-17;-1.356412e-17;0;6.121118e-18;0.889681;0;0;0
0.97217;-0.06812;0.877469;8.39567e-13;0;0;8.39567e-13;0;2.220446e-16;8.280915e-18;0;0;0;0;2.22353e-16;-3.083995e-19;1.113307e-16;45;0;1.484409e-16;1.483382e-16;0;3.454176e-17;-1.797993e-17;2.220446e-16;-5.252169e-17;0.877469;2.220446e-16;-2.220446e-16;0
1.039336;-0.06812;0.80695;8.39567e-13;0;0;8.39567e-13;0;0;1.094852e-17;0;0;0;0;1.094852e-17;-1.094852e-17;1.094852e-17;45;0;1.459802e-17;1.264226e-17;0;-1.357543e-17;3.547247e-17;0;4.90479e-17;0.80695;0;0;0
1.106501;-0.06812;0.802646;8.39567e-13;0;0;8.39567e-13;0;0;4.244106e-17;0;0;0;0;4.244106e-17;-4.244106e-17;4.244106e-17;45;0;5.658808e-17;4.900672e-17;0;4.443483e-17;4.04473e-17;0;-3.98753e-18;0.802646;0;0;0
1.173667;-0.06812;0.806178;8.39567e-13;0;0;8.39567e-13;0;4.440892e-16;6.05244e-17;0;0;0;0;4.521902e-16;-8.101023e-18;2.301456e-16;45;0;3.068608e-16;3.041965e-16;0;7.050298e-17;5.054583e-17;4.440892e-16;-1.995715e-17;0.806178;4.440892e-16;-4.440892e-16;0
1.240832;-0.06812;0.752771;8.39567e-13;0;0;8.39567e-13;2.220446e-16;0;2.057276e-17;0;0;0;0;2.239346e-16;-1.890009e-18;1.129123e-16;45;0;1.505497e-16;1.499237e-16;2.220446e-16;1.999572e-17;2.11498e-17;0;1.154076e-18;0.752771;2.220446e-16;-2.220446e-16;0
1.307997;-0.06812;0.660446;8.39567e-13;0;0;8.39567e-13;0;2.220446e-16;-1.222181e-17;0;0;0;0;2.227153e-16;-6.706888e-19;1.11693e-16;45;0;1.48924e-16;1.487009e-16;0;2.171734e-17;-4.616096e-17;2.220446e-16;-6.787829e-17;0.660446;2.220446e-16;-2.220446e-16;0
1.375163;-0.06812;0.582091;8.39567e-13;0;0;8.39567e-13;-2.220446e-16;0;-2.186645e-17;0;0;0;0;2.132871e-18;-2.241775e-16;1.131552e-16;45;0;1.508736e-16;1.501677e-16;-2.220446e-16;-4.861968e-17;4.886784e-18;0;5.350646e-17;0.582091;-2.220446e-16;2.220446e-16;0
1.442328;-0.06812;0.495733;8.39567e-13;0;0;8.39567e-13;-2.220446e-16;-1.110223e-16;1.742021e-17;0;0;0;0;-1.083531e-16;-2.247138e-16;5.818034e-17;45;0;7.757378e-17;1.29766e-16;-2.220446e-16;3.619618e-17;-1.355764e-18;-1.110223e-16;-3.755194e-17;0.495733;-3.330669e-16;3.330669e-16;0
1.509493;-0.06812;0.369375;8.39567e-13;0;0;8.39567e-13;-1.110223e-16;-2.220446e-16;-3.784476e-17;0;0;0;0;-9.934928e-17;-2.337176e-16;6.718418e-17;45;0;8.957891e-17;1.354409e-16;-1.110223e-16;7.707307e-19;-7.646026e-17;-2.220446e-16;-7.723099e-17;0.369375;-3.330669e-16;3.330669e-16;0
-0.371137;-0.135286;0.22788;8.39567e-13;0;0;8.39567e-13;-4.440892e-16;4.440892e-16;-3.53828e-17;0;0;0;0;4.454966e-16;-4.454966e-16;4.454966e-16;45;0;5.939954e-16;5.144151e-16;-4.440892e-16;-4.460264e-18;-6.630533e-17;4.440892e-16;-6.184507e-17;0.22788;0;0;0
-0.303971;-0.135286;0.352343;8.39567e-13;0;0;8.39567e-13;-1.110223e-16;0;1.108725e-17;0;0;0;0;1.096401e-18;-1.121187e-16;5.660755e-17;45;0;7.547674e-17;7.511394e-17;-1.110223e-16;1.502576e-17;7.148738e-18;0;-7.877022e-18;0.352343;-1.110223e-16;1.110223e-16;0
-0.236806;-0.135286;0.496204;8.39567e-13;0;0;8.39567e-13;0;2.220446e-16;-9.465111e-18;0;0;0;0;2.224473e-16;-4.027395e-19;1.11425e-16;45;0;1.485667e-16;1.484327e-16;0;-4.32418e-17;2.431158e-17;2.220446e-16;6.755339e-17;0.496204;2.220446e-16;-2.220446e-16;0
-0.169641;-0.135286;0.547238;8.39567e-13;0;0;8.39567e-13;0;-1.110223e-16;2.645397e-17;0;0;0;0;5.981127e-18;-1.170034e-16;6.149228e-17;45;0;8.198971e-17;8.007049e-17;0;2.533004e-17;2.757789e-17;-1.110223e-16;2.247845e-18;0.547238;-1.110223e-16;1.110223e-16;0
-0.102475;-0.135286;0.596288;8.39567e-13;0;0;8.39567e-13;2.220446e-16;-3.330669e-16;-5.047848e-18;0;0;0;0;2.220905e-16;-3.331128e-16;2.776017e-16;45;0;3.701355e-16;3.22676e-16;2.220446e-16;-1.459757e-17;4.501878e-18;-3.330669e-16;1.909945e-17;0.596288;-1.110223e-16;1.110223e-16;0
-0.03531;-0.135286;0.677844;8.39567e-13;0;0;8.39567e-13;-1.110223e-16;-1.110223e-16;6.612343e-17;0;0;0;0;-4.489887e-17;-1.771457e-16;6.612343e-17;45;0;8.816457e-17;1.063388e-16;-1.110223e-16;9.366391e-17;3.858294e-17;-1.110223e-16;-5.508097e-17;0.677844;-2.220446e-16;2.220446e-16;0
0.031855;-0.135286;0.72327;8.39567e-13;0;0;8.39567e-13;2.220446e-16;2.220446e-16;1.377055e-17;0;0;0;0;2.358152e-16;2.08274e-16;1.377055e-17;45;0;1.836074e-17;1.488813e-16;2.220446e-16;3.497068e-17;-7.429566e-18;2.220446e-16;-4.240024e-17;0.72327;4.440892e-16;-4.440892e-16;0
0.099021;-0.135286;0.77929;8.39567e-13;0;0;8.39567e-13;2.220446e-16;2.220446e-16;4.648033e-18;0;0;0;0;2.266926e-16;2.173966e-16;4.648033e-18;45;0;6.197378e-18;1.48127e-16;2.220446e-16;1.786733e-17;-8.571268e-18;2.220446e-16;-2.64386e-17;0.77929;4.440892e-16;-4.440892e-16;0
0.166186;-0.135286;0.803332;8.39567e-13;0;0;8.39567e-13;2.220446e-16;-4.440892e-16;1.586005e-20;0;0;0;0;2.220446e-16;-4.440892e-16;3.330669e-16;45;0;4.440892e-16;3.916499e-16;2.220446e-16;7.160911e-17;-7.157738e-17;-4.440892e-16;-1.431865e-16;0.803332;-2.220446e-16;2.220446e-16;0
0.233352;-0.135286;0.849329;8.39567e-13;0;0;8.39567e-13;0;0;-6.044176e-19;0;0;0;0;6.044176e-19;-6.044176e-19;6.044176e-19;45;0;8.058901e-19;6.979213e-19;0;-1.818994e-17;1.698111e-17;0;3.517105e-17;0.849329;0;0;0
0.300517;-0.135286;0.901185;8.39567e-13;0;0;8.39567e-13;-1.110223e-16;2.220446e-16;-3.736848e-17;0;0;0;0;2.261857e-16;-1.151634e-16;1.706745e-16;45;0;2.27566e-16;2.005225e-16;-1.110223e-16;-3.730918e-17;-3.742777e-17;2.220446e-16;-1.18591e-19;0.901185;1.110223e-16;-1.110223e-16;0
0.367682;-0.135286;0.905961;8.39567e-13;0;0;8.39567e-13;0;0;1.257849e-17;0;0;0;0;1.257849e-17;-1.257849e-17;1.257849e-17;45;0;1.677131e-17;1.452438e-17;0;1.173827e-17;1.34187e-17;0;1.680428e-18;0.905961;0;0;0
0.434848;-0.135286;0.869053;8.39567e-13;0;0;8.39567e-13;-1.110223e-16;-1.110223e-16;1.959343e-17;0;0;0;0;-9.142887e-17;-1.306157e-16;1.959343e-17;45;0;2.612457e-17;7.739554e-17;-1.110223e-16;3.018204e-18;3.616866e-17;-1.110223e-16;3.315045e-17;0.869053;-2.220446e-16;2.220446e-16;0
0.502013;-0.135286;0.910335;8.39567e-13;0;0;8.39567e-13;2.220446e-16;2.220446e-16;-2.754406e-17;0;0;0;0;2.495887e-16;1.945005e-16;2.754406e-17;45;0;3.672542e-17;1.51408e-16;2.220446e-16;-5.657688e-17;1.488759e-18;2.220446e-16;5.806564e-17;0.910335;4.440892e-16;-4.440892e-16;0
0.569178;-0.135286;0.933325;8.39567e-13;0;0;8.39567e-13;-3.330669e-16;2.220446e-16;3.516912e-17;0;0;0;0;2.242639e-16;-3.352862e-16;2.79775e-16;45;0;3.730334e-16;3.251691e-16;-3.330669e-16;2.130608e-17;4.903215e-17;2.220446e-16;2.772607e-17;0.933325;-1.110223e-16;1.110223e-16;0
0.636344;-0.135286;0.909564;8.39567e-13;0;0;8.39567e-13;0;2.220446e-16;-3.81099e-17;0;0;0;0;2.284034e-16;-6.358771e-18;1.173811e-16;45;0;1.565081e-16;1.544321e-16;0;-5.007481e-17;-2.6145e-17;2.220446e-16;2.392981e-17;0.909564;2.220446e-16;-2.220446e-16;0
0.703509;-0.135286;0.932321;8.39567e-13;0;0;8.39567e-13;-1.110223e-16;0;6.146141e-18;0;0;0;0;3.392111e-19;-1.113615e-16;5.585036e-17;45;0;7.446715e-17;7.435434e-17;-1.110223e-16;-1.607287e-17;2.836515e-17;0;4.443803e-17;0.932321;-1.110223e-16;1.110223e-16;0
0.770674;-0.135286;0.921875;8.39567e-13;0;0;8.39567e-13;2.220446e-16;2.220446e-16;1.073954e-17;0;0;0;0;2.327841e-16;2.113051e-16;1.073954e-17;45;0;1.431938e-17;1.485483e-16;2.220446e-16;1.029364e-18;2.044971e-17;2.220446e-16;1.942035e-17;0.921875;4.440892e-16;-4.440892e-16;0
0.83784;-0.135286;0.910554;8.39567e-13;0;0;8.39567e-13;-1.110223e-16;-1.110223e-16;-3.461757e-17;0;0;0;0;-7.640473e-17;-1.456399e-16;3.461757e-17;45;0;4.615677e-17;8.411918e-17;-1.110223e-16;-3.876465e-17;-3.047049e-17;-1.110223e-16;8.294157e-18;0.910554;-2.220446e-16;2.220446e-16;0
0.905005;-0.135286;0.900273;8.39567e-13;0;0;8.39567e-13;0;-1.110223e-16;1.152324e-17;0;0;0;0;1.183407e-18;-1.122057e-16;5.669456e-17;45;0;7.559275e-17;7.520138e-17;0;3.310872e-17;-1.006225e-17;-1.110223e-16;-4.317097e-17;0.900273;-1.110223e-16;1.110223e-16;0
0.97217;-0.135286;0.886545;8.39567e-13;0;0;8.39567e-13;-1.110223e-16;-1.110223e-16;6.84228e-19;0;0;0;0;-1.103381e-16;-1.117065e-16;6.84228e-19;45;0;9.12304e-19;7.401909e-17;-1.110223e-16;1.368456e-18;0;-1.110223e-16;-1.368456e-18;0.886545;-2.220446e-16;2.220446e-16;0
1.039336;-0.135286;0.823578;8.39567e-13;0;0;8.39567e-13;0;2.220446e-16;-2.889091e-17;0;0;0;0;2.257421e-16;-3.697515e-18;1.147198e-16;45;0;1.529598e-16;1.517423e-16;0;-3.102022e-17;-2.676161e-17;2.220446e-16;4.258602e-18;0.823578;2.220446e-16;-2.220446e-16;0
1.106501;-0.135286;0.796999;8.39567e-13;0;0;8.39567e-13;2.220446e-16;2.220446e-16;1.172607e-17;0;0;0;0;2.337707e-16;2.103185e-16;1.172607e-17;45;0;1.563476e-17;1.486477e-16;2.220446e-16;4.773319e-17;-2.428104e-17;2.220446e-16;-7.201423e-17;0.796999;4.440892e-16;-4.440892e-16;0
1.173667;-0.135286;0.768789;8.39567e-13;0;0;8.39567e-13;-3.330669e-16;2.220446e-16;-6.52708e-17;0;0;0;0;2.29616e-16;-3.406383e-16;2.851271e-16;45;0;3.801695e-16;3.313098e-16;-3.330669e-16;-7.551207e-17;-5.502952e-17;2.220446e-16;2.048255e-17;0.768789;-1.110223e-16;1.110223e-16;0
1.240832;-0.135286;0.735838;8.39567e-13;0;0;8.39567e-13;0;-1.110223e-16;-2.264954e-17;0;0;0;0;4.442912e-18;-1.154652e-16;5.995406e-17;45;0;7.993875e-17;7.84997e-17;0;-1.38737e-17;-3.142538e-17;-1.110223e-16;-1.755168e-17;0.735838;-1.110223e-16;1.110223e-16;0
1.307997;-0.135286;0.666959;8.39567e-13;0;0;8.39567e-13;-2.220446e-16;2.220446e-16;3.558372e-17;0;0;0;0;2.248778e-16;-2.248778e-16;2.248778e-16;45;0;2.99837e-16;2.596665e-16;-2.220446e-16;6.457596e-17;6.591479e-18;2.220446e-16;-5.798447e-17;0.666959;0;0;0
1.375163;-0.135286;0.567034;8.39567e-13;0;0;8.39567e-13;0;0;-2.178456e-17;0;0;0;0;2.178456e-17;-2.178456e-17;2.178456e-17;45;0;2.904607e-17;2.515464e-17;0;-3.091712e-17;-1.265199e-17;0;1.826513e-17;0.567034;0;0;0
1.442328;-0.135286;0.493721;8.39567e-13;0;0;8.39567e-13;-2.220446e-16;0;1.862493e-17;0;0;0;0;1.551405e-18;-2.23596e-16;1.125737e-16;45;0;1.500983e-16;1.495838e-16;-2.220446e-16;6.313712e-17;-2.588726e-17;0;-8.902438e-17;0.493721;-2.220446e-16;2.220446e-16;0
1.509493;-0.135286;0.359592;8.39567e-13;0;0;8.39567e-13;-2.220446e-16;-2.220446e-16;7.098498e-18;0;0;0;0;-2.149461e-16;-2.291431e-16;7.098498e-18;45;0;9.464663e-18;1.482565e-16;-2.220446e-16;4.4169e-17;-2.997201e-17;-2.220446e-16;-7.414101e-17;0.359592;-4.440892e-16;4.440892e-16;0
-0.371137;-0.202451;0.226686;8.39567e-13;0;0;8.39567e-13;-2.220446e-16;0;1.379161e-17;0;0;0;0;8.533432e-19;-2.228979e-16;1.118756e-16;45;0;1.491675e-16;1.488839e-16;-2.220446e-16;-2.128662e-17;4.886984e-17;0;7.015646e-17;0.226686;-2.220446e-16;2.220446e-16;0
-0.303971;-0.202451;0.359847;8.39567e-13;0;0;8.39567e-13;0;0;-3.198371e-17;0;0;0;0;3.198371e-17;-3.198371e-17;3.198371e-17;45;0;4.264495e-17;3.693161e-17;0;-6.631899e-17;2.351574e-18;0;6.867057e-17;0.359847;0;0;0
-0.236806;-0.202451;0.484504;8.39567e-13;0;0;8.39567e-13;4.440892e-16;-1.110223e-16;-1.328795e-17;0;0;0;0;4.444071e-16;-1.113402e-16;2.778737e-16;45;0;3.704982e-16;3.395256e-16;4.440892e-16;-4.111216e-17;1.453626e-17;-1.110223e-16;5.564842e-17;0.484504;3.330669e-16;-3.330669e-16;0
-0.169641;-0.202451;0.550472;8.39567e-13;0;0;8.39567e-13;2.220446e-16;0;-6.849209e-17;0;0;0;0;2.41472e-16;-1.942737e-17;1.304497e-16;45;0;1.739329e-16;1.678323e-16;2.220446e-16;-1.175101e-16;-1.94741e-17;0;9.803598e-17;0.550472;2.220446e-16;-2.220446e-16;0
-0.102475;-0.202451;0.608996;8.39567e-13;0;0;8.39567e-13;0;2.220446e-16;-1.779852e-17;0;0;0;0;2.234622e-16;-1.417633e-18;1.124399e-16;45;0;1.499199e-16;1.494496e-16;0;-2.821113e-17;-7.385921e-18;2.220446e-16;2.08252e-17;0.608996;2.220446e-16;-2.220446e-16;0
-0.03531;-0.202451;0.675576;8.39567e-13;0;0;8.39567e-13;2.220446e-16;-1.110223e-16;3.873063e-17;0;0;0;0;2.264891e-16;-1.154668e-16;1.709779e-16;45;0;2.279706e-16;2.008668e-16;2.220446e-16;6.236399e-17;1.509728e-17;-1.110223e-16;-4.726671e-17;0.675576;1.110223e-16;-1.110223e-16;0
0.031855;-0.202451;0.712352;8.39567e-13;0;0;8.39567e-13;2.220446e-16;2.220446e-16;4.277574e-17;0;0;0;0;2.648204e-16;1.792689e-16;4.277574e-17;45;0;5.703432e-17;1.560528e-16;2.220446e-16;3.655087e-17;4.900061e-17;2.220446e-16;1.244975e-17;0.712352;4.440892e-16;-4.440892e-16;0
0.099021;-0.202451;0.772914;8.39567e-13;0;0;8.39567e-13;0;0;4.537085e-17;0;0;0;0;4.537085e-17;-4.537085e-17;4.537085e-17;45;0;6.049447e-17;5.238975e-17;0;5.809233e-17;3.264938e-17;0;-2.544294e-17;0.772914;0;0;0
0.166186;-0.202451;0.840038;8.39567e-13;0;0;8.39567e-13;0;2.220446e-16;5.666098e-17;0;0;0;0;2.356675e-16;-1.362287e-17;1.246452e-16;45;0;1.661936e-16;1.618438e-16;0;7.842032e-17;3.490165e-17;2.220446e-16;-4.351866e-17;0.840038;2.220446e-16;-2.220446e-16;0
0.233352;-0.202451;0.86579;8.39567e-13;0;0;8.39567e-13;0;2.220446e-16;3.356985e-17;0;0;0;0;2.270089e-16;-4.964276e-18;1.159866e-16;45;0;1.546488e-16;1.530209e-16;0;7.193882e-17;-4.799123e-18;2.220446e-16;-7.673794e-17;0.86579;2.220446e-16;-2.220446e-16;0
0.300517;-0.202451;0.879365;8.39567e-13;0;0;8.39567e-13;-3.330669e-16;0;2.7006e-17;0;0;0;0;2.175512e-18;-3.352424e-16;1.68709e-16;45;0;2.249453e-16;2.242236e-16;-3.330669e-16;3.429989e-17;1.971211e-17;0;-1.458779e-17;0.879365;-3.330669e-16;3.330669e-16;0
0.367682;-0.202451;0.904171;8.39567e-13;0;0;8.39567e-13;-1.110223e-16;-1.110223e-16;-5.574013e-18;0;0;0;0;-1.054483e-16;-1.165963e-16;5.574013e-18;45;0;7.432017e-18;7.429419e-17;-1.110223e-16;-2.108962e-18;-9.039063e-18;-1.110223e-16;-6.930102e-18;0.904171;-2.220446e-16;2.220446e-16;0
0.434848;-0.202451;0.873468;8.39567e-13;0;0;8.39567e-13;0;0;-6.665743e-18;0;0;0;0;6.665743e-18;-6.665743e-18;6.665743e-18;45;0;8.887658e-18;7.696937e-18;0;2.016863e-17;-3.350012e-17;0;-5.366875e-17;0.873468;0;0;0
0.502013;-0.202451;0.90566;8.39567e-13;0;0;8.39567e-13;2.220446e-16;2.220446e-16;1.800634e-17;0;0;0;0;2.400509e-16;2.040383e-16;1.800634e-17;45;0;2.400845e-17;1.494828e-16;2.220446e-16;2.127834e-17;1.473433e-17;2.220446e-16;-6.544014e-18;0.90566;4.440892e-16;-4.440892e-16;0
0.569178;-0.202451;0.922673;8.39567e-13;0;0;8.39567e-13;0;2.220446e-16;2.309007e-17;0;0;0;0;2.244203e-16;-2.375683e-18;1.13398e-16;45;0;1.511973e-16;1.504117e-16;0;1.041273e-17;3.576741e-17;2.220446e-16;2.535468e-17;0.922673;2.220446e-16;-2.220446e-16;0
0.636344;-0.202451;0.928712;8.39567e-13;0;0;8.39567e-13;-1.110223e-16;-1.110223e-16;-1.599129e-17;0;0;0;0;-9.503101e-17;-1.270136e-16;1.599129e-17;45;0;2.132172e-17;7.628344e-17;-1.110223e-16;2.127638e-18;-3.411022e-17;-1.110223e-16;-3.623786e-17;0.928712;-2.220446e-16;2.220446e-16;0
0.703509;-0.202451;0.931956;8.39567e-13;0;0;8.39567e-13;4.440892e-16;-3.330669e-16;-5.885233e-18;0;0;0;0;4.441338e-16;-3.331115e-16;3.886226e-16;45;0;5.181635e-16;4.502661e-16;4.440892e-16;-2.076144e-17;8.990974e-18;-3.330669e-16;2.975241e-17;0.931956;1.110223e-16;-1.110223e-16;0
0.770674;-0.202451;0.939967;8.39567e-13;0;0;8.39567e-13;0;2.220446e-16;9.919478e-18;0;0;0;0;2.224869e-16;-4.422555e-19;1.114646e-16;45;0;1.486194e-16;1.484722e-16;0;-6.965451e-18;2.680441e-17;2.220446e-16;3.376986e-17;0.939967;2.220446e-16;-2.220446e-16;0
0.83784;-0.202451;0.943789;8.39567e-13;0;0;8.39567e-13;2.220446e-16;-1.110223e-16;-3.703912e-17;0;0;0;0;2.261139e-16;-1.150916e-16;1.706027e-16;45;0;2.274703e-16;2.00441e-16;2.220446e-16;-2.561617e-17;-4.846208e-17;-1.110223e-16;-2.284591e-17;0.943789;1.110223e-16;-1.110223e-16;0
0.905005;-0.202451;0.895272;8.39567e-13;0;0;8.39567e-13;-1.110223e-16;0;1.526309e-17;0;0;0;0;2.060108e-18;-1.130824e-16;5.757126e-17;45;0;7.676168e-17;7.608427e-17;-1.110223e-16;2.757339e-18;2.776885e-17;0;2.501151e-17;0.895272;-1.110223e-16;1.110223e-16;0
0.97217;-0.202451;0.862123;8.39567e-13;0;0;8.39567e-13;2.220446e-16;0;-1.28126e-17;0;0;0;0;2.227815e-16;-7.368775e-19;1.117592e-16;45;0;1.490122e-16;1.487672e-16;2.220446e-16;7.555266e-18;-3.318046e-17;0;-4.073573e-17;0.862123;2.220446e-16;-2.220446e-16;0
1.039336;-0.202451;0.839174;8.39567e-13;0;0;8.39567e-13;2.220446e-16;-1.110223e-16;3.530807e-17;0;0;0;0;2.257464e-16;-1.147241e-16;1.702353e-16;45;0;2.269804e-16;2.00024e-16;2.220446e-16;5.648023e-17;1.413591e-17;-1.110223e-16;-4.234432e-17;0.839174;1.110223e-16;-1.110223e-16;0
1.106501;-0.202451;0.820948;8.39567e-13;0;0;8.39567e-13;-1.110223e-16;0;-6.472582e-19;0;0;0;0;3.773377e-21;-1.110261e-16;5.551492e-17;45;0;7.40199e-17;7.401864e-17;-1.110223e-16;2.752098e-17;-2.88155e-17;0;-5.633648e-17;0.820948;-1.110223e-16;1.110223e-16;0
1.173667;-0.202451;0.764695;8.39567e-13;0;0;8.39567e-13;0;2.220446e-16;-4.028674e-17;0;0;0;0;2.291281e-16;-7.083467e-18;1.181058e-16;45;0;1.574744e-16;1.551671e-16;0;-8.057347e-17;0;2.220446e-16;8.057347e-17;0.764695;2.220446e-16;-2.220446e-16;0
1.240832;-0.202451;0.724353;8.39567e-13;0;0;8.39567e-13;0;2.220446e-16;-1.835028e-17;0;0;0;0;2.235509e-16;-1.506291e-18;1.125286e-16;45;0;1.500381e-16;1.495386e-16;0;-5.311583e-17;1.641527e-17;2.220446e-16;6.95311e-17;0.724353;2.220446e-16;-2.220446e-16;0
1.307997;-0.202451;0.665617;8.39567e-13;0;0;8.39567e-13;-1.110223e-16;0;2.355686e-17;0;0;0;0;4.791531e-18;-1.158138e-16;6.030268e-17;45;0;8.040358e-17;7.885494e-17;-1.110223e-16;1.809217e-17;2.902155e-17;0;1.092938e-17;0.665617;-1.110223e-16;1.110223e-16;0
1.375163;-0.202451;0.594376;8.39567e-13;0;0;8.39567e-13;0;-1.110223e-16;1.317956e-19;0;0;0;0;1.564556e-22;-1.110225e-16;5.551131e-17;45;0;7.401508e-17;7.401502e-17;0;2.635912e-19;0;-1.110223e-16;-2.635912e-19;0.594376;-1.110223e-16;1.110223e-16;0
1.442328;-0.202451;0.497093;8.39567e-13;0;0;8.39567e-13;-2.220446e-16;2.220446e-16;-2.781927e-17;0;0;0;0;2.237805e-16;-2.237805e-16;2.237805e-16;45;0;2.98374e-16;2.583995e-16;-2.220446e-16;-3.088252e-17;-2.475602e-17;2.220446e-16;6.126494e-18;0.497093;0;0;0
1.509493;-0.202451;0.371482;8.39567e-13;0;0;8.39567e-13;4.440892e-16;0;-7.381653e-18;0;0;0;0;4.442119e-16;-1.22664e-19;2.221673e-16;45;0;2.96223e-16;2.961821e-16;4.440892e-16;-4.132047e-17;2.655716e-17;0;6.787763e-17;0.371482;4.440892e-16;-4.440892e-16;0
-0.371137;-0.269616;0.228296;8.39567e-13;0;0;8.39567e-13;-2.220446e-16;-2.220446e-16;-2.935511e-17;0;0;0;0;-1.926895e-16;-2.513997e-16;2.935511e-17;45;0;3.914015e-17;1.51861e-16;-2.220446e-16;-4.602937e-17;-1.268086e-17;-2.220446e-16;3.334851e-17;0.228296;-4.440892e-16;4.440892e-16;0
-0.303971;-0.269616;0.373756;8.39567e-13;0;0;8.39567e-13;0;2.220446e-16;3.850891e-17;0;0;0;0;2.285335e-16;-6.488923e-18;1.175112e-16;45;0;1.566816e-16;1.545641e-16;0;6.90315e-17;7.986332e-18;2.220446e-16;-6.104516e-17;0.373756;2.220446e-16;-2.220446e-16;0
-0.236806;-0.269616;0.494888;8.39567e-13;0;0;8.39567e-13;2.220446e-16;0;1.950819e-18;0;0;0;0;2.220617e-16;-1.713801e-20;1.110394e-16;45;0;1.480526e-16;1.480469e-16;2.220446e-16;2.115851e-17;-1.725687e-17;0;-3.841538e-17;0.494888;2.220446e-16;-2.220446e-16;0
-0.169641;-0.269616;0.562362;8.39567e-13;0;0;8.39567e-13;4.440892e-16;2.220446e-16;4.479268e-17;0;0;0;0;4.527846e-16;2.133492e-16;1.197177e-16;45;0;1.596237e-16;2.615599e-16;4.440892e-16;6.871962e-17;2.086574e-17;2.220446e-16;-4.785388e-17;0.562362;6.661338e-16;-6.661338e-16;0
-0.102475;-0.269616;0.608213;8.39567e-13;0;0;8.39567e-13;2.220446e-16;2.220446e-16;-4.162769e-17;0;0;0;0;2.636723e-16;1.804169e-16;4.162769e-17;45;0;5.550358e-17;1.556383e-16;2.220446e-16;-4.443534e-17;-3.882003e-17;2.220446e-16;5.615304e-18;0.608213;4.440892e-16;-4.440892e-16;0
-0.03531;-0.269616;0.703213;8.39567e-13;0;0;8.39567e-13;2.220446e-16;-1.110223e-16;4.147344e-17;0;0;0;0;2.271312e-16;-1.161089e-16;1.7162e-16;45;0;2.288267e-16;2.015956e-16;2.220446e-16;6.762129e-17;1.53256e-17;-1.110223e-16;-5.229569e-17;0.703213;1.110223e-16;-1.110223e-16;0
0.031855;-0.269616;0.767704;8.39567e-13;0;0;8.39567e-13;2.220446e-16;2.220446e-16;-1.470753e-17;0;0;0;0;2.367521e-16;2.073371e-16;1.470753e-17;45;0;1.961004e-17;1.490007e-16;2.220446e-16;1.813336e-17;-4.754841e-17;2.220446e-16;-6.568177e-17;0.767704;4.440892e-16;-4.440892e-16;0
0.099021;-0.269616;0.787471;8.39567e-13;0;0;8.39567e-13;-1.110223e-16;2.220446e-16;3.106582e-17;0;0;0;0;2.249174e-16;-1.138951e-16;1.694062e-16;45;0;2.25875e-16;1.990834e-16;-1.110223e-16;3.952913e-17;2.260252e-17;2.220446e-16;-1.692662e-17;0.787471;1.110223e-16;-1.110223e-16;0
0.166186;-0.269616;0.827492;8.39567e-13;0;0;8.39567e-13;0;-1.110223e-16;3.996221e-17;0;0;0;0;1.288816e-17;-1.239105e-16;6.839931e-17;45;0;9.119908e-17;8.722101e-17;0;2.309031e-17;5.683411e-17;-1.110223e-16;3.37438e-17;0.827492;-1.110223e-16;1.110223e-16;0
0.233352;-0.269616;0.843645;8.39567e-13;0;0;8.39567e-13;0;0;-5.038308e-17;0;0;0;0;5.038308e-17;-5.038308e-17;5.038308e-17;45;0;6.717745e-17;5.817738e-17;0;-4.12099e-17;-5.955628e-17;0;-1.834638e-17;0.843645;0;0;0
0.300517;-0.269616;0.858108;8.39567e-13;0;0;8.39567e-13;-1.110223e-16;0;2.145575e-17;0;0;0;0;4.002185e-18;-1.150245e-16;5.951334e-17;45;0;7.935111e-17;7.805126e-17;-1.110223e-16;1.340208e-17;2.950942e-17;0;1.610735e-17;0.858108;-1.110223e-16;1.110223e-16;0
0.367682;-0.269616;0.872964;8.39567e-13;0;0;8.39567e-13;0;-1.110223e-16;-4.26096e-18;0;0;0;0;1.632925e-19;-1.111856e-16;5.567444e-17;45;0;7.423259e-17;7.417822e-17;0;-1.837445e-17;9.852532e-18;-1.110223e-16;2.822698e-17;0.872964;-1.110223e-16;1.110223e-16;0
0.434848;-0.269616;0.89738;8.39567e-13;0;0;8.39567e-13;2.220446e-16;0;2.793994e-17;0;0;0;0;2.255063e-16;-3.461723e-18;1.14484e-16;45;0;1.526454e-16;1.515046e-16;2.220446e-16;2.556241e-17;3.031748e-17;0;4.755067e-18;0.89738;2.220446e-16;-2.220446e-16;0
0.502013;-0.269616;0.899657;8.39567e-13;0;0;8.39567e-13;0;0;-2.047844e-17;0;0;0;0;2.047844e-17;-2.047844e-17;2.047844e-17;45;0;2.730458e-17;2.364646e-17;0;-5.123938e-17;1.02825e-17;0;6.152188e-17;0.899657;0;0;0
0.569178;-0.269616;0.904418;8.39567e-13;0;0;8.39567e-13;0;0;-2.959041e-17;0;0;0;0;2.959041e-17;-2.959041e-17;2.959041e-17;45;0;3.945388e-17;3.416806e-17;0;-3.896702e-17;-2.02138e-17;0;1.875322e-17;0.904418;0;0;0
0.636344;-0.269616;0.930566;8.39567e-13;0;0;8.39567e-13;-1.110223e-16;0;-1.743583e-17;0;0;0;0;2.673865e-18;-1.136962e-16;5.818502e-17;45;0;7.758002e-17;7.670427e-17;-1.110223e-16;-1.972322e-17;-1.514844e-17;0;4.574777e-18;0.930566;-1.110223e-16;1.110223e-16;0
0.703509;-0.269616;0.929383;8.39567e-13;0;0;8.39567e-13;2.220446e-16;0;1.248193e-17;0;0;0;0;2.227441e-16;-6.994516e-19;1.117218e-16;45;0;1.489623e-16;1.487297e-16;2.220446e-16;4.175167e-17;-1.67878e-17;0;-5.853947e-17;0.929383;2.220446e-16;-2.220446e-16;0
0.770674;-0.269616;0.951876;8.39567e-13;0;0;8.39567e-13;2.220446e-16;2.220446e-16;1.292719e-17;0;0;0;0;2.349718e-16;2.091174e-16;1.292719e-17;45;0;1.723626e-17;1.487804e-16;2.220446e-16;1.555823e-17;1.029615e-17;2.220446e-16;-5.262083e-18;0.951876;4.440892e-16;-4.440892e-16;0
0.83784;-0.269616;0.932833;8.39567e-13;0;0;8.39567e-13;-3.330669e-16;-1.110223e-16;-4.437362e-17;0;0;0;0;-1.02483e-16;-3.416062e-16;1.195616e-16;45;0;1.594154e-16;2.024173e-16;-3.330669e-16;-2.165969e-17;-6.708755e-17;-1.110223e-16;-4.542786e-17;0.932833;-4.440892e-16;4.440892e-16;0
0.905005;-0.269616;0.885536;8.39567e-13;0;0;8.39567e-13;0;0;1.396817e-17;0;0;0;0;1.396817e-17;-1.396817e-17;1.396817e-17;45;0;1.862423e-17;1.612906e-17;0;-1.89082e-17;4.684455e-17;0;6.575275e-17;0.885536;0;0;0
0.97217;-0.269616;0.864206;8.39567e-13;0;0;8.39567e-13;0;2.220446e-16;-1.946171e-17;0;0;0;0;2.237375e-16;-1.692868e-18;1.127152e-16;45;0;1.502869e-16;1.497258e-16;0;-1.420851e-17;-2.471491e-17;2.220446e-16;-1.05064e-17;0.864206;2.220446e-16;-2.220446e-16;0
1.039336;-0.269616;0.84639;8.39567e-13;0;0;8.39567e-13;0;-1.110223e-16;-2.085865e-17;0;0;0;0;3.789532e-18;-1.148118e-16;5.930068e-17;45;0;7.906757e-17;7.783515e-17;0;-1.43479e-17;-2.736939e-17;-1.110223e-16;-1.302149e-17;0.84639;-1.110223e-16;1.110223e-16;0
1.106501;-0.269616;0.790301;8.39567e-13;0;0;8.39567e-13;-1.110223e-16;0;6.487503e-18;0;0;0;0;3.778066e-19;-1.114001e-16;5.588896e-17;45;0;7.451861e-17;7.4393e-17;-1.110223e-16;2.542545e-18;1.043246e-17;0;7.889916e-18;0.790301;-1.110223e-16;1.110223e-16;0
1.173667;-0.269616;0.751766;8.39567e-13;0;0;8.39567e-13;0;0;3.146459e-18;0;0;0;0;3.146459e-18;-3.146459e-18;3.146459e-18;45;0;4.195279e-18;3.633218e-18;0;-2.046662e-18;8.33958e-18;0;1.038624e-17;0.751766;0;0;0
1.240832;-0.269616;0.699526;8.39567e-13;0;0;8.39567e-13;-1.110223e-16;2.220446e-16;3.080141e-17;0;0;0;0;2.248691e-16;-1.138468e-16;1.69358e-16;45;0;2.258106e-16;1.990286e-16;-1.110223e-16;4.213346e-18;5.738947e-17;2.220446e-16;5.317612e-17;0.699526;1.110223e-16;-1.110223e-16;0
1.307997;-0.269616;0.651529;8.39567e-13;0;0;8.39567e-13;2.220446e-16;-3.330669e-16;-2.328336e-17;0;0;0;0;2.230195e-16;-3.340418e-16;2.785306e-16;45;0;3.713742e-16;3.237416e-16;2.220446e-16;-4.656671e-17;0;-3.330669e-16;4.656671e-17;0.651529;-1.110223e-16;1.110223e-16;0
1.375163;-0.269616;0.59176;8.39567e-13;0;0;8.39567e-13;0;-1.110223e-16;1.901962e-17;0;0;0;0;3.167925e-18;-1.141902e-16;5.867907e-17;45;0;7.823877e-17;7.720446e-17;0;1.337165e-17;2.466759e-17;-1.110223e-16;1.129594e-17;0.59176;-1.110223e-16;1.110223e-16;0
1.442328;-0.269616;0.478968;8.39567e-13;0;0;8.39567e-13;2.220446e-16;-1.110223e-16;1.515516e-17;0;0;0;0;2.227328e-16;-1.117105e-16;1.672216e-16;45;0;2.229622e-16;1.966053e-16;2.220446e-16;4.688917e-17;-1.657884e-17;-1.110223e-16;-6.346801e-17;0.478968;1.110223e-16;-1.110223e-16;0
1.509493;-0.269616;0.373717;8.39567e-13;0;0;8.39567e-13;2.220446e-16;0;-4.841675e-17;0;0;0;0;2.321426e-16;-1.009802e-17;1.211203e-16;45;0;1.614938e-16;1.582352e-16;2.220446e-16;-2.203655e-17;-7.479694e-17;0;-5.276039e-17;0.373717;2.220446e-16;-2.220446e-16;0
-0.371137;-0.336782;0.233579;8.39567e-13;0;0;8.39567e-13;-2.220446e-16;0;6.719673e-17;0;0;0;0;1.875193e-17;-2.407965e-16;1.297742e-16;45;0;1.730323e-16;1.671327e-16;-2.220446e-16;9.025184e-17;4.414163e-17;0;-4.611021e-17;0.233579;-2.220446e-16;2.220446e-16;0
-0.303971;-0.336782;0.360108;8.39567e-13;0;0;8.39567e-13;-1.110223e-16;2.220446e-16;3.07475e-17;0;0;0;0;2.248593e-16;-1.13837e-16;1.693482e-16;45;0;2.257975e-16;1.990175e-16;-1.110223e-16;7.134816e-17;-9.853162e-18;2.220446e-16;-8.120132e-17;0.360108;1.110223e-16;-1.110223e-16;0
-0.236806;-0.336782;0.472041;8.39567e-13;0;0;8.39567e-13;0;-3.330669e-16;2.390372e-17;0;0;0;0;1.706789e-18;-3.347737e-16;1.682402e-16;45;0;2.243203e-16;2.237536e-16;0;3.057102e-17;1.723643e-17;-3.330669e-16;-1.333459e-17;0.472041;-3.330669e-16;3.330669e-16;0
-0.169641;-0.336782;0.562267;8.39567e-13;0;0;8.39567e-13;-1.110223e-16;0;-5.583045e-18;0;0;0;0;2.800515e-19;-1.113024e-16;5.57912e-17;45;0;7.438827e-17;7.429509e-17;-1.110223e-16;2.457213e-17;-3.573822e-17;0;-6.031035e-17;0.562267;-1.110223e-16;1.110223e-16;0
-0.102475;-0.336782;0.612751;8.39567e-13;0;0;8.39567e-13;0;0;2.064904e-19;0;0;0;0;2.064904e-19;-2.064904e-19;2.064904e-19;45;0;2.753205e-19;2.384345e-19;0;4.129807e-19;0;0;-4.129807e-19;0.612751;0;0;0
-0.03531;-0.336782;0.662374;8.39567e-13;0;0;8.39567e-13;-1.110223e-16;0;-1.113105e-18;0;0;0;0;1.115881e-20;-1.110335e-16;5.552231e-17;45;0;7.402975e-17;7.402603e-17;-1.110223e-16;-2.226209e-18;0;0;2.226209e-18;0.662374;-1.110223e-16;1.110223e-16;0
0.031855;-0.336782;0.756005;8.39567e-13;0;0;8.39567e-13;-1.110223e-16;2.220446e-16;7.106283e-17;0;0;0;0;2.365728e-16;-1.255505e-16;1.810616e-16;45;0;2.414155e-16;2.12322e-16;-1.110223e-16;8.068863e-17;6.143702e-17;2.220446e-16;-1.925161e-17;0.756005;1.110223e-16;-1.110223e-16;0
0.099021;-0.336782;0.790744;8.39567e-13;0;0;8.39567e-13;-1.110223e-16;-1.110223e-16;5.276079e-17;0;0;0;0;-5.826151e-17;-1.637831e-16;5.276079e-17;45;0;7.034773e-17;9.586346e-17;-1.110223e-16;3.114026e-17;7.438133e-17;-1.110223e-16;4.324107e-17;0.790744;-2.220446e-16;2.220446e-16;0
0.166186;-0.336782;0.801425;8.39567e-13;0;0;8.39567e-13;-1.110223e-16;0;-3.982515e-17;0;0;0;0;1.280818e-17;-1.238305e-16;6.831933e-17;45;0;9.109244e-17;8.713738e-17;-1.110223e-16;-6.469732e-17;-1.495298e-17;0;4.974435e-17;0.801425;-1.110223e-16;1.110223e-16;0
0.233352;-0.336782;0.803119;8.39567e-13;0;0;8.39567e-13;-3.330669e-16;2.220446e-16;-4.295102e-18;0;0;0;0;2.220778e-16;-3.331001e-16;2.77589e-16;45;0;3.701186e-16;3.226615e-16;-3.330669e-16;4.069454e-17;-4.928474e-17;2.220446e-16;-8.997928e-17;0.803119;-1.110223e-16;1.110223e-16;0
0.300517;-0.336782;0.846137;8.39567e-13;0;0;8.39567e-13;0;0;-2.446405e-18;0;0;0;0;2.446405e-18;-2.446405e-18;2.446405e-18;45;0;3.261874e-18;2.824865e-18;0;4.622382e-18;-9.515193e-18;0;-1.413757e-17;0.846137;0;0;0
0.367682;-0.336782;0.875063;8.39567e-13;0;0;8.39567e-13;0;0;2.492072e-17;0;0;0;0;2.492072e-17;-2.492072e-17;2.492072e-17;45;0;3.322762e-17;2.877596e-17;0;3.73873e-17;1.245413e-17;0;-2.493318e-17;0.875063;0;0;0
0.434848;-0.336782;0.932678;8.39567e-13;0;0;8.39567e-13;0;-3.330669e-16;1.701144e-17;0;0;0;0;8.666073e-19;-3.339335e-16;1.674001e-16;45;0;2.232001e-16;2.229118e-16;0;1.947402e-17;1.454887e-17;-3.330669e-16;-4.925157e-18;0.932678;-3.330669e-16;3.330669e-16;0
0.502013;-0.336782;0.925938;8.39567e-13;0;0;8.39567e-13;0;0;-1.567962e-18;0;0;0;0;1.567962e-18;-1.567962e-18;1.567962e-18;45;0;2.090616e-18;1.810527e-18;0;-1.152401e-17;8.388083e-18;0;1.991209e-17;0.925938;0;0;0
0.569178;-0.336782;0.920953;8.39567e-13;0;0;8.39567e-13;-1.110223e-16;0;-1.739602e-17;0;0;0;0;2.661948e-18;-1.136842e-16;5.81731e-17;45;0;7.756413e-17;7.669222e-17;-1.110223e-16;-4.493559e-17;1.014355e-17;0;5.507914e-17;0.920953;-1.110223e-16;1.110223e-16;0
0.636344;-0.336782;0.947773;8.39567e-13;0;0;8.39567e-13;2.220446e-16;-1.110223e-16;2.2579e-17;0;0;0;0;2.235683e-16;-1.12546e-16;1.680571e-16;45;0;2.240762e-16;1.975529e-16;2.220446e-16;2.602756e-17;1.913044e-17;-1.110223e-16;-6.897118e-18;0.947773;1.110223e-16;-1.110223e-16;0
0.703509;-0.336782;0.974715;8.39567e-13;0;0;8.39567e-13;2.220446e-16;0;1.294387e-17;0;0;0;0;2.227966e-16;-7.520034e-19;1.117743e-16;45;0;1.490324e-16;1.487824e-16;2.220446e-16;5.442848e-18;2.04449e-17;0;1.500205e-17;0.974715;2.220446e-16;-2.220446e-16;0
0.770674;-0.336782;0.914462;8.39567e-13;0;0;8.39567e-13;0;0;4.689191e-17;0;0;0;0;4.689191e-17;-4.689191e-17;4.689191e-17;45;0;6.252255e-17;5.414611e-17;0;9.613005e-17;-2.346228e-18;0;-9.847628e-17;0.914462;0;0;0
0.83784;-0.336782;0.907365;8.39567e-13;0;0;8.39567e-13;-1.110223e-16;-3.330669e-16;-3.28988e-17;0;0;0;0;-1.062505e-16;-3.378387e-16;1.157941e-16;45;0;1.543922e-16;1.994756e-16;-1.110223e-16;-2.581496e-17;-3.998264e-17;-3.330669e-16;-1.416767e-17;0.907365;-4.440892e-16;4.440892e-16;0
0.905005;-0.336782;0.891716;8.39567e-13;0;0;8.39567e-13;-3.330669e-16;2.220446e-16;-2.645873e-17;0;0;0;0;2.233029e-16;-3.343252e-16;2.78814e-16;45;0;3.71752e-16;3.240667e-16;-3.330669e-16;-2.003004e-17;-3.288742e-17;2.220446e-16;-1.285738e-17;0.891716;-1.110223e-16;1.110223e-16;0
0.97217;-0.336782;0.887745;8.39567e-13;0;0;8.39567e-13;-1.110223e-16;0;-2.090786e-17;0;0;0;0;3.806861e-18;-1.148292e-16;5.931802e-17;45;0;7.909068e-17;7.785276e-17;-1.110223e-16;-1.151233e-17;-3.030339e-17;0;-1.879106e-17;0.887745;-1.110223e-16;1.110223e-16;0
1.039336;-0.336782;0.866929;8.39567e-13;0;0;8.39567e-13;-1.110223e-16;0;-1.030443e-17;0;0;0;0;9.482966e-19;-1.119706e-16;5.645945e-17;45;0;7.527927e-17;7.496516e-17;-1.110223e-16;3.10521e-17;-5.166097e-17;0;-8.271307e-17;0.866929;-1.110223e-16;1.110223e-16;0
1.106501;-0.336782;0.803062;8.39567e-13;0;0;8.39567e-13;2.220446e-16;-3.330669e-16;-2.422022e-18;0;0;0;0;2.220552e-16;-3.330775e-16;2.775663e-16;45;0;3.700884e-16;3.226355e-16;2.220446e-16;-4.557486e-17;4.073082e-17;-3.330669e-16;8.630568e-17;0.803062;-1.110223e-16;1.110223e-16;0
1.173667;-0.336782;0.753174;8.39567e-13;0;0;8.39567e-13;2.220446e-16;-1.110223e-16;-2.339009e-17;0;0;0;0;2.236792e-16;-1.126569e-16;1.68168e-16;45;0;2.24224e-16;1.976787e-16;2.220446e-16;-4.678018e-17;0;-1.110223e-16;4.678018e-17;0.753174;1.110223e-16;-1.110223e-16;0
1.240832;-0.336782;0.691331;8.39567e-13;0;0;8.39567e-13;0;-1.110223e-16;-1.925297e-17;0;0;0;0;3.243975e-18;-1.142663e-16;5.875513e-17;45;0;7.834017e-17;7.728154e-17;0;-3.850595e-17;0;-1.110223e-16;3.850595e-17;0.691331;-1.110223e-16;1.110223e-16;0
1.307997;-0.336782;0.647524;8.39567e-13;0;0;8.39567e-13;2.220446e-16;2.220446e-16;5.309376e-17;0;0;0;0;2.751384e-16;1.689508e-16;5.309376e-17;45;0;7.079167e-17;1.60223e-16;2.220446e-16;6.286282e-17;4.332469e-17;2.220446e-16;-1.953813e-17;0.647524;4.440892e-16;-4.440892e-16;0
1.375163;-0.336782;0.565154;8.39567e-13;0;0;8.39567e-13;2.220446e-16;0;6.176403e-18;0;0;0;0;2.222163e-16;-1.716704e-19;1.11194e-16;45;0;1.482586e-16;1.482014e-16;2.220446e-16;2.768746e-17;-1.533465e-17;0;-4.302211e-17;0.565154;2.220446e-16;-2.220446e-16;0
1.442328;-0.336782;0.464247;8.39567e-13;0;0;8.39567e-13;-2.220446e-16;2.220446e-16;4.11965e-17;0;0;0;0;2.258339e-16;-2.258339e-16;2.258339e-16;45;0;3.011119e-16;2.607706e-16;-2.220446e-16;5.936484e-17;2.302817e-17;2.220446e-16;-3.633668e-17;0.464247;0;0;0
1.509493;-0.336782;0.385016;8.39567e-13;0;0;8.39567e-13;2.220446e-16;4.440892e-16;-2.837309e-17;0;0;0;0;4.476574e-16;2.184764e-16;1.145905e-16;45;0;1.527873e-16;2.584798e-16;2.220446e-16;-1.148417e-17;-4.526201e-17;4.440892e-16;-3.377784e-17;0.385016;6.661338e-16;-6.661338e-16;0
-0.371137;-0.403947;0.227902;8.39567e-13;0;0;8.39567e-13;-4.440892e-16;2.220446e-16;1.010177e-16;0;0;0;0;2.370268e-16;-4.590714e-16;3.480491e-16;45;0;4.640654e-16;4.086511e-16;-4.440892e-16;1.276027e-16;7.443277e-17;2.220446e-16;-5.316991e-17;0.227902;-2.220446e-16;2.220446e-16;0
-0.303971;-0.403947;0.351476;8.39567e-13;0;0;8.39567e-13;2.220446e-16;2.220446e-16;-3.06017e-17;0;0;0;0;2.526463e-16;1.914429e-16;3.06017e-17;45;0;4.080227e-17;1.521888e-16;2.220446e-16;-2.836289e-17;-3.284052e-17;2.220446e-16;-4.477632e-18;0.351476;4.440892e-16;-4.440892e-16;0
-0.236806;-0.403947;0.474408;8.39567e-13;0;0;8.39567e-13;-2.220446e-16;0;-3.315998e-17;0;0;0;0;4.846313e-18;-2.268909e-16;1.158686e-16;45;0;1.544915e-16;1.529016e-16;-2.220446e-16;-3.764781e-17;-2.867215e-17;0;8.975657e-18;0.474408;-2.220446e-16;2.220446e-16;0
-0.169641;-0.403947;0.55108;8.39567e-13;0;0;8.39567e-13;-2.220446e-16;-1.110223e-16;5.182109e-17;0;0;0;0;-9.059326e-17;-2.424736e-16;7.594019e-17;45;0;1.012536e-16;1.41475e-16;-2.220446e-16;9.011177e-17;1.35304e-17;-1.110223e-16;-7.658137e-17;0.55108;-3.330669e-16;3.330669e-16;0
-0.102475;-0.403947;0.628476;8.39567e-13;0;0;8.39567e-13;-1.110223e-16;2.220446e-16;3.419765e-18;0;0;0;0;2.220797e-16;-1.110574e-16;1.665686e-16;45;0;2.220914e-16;1.958647e-16;-1.110223e-16;3.068025e-18;3.771505e-18;2.220446e-16;7.034796e-19;0.628476;1.110223e-16;-1.110223e-16;0
-0.03531;-0.403947;0.667013;8.39567e-13;0;0;8.39567e-13;2.220446e-16;-1.110223e-16;2.518905e-17;0;0;0;0;2.239388e-16;-1.129165e-16;1.684277e-16;45;0;2.245702e-16;1.979732e-16;2.220446e-16;7.717049e-18;4.266104e-17;-1.110223e-16;3.494399e-17;0.667013;1.110223e-16;-1.110223e-16;0
0.031855;-0.403947;0.713162;8.39567e-13;0;0;8.39567e-13;2.220446e-16;-1.110223e-16;1.238515e-17;0;0;0;0;2.225045e-16;-1.114822e-16;1.669934e-16;45;0;2.226578e-16;1.963464e-16;2.220446e-16;4.109444e-17;-1.632414e-17;-1.110223e-16;-5.741858e-17;0.713162;1.110223e-16;-1.110223e-16;0
0.099021;-0.403947;0.761545;8.39567e-13;0;0;8.39567e-13;-1.110223e-16;-1.110223e-16;2.246197e-17;0;0;0;0;-8.856033e-17;-1.334843e-16;2.246197e-17;45;0;2.994929e-17;7.842781e-17;-1.110223e-16;4.492394e-17;0;-1.110223e-16;-4.492394e-17;0.761545;-2.220446e-16;2.220446e-16;0
0.166186;-0.403947;0.814857;8.39567e-13;0;0;8.39567e-13;2.220446e-16;0;1.955744e-17;0;0;0;0;2.23754e-16;-1.709437e-18;1.127317e-16;45;0;1.50309e-16;1.497424e-16;2.220446e-16;1.535123e-17;2.376365e-17;0;8.412424e-18;0.814857;2.220446e-16;-2.220446e-16;0
0.233352;-0.403947;0.83346;8.39567e-13;0;0;8.39567e-13;0;2.220446e-16;3.20555e-18;0;0;0;0;2.220909e-16;-4.626734e-20;1.110686e-16;45;0;1.480914e-16;1.48076e-16;0;8.933546e-18;-2.522445e-18;2.220446e-16;-1.145599e-17;0.83346;2.220446e-16;-2.220446e-16;0
0.300517;-0.403947;0.841391;8.39567e-13;0;0;8.39567e-13;0;-1.110223e-16;-3.536351e-17;0;0;0;0;1.030728e-17;-1.213296e-16;6.581843e-17;45;0;8.775791e-17;8.453188e-17;0;-1.316221e-17;-5.75648e-17;-1.110223e-16;-4.440259e-17;0.841391;-1.110223e-16;1.110223e-16;0
0.367682;-0.403947;0.877945;8.39567e-13;0;0;8.39567e-13;0;0;-5.488168e-17;0;0;0;0;5.488168e-17;-5.488168e-17;5.488168e-17;45;0;7.317557e-17;6.337191e-17;0;-8.860845e-17;-2.115491e-17;0;6.745353e-17;0.877945;0;0;0
0.434848;-0.403947;0.913564;8.39567e-13;0;0;8.39567e-13;2.220446e-16;-1.110223e-16;-1.671446e-17;0;0;0;0;2.228813e-16;-1.11859e-16;1.673701e-16;45;0;2.231602e-16;1.967737e-16;2.220446e-16;-3.844311e-17;5.014186e-18;-1.110223e-16;4.34573e-17;0.913564;1.110223e-16;-1.110223e-16;0
0.502013;-0.403947;0.916409;8.39567e-13;0;0;8.39567e-13;2.220446e-16;-1.110223e-16;-1.562644e-17;0;0;0;0;2.227762e-16;-1.117538e-16;1.67265e-16;45;0;2.2302e-16;1.966545e-16;2.220446e-16;-5.60384e-18;-2.564905e-17;-1.110223e-16;-2.004521e-17;0.916409;1.110223e-16;-1.110223e-16;0
0.569178;-0.403947;0.911026;8.39567e-13;0;0;8.39567e-13;-1.110223e-16;-1.110223e-16;1.346232e-17;0;0;0;0;-9.755998e-17;-1.244846e-16;1.346232e-17;45;0;1.794976e-17;7.562967e-17;-1.110223e-16;1.677736e-17;1.014728e-17;-1.110223e-16;-6.630074e-18;0.911026;-2.220446e-16;2.220446e-16;0
0.636344;-0.403947;0.943732;8.39567e-13;0;0;8.39567e-13;-3.330669e-16;-1.110223e-16;2.072388e-17;0;0;0;0;-1.091047e-16;-3.349845e-16;1.129399e-16;45;0;1.505866e-16;1.972816e-16;-3.330669e-16;4.144777e-17;0;-1.110223e-16;-4.144777e-17;0.943732;-4.440892e-16;4.440892e-16;0
0.703509;-0.403947;0.989298;8.39567e-13;0;0;8.39567e-13;2.220446e-16;0;-7.401075e-19;0;0;0;0;2.220471e-16;-2.466861e-21;1.110248e-16;45;0;1.48033e-16;1.480322e-16;2.220446e-16;8.6348e-18;-1.011502e-17;0;-1.874982e-17;0.989298;2.220446e-16;-2.220446e-16;0
0.770674;-0.403947;0.923578;8.39567e-13;0;0;8.39567e-13;2.220446e-16;0;-2.506157e-17;0;0;0;0;2.248381e-16;-2.793487e-18;1.138158e-16;45;0;1.517544e-16;1.508318e-16;2.220446e-16;-5.012314e-17;0;0;5.012314e-17;0.923578;2.220446e-16;-2.220446e-16;0
0.83784;-0.403947;0.90566;8.39567e-13;0;0;8.39567e-13;0;2.220446e-16;2.19211e-17;0;0;0;0;2.24188e-16;-2.143444e-18;1.131657e-16;45;0;1.508877e-16;1.501783e-16;0;2.606875e-17;1.777344e-17;2.220446e-16;-8.295303e-18;0.90566;2.220446e-16;-2.220446e-16;0
0.905005;-0.403947;0.893751;8.39567e-13;0;0;8.39567e-13;0;-3.330669e-16;5.794238e-18;0;0;0;0;1.007696e-19;-3.331677e-16;1.666342e-16;45;0;2.22179e-16;2.221454e-16;0;1.932865e-18;9.655611e-18;-3.330669e-16;7.722745e-18;0.893751;-3.330669e-16;3.330669e-16;0
0.97217;-0.403947;0.901544;8.39567e-13;0;0;8.39567e-13;-1.110223e-16;0;1.053548e-17;0;0;0;0;9.909212e-19;-1.120132e-16;5.650207e-17;45;0;7.53361e-17;7.500797e-17;-1.110223e-16;2.358886e-17;-2.517902e-18;0;-2.610676e-17;0.901544;-1.110223e-16;1.110223e-16;0
1.039336;-0.403947;0.870789;8.39567e-13;0;0;8.39567e-13;0;2.220446e-16;5.458173e-17;0;0;0;0;2.347361e-16;-1.269155e-17;1.237138e-16;45;0;1.649518e-16;1.608882e-16;0;6.557881e-17;4.358466e-17;2.220446e-16;-2.199415e-17;0.870789;2.220446e-16;-2.220446e-16;0
1.106501;-0.403947;0.809415;8.39567e-13;0;0;8.39567e-13;2.220446e-16;2.220446e-16;2.705928e-17;0;0;0;0;2.491039e-16;1.949853e-16;2.705928e-17;45;0;3.607903e-17;1.512914e-16;2.220446e-16;-2.484695e-17;7.896551e-17;2.220446e-16;1.038125e-16;0.809415;4.440892e-16;-4.440892e-16;0
1.173667;-0.403947;0.785663;8.39567e-13;0;0;8.39567e-13;-1.110223e-16;-1.110223e-16;4.304467e-17;0;0;0;0;-6.797764e-17;-1.54067e-16;4.304467e-17;45;0;5.739289e-17;8.915525e-17;-1.110223e-16;7.056167e-17;1.552767e-17;-1.110223e-16;-5.5034e-17;0.785663;-2.220446e-16;2.220446e-16;0
1.240832;-0.403947;0.70949;8.39567e-13;0;0;8.39567e-13;-1.110223e-16;-1.110223e-16;3.139856e-18;0;0;0;0;-1.078824e-16;-1.141622e-16;3.139856e-18;45;0;4.186474e-18;7.410362e-17;-1.110223e-16;6.279711e-18;0;-1.110223e-16;-6.279711e-18;0.70949;-2.220446e-16;2.220446e-16;0
1.307997;-0.403947;0.652773;8.39567e-13;0;0;8.39567e-13;-1.110223e-16;-1.110223e-16;3.376512e-17;0;0;0;0;-7.725718e-17;-1.447874e-16;3.376512e-17;45;0;4.502017e-17;8.365591e-17;-1.110223e-16;5.106924e-17;1.6461e-17;-1.110223e-16;-3.460824e-17;0.652773;-2.220446e-16;2.220446e-16;0
1.375163;-0.403947;0.573912;8.39567e-13;0;0;8.39567e-13;0;-1.110223e-16;-2.494152e-17;0;0;0;0;5.34579e-18;-1.163681e-16;6.085694e-17;45;0;8.114259e-17;7.942065e-17;0;-2.456562e-17;-2.531742e-17;-1.110223e-16;-7.517967e-19;0.573912;-1.110223e-16;1.110223e-16;0
1.442328;-0.403947;0.472799;8.39567e-13;0;0;8.39567e-13;2.220446e-16;-1.110223e-16;3.305369e-17;0;0;0;0;2.252932e-16;-1.142709e-16;1.69782e-16;45;0;2.26376e-16;1.995097e-16;2.220446e-16;5.092382e-17;1.518355e-17;-1.110223e-16;-3.574027e-17;0.472799;1.110223e-16;-1.110223e-16;0
1.509493;-0.403947;0.395465;8.39567e-13;0;0;8.39567e-13;2.220446e-16;4.440892e-16;8.756303e-17;0;0;0;0;4.744643e-16;1.916695e-16;1.413974e-16;45;0;1.885299e-16;2.75611e-16;2.220446e-16;2.277008e-17;1.52356e-16;4.440892e-16;1.295859e-16;0.395465;6.661338e-16;-6.661338e-16;0
-0.371137;-0.471112;0.235152;8.39567e-13;0;0;8.39567e-13;2.220446e-16;0;2.371571e-18;0;0;0;0;2.220699e-16;-2.532694e-20;1.110476e-16;45;0;1.480635e-16;1.480551e-16;2.220446e-16;3.439191e-17;-2.964876e-17;0;-6.404067e-17;0.235152;2.220446e-16;-2.220446e-16;0
-0.303971;-0.471112;0.347351;8.39567e-13;0;0;8.39567e-13;0;0;-8.544225e-18;0;0;0;0;8.544225e-18;-8.544225e-18;8.544225e-18;45;0;1.13923e-17;9.866021e-18;0;3.550525e-18;-2.063897e-17;0;-2.41895e-17;0.347351;0;0;0
-0.236806;-0.471112;0.457363;8.39567e-13;0;0;8.39567e-13;2.220446e-16;2.220446e-16;1.291131e-17;0;0;0;0;2.349559e-16;2.091333e-16;1.291131e-17;45;0;1.721508e-17;1.487786e-16;2.220446e-16;1.985956e-17;5.963053e-18;2.220446e-16;-1.389651e-17;0.457363;4.440892e-16;-4.440892e-16;0
-0.169641;-0.471112;0.530015;8.39567e-13;0;0;8.39567e-13;-2.220446e-16;0;5.856774e-17;0;0;0;0;1.450113e-17;-2.365457e-16;1.255234e-16;45;0;1.673646e-16;1.627464e-16;-2.220446e-16;7.163098e-17;4.550449e-17;0;-2.612649e-17;0.530015;-2.220446e-16;2.220446e-16;0
-0.102475;-0.471112;0.621769;8.39567e-13;0;0;8.39567e-13;0;-3.330669e-16;2.01421e-17;0;0;0;0;1.213663e-18;-3.342806e-16;1.677471e-16;45;0;2.236628e-16;2.232594e-16;0;5.531982e-17;-1.503563e-17;-3.330669e-16;-7.035546e-17;0.621769;-3.330669e-16;3.330669e-16;0
-0.03531;-0.471112;0.687077;8.39567e-13;0;0;8.39567e-13;-2.220446e-16;0;-1.262782e-17;0;0;0;0;7.158446e-19;-2.227605e-16;1.117382e-16;45;0;1.489842e-16;1.487462e-16;-2.220446e-16;-4.251122e-17;1.725558e-17;0;5.97668e-17;0.687077;-2.220446e-16;2.220446e-16;0
0.031855;-0.471112;0.698733;8.39567e-13;0;0;8.39567e-13;2.220446e-16;2.220446e-16;2.989226e-17;0;0;0;0;2.519369e-16;1.921523e-16;2.989226e-17;45;0;3.985634e-17;1.520007e-16;2.220446e-16;1.657802e-17;4.32065e-17;2.220446e-16;2.662848e-17;0.698733;4.440892e-16;-4.440892e-16;0
0.099021;-0.471112;0.767268;8.39567e-13;0;0;8.39567e-13;-1.110223e-16;2.220446e-16;-9.221862e-18;0;0;0;0;2.222997e-16;-1.112774e-16;1.667886e-16;45;0;2.223848e-16;1.961142e-16;-1.110223e-16;9.856066e-19;-1.942933e-17;2.220446e-16;-2.041494e-17;0.767268;1.110223e-16;-1.110223e-16;0
0.166186;-0.471112;0.812716;8.39567e-13;0;0;8.39567e-13;-1.110223e-16;2.220446e-16;4.644478e-19;0;0;0;0;2.220452e-16;-1.11023e-16;1.665341e-16;45;0;2.220455e-16;1.958257e-16;-1.110223e-16;-3.74874e-18;4.677636e-18;2.220446e-16;8.426376e-18;0.812716;1.110223e-16;-1.110223e-16;0
0.233352;-0.471112;0.82477;8.39567e-13;0;0;8.39567e-13;-1.110223e-16;0;-3.751901e-17;0;0;0;0;1.149007e-17;-1.225124e-16;6.700123e-17;45;0;8.933496e-17;8.576189e-17;-1.110223e-16;-1.673024e-17;-5.830778e-17;0;-4.157754e-17;0.82477;-1.110223e-16;1.110223e-16;0
0.300517;-0.471112;0.828954;8.39567e-13;0;0;8.39567e-13;2.220446e-16;-1.110223e-16;-6.395403e-18;0;0;0;0;2.221674e-16;-1.111451e-16;1.666562e-16;45;0;2.222083e-16;1.959641e-16;2.220446e-16;-1.267546e-18;-1.152326e-17;-1.110223e-16;-1.025571e-17;0.828954;1.110223e-16;-1.110223e-16;0
0.367682;-0.471112;0.893643;8.39567e-13;0;0;8.39567e-13;0;2.220446e-16;-1.069942e-17;0;0;0;0;2.22559e-16;-5.143701e-19;1.115367e-16;45;0;1.487156e-16;1.485444e-16;0;-3.487672e-17;1.347787e-17;2.220446e-16;4.835459e-17;0.893643;2.220446e-16;-2.220446e-16;0
0.434848;-0.471112;0.913155;8.39567e-13;0;0;8.39567e-13;-3.330669e-16;2.220446e-16;3.035301e-17;0;0;0;0;2.236993e-16;-3.347216e-16;2.792105e-16;45;0;3.722807e-16;3.245215e-16;-3.330669e-16;2.072999e-17;3.997603e-17;2.220446e-16;1.924603e-17;0.913155;-1.110223e-16;1.110223e-16;0
0.502013;-0.471112;0.889731;8.39567e-13;0;0;8.39567e-13;-1.110223e-16;-1.110223e-16;-3.396928e-17;0;0;0;0;-7.705303e-17;-1.449916e-16;3.396928e-17;45;0;4.529237e-17;8.376604e-17;-1.110223e-16;-7.200903e-18;-6.073765e-17;-1.110223e-16;-5.353674e-17;0.889731;-2.220446e-16;2.220446e-16;0
0.569178;-0.471112;0.862955;8.39567e-13;0;0;8.39567e-13;0;0;-2.665426e-17;0;0;0;0;2.665426e-17;-2.665426e-17;2.665426e-17;45;0;3.553901e-17;3.077768e-17;0;-4.822499e-17;-5.083523e-18;0;4.314147e-17;0.862955;0;0;0
0.636344;-0.471112;0.904435;8.39567e-13;0;0;8.39567e-13;0;2.220446e-16;-1.450171e-17;0;0;0;0;2.229877e-16;-9.431e-19;1.119654e-16;45;0;1.492872e-16;1.489738e-16;0;8.98552e-18;-3.798895e-17;2.220446e-16;-4.697447e-17;0.904435;2.220446e-16;-2.220446e-16;0
0.703509;-0.471112;0.923809;8.39567e-13;0;0;8.39567e-13;-1.110223e-16;0;4.559733e-17;0;0;0;0;1.632619e-17;-1.273485e-16;7.183735e-17;45;0;9.578313e-17;9.083147e-17;-1.110223e-16;2.94917e-17;6.170296e-17;0;3.221126e-17;0.923809;-1.110223e-16;1.110223e-16;0
0.770674;-0.471112;0.907821;8.39567e-13;0;0;8.39567e-13;-1.110223e-16;2.220446e-16;-2.682542e-17;0;0;0;0;2.241913e-16;-1.13169e-16;1.686802e-16;45;0;2.249069e-16;1.982596e-16;-1.110223e-16;-3.39965e-17;-1.965434e-17;2.220446e-16;1.434217e-17;0.907821;1.110223e-16;-1.110223e-16;0
0.83784;-0.471112;0.891568;8.39567e-13;0;0;8.39567e-13;2.220446e-16;0;6.3932e-19;0;0;0;0;2.220465e-16;-1.840741e-21;1.110241e-16;45;0;1.480322e-16;1.480316e-16;2.220446e-16;2.95551e-17;-2.827646e-17;0;-5.783156e-17;0.891568;2.220446e-16;-2.220446e-16;0
0.905005;-0.471112;0.892895;8.39567e-13;0;0;8.39567e-13;2.220446e-16;0;-1.92534e-17;0;0;0;0;2.237017e-16;-1.657088e-18;1.126794e-16;45;0;1.502392e-16;1.496899e-16;2.220446e-16;-1.549567e-17;-2.301113e-17;0;-7.515456e-18;0.892895;2.220446e-16;-2.220446e-16;0
0.97217;-0.471112;0.873852;8.39567e-13;0;0;8.39567e-13;2.220446e-16;2.220446e-16;-6.827251e-18;0;0;0;0;2.288718e-16;2.152173e-16;6.827251e-18;45;0;9.103002e-18;1.482395e-16;2.220446e-16;-4.317769e-17;2.952319e-17;2.220446e-16;7.270088e-17;0.873852;4.440892e-16;-4.440892e-16;0
1.039336;-0.471112;0.849503;8.39567e-13;0;0;8.39567e-13;-1.110223e-16;2.220446e-16;1.683801e-17;0;0;0;0;2.228937e-16;-1.118714e-16;1.673825e-16;45;0;2.231767e-16;1.967878e-16;-1.110223e-16;-1.344343e-17;4.711945e-17;2.220446e-16;6.056288e-17;0.849503;1.110223e-16;-1.110223e-16;0
1.106501;-0.471112;0.820065;8.39567e-13;0;0;8.39567e-13;2.220446e-16;-3.330669e-16;-3.365826e-17;0;0;0;0;2.24078e-16;-3.351003e-16;2.795891e-16;45;0;3.727855e-16;3.249559e-16;2.220446e-16;-3.815795e-17;-2.915858e-17;-3.330669e-16;8.999369e-18;0.820065;-1.110223e-16;1.110223e-16;0
1.173667;-0.471112;0.816585;8.39567e-13;0;0;8.39567e-13;0;2.220446e-16;-2.826042e-17;0;0;0;0;2.25585e-16;-3.540356e-18;1.145627e-16;45;0;1.527502e-16;1.515839e-16;0;-4.192334e-17;-1.459749e-17;2.220446e-16;2.732584e-17;0.816585;2.220446e-16;-2.220446e-16;0
1.240832;-0.471112;0.699886;8.39567e-13;0;0;8.39567e-13;-2.220446e-16;-1.110223e-16;1.47498e-17;0;0;0;0;-1.090961e-16;-2.239708e-16;5.743731e-17;45;0;7.658308e-17;1.293239e-16;-2.220446e-16;1.344949e-17;1.605012e-17;-1.110223e-16;2.600629e-18;0.699886;-3.330669e-16;3.330669e-16;0
1.307997;-0.471112;0.635888;8.39567e-13;0;0;8.39567e-13;-1.110223e-16;2.220446e-16;-6.396368e-18;0;0;0;0;2.221674e-16;-1.111451e-16;1.666562e-16;45;0;2.222083e-16;1.959642e-16;-1.110223e-16;-1.642773e-17;3.634994e-18;2.220446e-16;2.006272e-17;0.635888;1.110223e-16;-1.110223e-16;0
1.375163;-0.471112;0.573762;8.39567e-13;0;0;8.39567e-13;-2.220446e-16;0;-4.03333e-17;0;0;0;0;7.099359e-18;-2.29144e-16;1.181217e-16;45;0;1.574955e-16;1.551832e-16;-2.220446e-16;-9.61586e-17;1.549199e-17;0;1.116506e-16;0.573762;-2.220446e-16;2.220446e-16;0
1.442328;-0.471112;0.460751;8.39567e-13;0;0;8.39567e-13;0;0;8.331784e-20;0;0;0;0;8.331784e-20;-8.331784e-20;8.331784e-20;45;0;1.110905e-19;9.620715e-20;0;1.666357e-19;0;0;-1.666357e-19;0.460751;0;0;0
1.509493;-0.471112;0.373761;8.39567e-13;0;0;8.39567e-13;-4.440892e-16;0;-6.876125e-17;0;0;0;0;1.040306e-17;-4.544923e-16;2.324477e-16;45;0;3.099302e-16;3.065214e-16;-4.440892e-16;-5.236578e-17;-8.515672e-17;0;-3.279094e-17;0.373761;-4.440892e-16;4.440892e-16;0
-0.371137;-0.538278;0.250825;8.39567e-13;0;0;8.39567e-13;6.661338e-16;0;1.849459e-16;0;0;0;0;7.140374e-16;-4.790362e-17;3.809705e-16;45;0;5.079607e-16;4.927696e-16;6.661338e-16;2.790989e-16;9.079288e-17;0;-1.88306e-16;0.250825;6.661338e-16;-6.661338e-16;0
-0.303971;-0.538278;0.349151;8.39567e-13;0;0;8.39567e-13;0;2.220446e-16;1.571153e-17;0;0;0;0;2.231508e-16;-1.106212e-18;1.121285e-16;45;0;1.495047e-16;1.491373e-16;0;1.996712e-17;1.145594e-17;2.220446e-16;-8.511186e-18;0.349151;2.220446e-16;-2.220446e-16;0
-0.236806;-0.538278;0.451123;8.39567e-13;0;0;8.39567e-13;-2.220446e-16;2.220446e-16;2.109288e-18;0;0;0;0;2.220546e-16;-2.220546e-16;2.220546e-16;45;0;2.960728e-16;2.564066e-16;-2.220446e-16;-1.985235e-17;2.407092e-17;2.220446e-16;4.392327e-17;0.451123;0;0;0
-0.169641;-0.538278;0.536527;8.39567e-13;0;0;8.39567e-13;0;2.220446e-16;2.607134e-17;0;0;0;0;2.250647e-16;-3.020087e-18;1.140424e-16;45;0;1.520565e-16;1.510599e-16;0;5.214269e-17;0;2.220446e-16;-5.214269e-17;0.536527;2.220446e-16;-2.220446e-16;0
-0.102475;-0.538278;0.622595;8.39567e-13;0;0;8.39567e-13;2.220446e-16;0;2.837735e-17;0;0;0;0;2.256139e-16;-3.569259e-18;1.145916e-16;45;0;1.527887e-16;1.51613e-16;2.220446e-16;8.152423e-17;-2.476952e-17;0;-1.062938e-16;0.622595;2.220446e-16;-2.220446e-16;0
-0.03531;-0.538278;0.699108;8.39567e-13;0;0;8.39567e-13;0;2.220446e-16;-5.779663e-18;0;0;0;0;2.22195e-16;-1.503387e-19;1.111726e-16;45;0;1.482302e-16;1.481801e-16;0;3.567757e-18;-1.512708e-17;2.220446e-16;-1.869484e-17;0.699108;2.220446e-16;-2.220446e-16;0
0.031855;-0.538278;0.721935;8.39567e-13;0;0;8.39567e-13;0;-1.110223e-16;-3.521301e-21;0;0;0;0;1.116853e-25;-1.110223e-16;5.551115e-17;45;0;7.401487e-17;7.401487e-17;0;8.689818e-18;-8.69686e-18;-1.110223e-16;-1.738668e-17;0.721935;-1.110223e-16;1.110223e-16;0
0.099021;-0.538278;0.770047;8.39567e-13;0;0;8.39567e-13;0;-1.110223e-16;-1.87881e-17;0;0;0;0;3.093292e-18;-1.141156e-16;5.860444e-17;45;0;7.813926e-17;7.712884e-17;0;-2.90422e-17;-8.53401e-18;-1.110223e-16;2.050819e-17;0.770047;-1.110223e-16;1.110223e-16;0
0.166186;-0.538278;0.797509;8.39567e-13;0;0;8.39567e-13;0;2.220446e-16;1.276096e-17;0;0;0;0;2.227756e-16;-7.309692e-19;1.117533e-16;45;0;1.490044e-16;1.487613e-16;0;2.552192e-17;0;2.220446e-16;-2.552192e-17;0.797509;2.220446e-16;-2.220446e-16;0
0.233352;-0.538278;0.828886;8.39567e-13;0;0;8.39567e-13;2.220446e-16;2.220446e-16;-1.06454e-18;0;0;0;0;2.231091e-16;2.209801e-16;1.06454e-18;45;0;1.419387e-18;1.480348e-16;2.220446e-16;1.787896e-17;-2.000804e-17;2.220446e-16;-3.7887e-17;0.828886;4.440892e-16;-4.440892e-16;0
0.300517;-0.538278;0.847818;8.39567e-13;0;0;8.39567e-13;2.220446e-16;2.220446e-16;2.422692e-17;0;0;0;0;2.462715e-16;1.978177e-16;2.422692e-17;45;0;3.230256e-17;1.506499e-16;2.220446e-16;2.966499e-17;1.878885e-17;2.220446e-16;-1.087614e-17;0.847818;4.440892e-16;-4.440892e-16;0
0.367682;-0.538278;0.893136;8.39567e-13;0;0;8.39567e-13;0;0;-3.120267e-18;0;0;0;0;3.120267e-18;-3.120267e-18;3.120267e-18;45;0;4.160356e-18;3.602974e-18;0;3.189242e-17;-3.813295e-17;0;-7.002537e-17;0.893136;0;0;0
0.434848;-0.538278;0.894168;8.39567e-13;0;0;8.39567e-13;-1.110223e-16;-1.110223e-16;-8.040961e-18;0;0;0;0;-1.029813e-16;-1.190633e-16;8.040961e-18;45;0;1.072128e-17;7.459498e-17;-1.110223e-16;-1.866211e-17;2.580194e-18;-1.110223e-16;2.124231e-17;0.894168;-2.220446e-16;2.220446e-16;0
0.502013;-0.538278;0.898733;8.39567e-13;0;0;8.39567e-13;2.220446e-16;2.220446e-16;-8.524684e-18;0;0;0;0;2.305693e-16;2.135199e-16;8.524684e-18;45;0;1.136624e-17;1.483567e-16;2.220446e-16;4.893068e-18;-2.194243e-17;2.220446e-16;-2.68355e-17;0.898733;4.440892e-16;-4.440892e-16;0
0.569178;-0.538278;0.893533;8.39567e-13;0;0;8.39567e-13;0;0;-2.367424e-17;0;0;0;0;2.367424e-17;-2.367424e-17;2.367424e-17;45;0;3.156565e-17;2.733665e-17;0;-3.711256e-17;-1.023591e-17;0;2.687665e-17;0.893533;0;0;0
0.636344;-0.538278;0.913749;8.39567e-13;0;0;8.39567e-13;0;0;-3.308953e-17;0;0;0;0;3.308953e-17;-3.308953e-17;3.308953e-17;45;0;4.411937e-17;3.820849e-17;0;-5.973108e-17;-6.447978e-18;0;5.32831e-17;0.913749;0;0;0
0.703509;-0.538278;0.896297;8.39567e-13;0;0;8.39567e-13;2.220446e-16;2.220446e-16;1.987723e-17;0;0;0;0;2.419218e-16;2.021674e-16;1.987723e-17;45;0;2.650297e-17;1.497986e-16;2.220446e-16;1.949292e-17;2.026153e-17;2.220446e-16;7.686082e-19;0.896297;4.440892e-16;-4.440892e-16;0
0.770674;-0.538278;0.881532;8.39567e-13;0;0;8.39567e-13;2.220446e-16;2.220446e-16;1.145544e-17;0;0;0;0;2.335e-16;2.105892e-16;1.145544e-17;45;0;1.527392e-17;1.486196e-16;2.220446e-16;1.389763e-17;9.013249e-18;2.220446e-16;-4.884378e-18;0.881532;4.440892e-16;-4.440892e-16;0
0.83784;-0.538278;0.882401;8.39567e-13;0;0;8.39567e-13;0;0;-2.797743e-17;0;0;0;0;2.797743e-17;-2.797743e-17;2.797743e-17;45;0;3.730324e-17;3.230555e-17;0;-3.086211e-17;-2.509275e-17;0;5.769361e-18;0.882401;0;0;0
0.905005;-0.538278;0.891471;8.39567e-13;0;0;8.39567e-13;2.220446e-16;0;3.233173e-17;0;0;0;0;2.266566e-16;-4.612002e-18;1.156343e-16;45;0;1.541791e-16;1.52665e-16;2.220446e-16;3.972058e-17;2.494288e-17;0;-1.47777e-17;0.891471;2.220446e-16;-2.220446e-16;0
0.97217;-0.538278;0.847661;8.39567e-13;0;0;8.39567e-13;2.220446e-16;2.220446e-16;3.167831e-17;0;0;0;0;2.537229e-16;1.903663e-16;3.167831e-17;45;0;4.223775e-17;1.524822e-16;2.220446e-16;2.975161e-17;3.360502e-17;2.220446e-16;3.853411e-18;0.847661;4.440892e-16;-4.440892e-16;0
1.039336;-0.538278;0.838271;8.39567e-13;0;0;8.39567e-13;-3.330669e-16;2.220446e-16;1.712242e-19;0;0;0;0;2.220447e-16;-3.33067e-16;2.775558e-16;45;0;3.700744e-16;3.226234e-16;-3.330669e-16;-9.302008e-18;9.644457e-18;2.220446e-16;1.894647e-17;0.838271;-1.110223e-16;1.110223e-16;0
1.106501;-0.538278;0.812205;8.39567e-13;0;0;8.39567e-13;0;-1.110223e-16;8.693879e-18;0;0;0;0;6.766717e-19;-1.11699e-16;5.618782e-17;45;0;7.49171e-17;7.469256e-17;0;1.738776e-17;0;-1.110223e-16;-1.738776e-17;0.812205;-1.110223e-16;1.110223e-16;0
1.173667;-0.538278;0.793318;8.39567e-13;0;0;8.39567e-13;0;-3.330669e-16;-4.008397e-18;0;0;0;0;4.823331e-20;-3.331151e-16;1.665817e-16;45;0;2.221089e-16;2.220928e-16;0;2.544884e-17;-3.346564e-17;-3.330669e-16;-5.891448e-17;0.793318;-3.330669e-16;3.330669e-16;0
1.240832;-0.538278;0.716038;8.39567e-13;0;0;8.39567e-13;-2.220446e-16;2.220446e-16;-8.268569e-18;0;0;0;0;2.221985e-16;-2.221985e-16;2.221985e-16;45;0;2.962647e-16;2.565727e-16;-2.220446e-16;3.067131e-17;-4.720845e-17;2.220446e-16;-7.787976e-17;0.716038;0;0;0
1.307997;-0.538278;0.637174;8.39567e-13;0;0;8.39567e-13;2.220446e-16;2.220446e-16;-2.285515e-17;0;0;0;0;2.448998e-16;1.991895e-16;2.285515e-17;45;0;3.047353e-17;1.503638e-16;2.220446e-16;-1.842614e-17;-2.728416e-17;2.220446e-16;-8.858025e-18;0.637174;4.440892e-16;-4.440892e-16;0
1.375163;-0.538278;0.561318;8.39567e-13;0;0;8.39567e-13;-2.220446e-16;0;-4.621071e-17;0;0;0;0;9.233179e-18;-2.312778e-16;1.202555e-16;45;0;1.603406e-16;1.573532e-16;-2.220446e-16;-7.358568e-17;-1.883573e-17;0;5.474994e-17;0.561318;-2.220446e-16;2.220446e-16;0
1.442328;-0.538278;0.466091;8.39567e-13;0;0;8.39567e-13;2.220446e-16;0;-6.496371e-17;0;0;0;0;2.396545e-16;-1.760987e-17;1.286322e-16;45;0;1.715096e-16;1.659513e-16;2.220446e-16;-9.65703e-17;-3.335712e-17;0;6.321318e-17;0.466091;2.220446e-16;-2.220446e-16;0
1.509493;-0.538278;0.344313;8.39567e-13;0;0;8.39567e-13;4.440892e-16;-2.220446e-16;7.869814e-17;0;0;0;0;4.532605e-16;-2.312159e-16;3.422382e-16;45;0;4.563176e-16;4.020541e-16;4.440892e-16;1.368907e-16;2.050557e-17;-2.220446e-16;-1.163851e-16;0.344313;2.220446e-16;-2.220446e-16;0
-0.371137;-0.605443;0.308076;8.39567e-13;0;0;8.39567e-13;0;4.440892e-16;7.286804e-17;0;0;0;0;4.5574e-16;-1.165083e-17;2.336954e-16;45;0;3.115939e-16;3.077838e-16;0;-9.354617e-17;2.392823e-16;4.440892e-16;3.328284e-16;0.308076;4.440892e-16;-4.440892e-16;0
-0.303971;-0.605443;0.378085;8.39567e-13;0;0;8.39567e-13;2.220446e-16;-1.110223e-16;-5.573806e-17;0;0;0;0;2.311247e-16;-1.201024e-16;1.756136e-16;45;0;2.341514e-16;2.061303e-16;2.220446e-16;-7.150938e-17;-3.996673e-17;-1.110223e-16;3.154265e-17;0.378085;1.110223e-16;-1.110223e-16;0
-0.236806;-0.605443;0.470757;8.39567e-13;0;0;8.39567e-13;0;0;6.973389e-17;0;0;0;0;6.973389e-17;-6.973389e-17;6.973389e-17;45;0;9.297852e-17;8.052176e-17;0;1.305128e-16;8.954994e-18;0;-1.215578e-16;0.470757;0;0;0
-0.169641;-0.605443;0.561921;8.39567e-13;0;0;8.39567e-13;-2.220446e-16;-1.110223e-16;5.400656e-18;0;0;0;0;-1.107602e-16;-2.223067e-16;5.577325e-17;45;0;7.436433e-17;1.283491e-16;-2.220446e-16;1.91067e-17;-8.305383e-18;-1.110223e-16;-2.741208e-17;0.561921;-3.330669e-16;3.330669e-16;0
-0.102475;-0.605443;0.616224;8.39567e-13;0;0;8.39567e-13;2.220446e-16;-1.110223e-16;-8.713325e-18;0;0;0;0;2.222724e-16;-1.112501e-16;1.667613e-16;45;0;2.223483e-16;1.960832e-16;2.220446e-16;2.181257e-17;-3.923922e-17;-1.110223e-16;-6.10518e-17;0.616224;1.110223e-16;-1.110223e-16;0
-0.03531;-0.605443;0.667982;8.39567e-13;0;0;8.39567e-13;-1.110223e-16;-3.330669e-16;3.067598e-17;0;0;0;0;-1.068623e-16;-3.372269e-16;1.151823e-16;45;0;1.535764e-16;1.990027e-16;-1.110223e-16;2.730154e-17;3.405042e-17;-3.330669e-16;6.748875e-18;0.667982;-4.440892e-16;4.440892e-16;0
0.031855;-0.605443;0.73549;8.39567e-13;0;0;8.39567e-13;0;-1.110223e-16;2.665252e-17;0;0;0;0;6.066806e-18;-1.170891e-16;6.157796e-17;45;0;8.210394e-17;8.015824e-17;0;2.881156e-17;2.449348e-17;-1.110223e-16;-4.318074e-18;0.73549;-1.110223e-16;1.110223e-16;0
0.099021;-0.605443;0.785403;8.39567e-13;0;0;8.39567e-13;-2.220446e-16;2.220446e-16;9.081031e-18;0;0;0;0;2.222302e-16;-2.222302e-16;2.222302e-16;45;0;2.96307e-16;2.566093e-16;-2.220446e-16;-1.57167e-17;3.387876e-17;2.220446e-16;4.959546e-17;0.785403;0;0;0
0.166186;-0.605443;0.835029;8.39567e-13;0;0;8.39567e-13;4.440892e-16;0;3.017374e-17;0;0;0;0;4.4613e-16;-2.040783e-18;2.240854e-16;45;0;2.987805e-16;2.981026e-16;4.440892e-16;1.325047e-17;4.709701e-17;0;3.384654e-17;0.835029;4.440892e-16;-4.440892e-16;0
0.233352;-0.605443;0.84733;8.39567e-13;0;0;8.39567e-13;2.220446e-16;0;-3.493282e-18;0;0;0;0;2.220996e-16;-5.49439e-20;1.110772e-16;45;0;1.48103e-16;1.480847e-16;2.220446e-16;9.986861e-18;-1.697342e-17;0;-2.696029e-17;0.84733;2.220446e-16;-2.220446e-16;0
0.300517;-0.605443;0.849942;8.39567e-13;0;0;8.39567e-13;0;2.220446e-16;-7.272156e-17;0;0;0;0;2.437415e-16;-2.169686e-17;1.327192e-16;45;0;1.769589e-16;1.701882e-16;0;-6.794182e-17;-7.750128e-17;2.220446e-16;-9.559462e-18;0.849942;2.220446e-16;-2.220446e-16;0
0.367682;-0.605443;0.886315;8.39567e-13;0;0;8.39567e-13;2.220446e-16;-1.110223e-16;-3.252963e-18;0;0;0;0;2.220764e-16;-1.110541e-16;1.665652e-16;45;0;2.22087e-16;1.95861e-16;2.220446e-16;-1.135761e-17;4.851679e-18;-1.110223e-16;1.620928e-17;0.886315;1.110223e-16;-1.110223e-16;0
0.434848;-0.605443;0.886838;8.39567e-13;0;0;8.39567e-13;0;-3.330669e-16;-1.940451e-17;0;0;0;0;1.126698e-18;-3.341936e-16;1.676602e-16;45;0;2.235469e-16;2.231722e-16;0;-2.223988e-17;-1.656914e-17;-3.330669e-16;5.670742e-18;0.886838;-3.330669e-16;3.330669e-16;0
0.502013;-0.605443;0.901299;8.39567e-13;0;0;8.39567e-13;2.220446e-16;2.220446e-16;9.676447e-18;0;0;0;0;2.317211e-16;2.123682e-16;9.676447e-18;45;0;1.290193e-17;1.484508e-16;2.220446e-16;4.111117e-18;1.524178e-17;2.220446e-16;1.113066e-17;0.901299;4.440892e-16;-4.440892e-16;0
0.569178;-0.605443;0.92087;8.39567e-13;0;0;8.39567e-13;2.220446e-16;-1.110223e-16;-2.808924e-17;0;0;0;0;2.243969e-16;-1.133746e-16;1.688858e-16;45;0;2.25181e-16;1.984929e-16;2.220446e-16;-4.068543e-17;-1.549305e-17;-1.110223e-16;2.519239e-17;0.92087;1.110223e-16;-1.110223e-16;0
0.636344;-0.605443;0.925204;8.39567e-13;0;0;8.39567e-13;0;2.220446e-16;-2.082437e-17;0;0;0;0;2.239807e-16;-1.936123e-18;1.129584e-16;45;0;1.506112e-16;1.4997e-16;0;-1.669545e-17;-2.495329e-17;2.220446e-16;-8.257839e-18;0.925204;2.220446e-16;-2.220446e-16;0
0.703509;-0.605443;0.881783;8.39567e-13;0;0;8.39567e-13;2.220446e-16;0;-2.312733e-17;0;0;0;0;2.244279e-16;-2.383275e-18;1.134056e-16;45;0;1.512074e-16;1.504193e-16;2.220446e-16;-7.911131e-18;-3.834353e-17;0;-3.04324e-17;0.881783;2.220446e-16;-2.220446e-16;0
0.770674;-0.605443;0.885107;8.39567e-13;0;0;8.39567e-13;0;2.220446e-16;3.157186e-17;0;0;0;0;2.264464e-16;-4.401845e-18;1.154241e-16;45;0;1.538989e-16;1.524528e-16;0;9.052178e-18;5.409153e-17;2.220446e-16;4.503936e-17;0.885107;2.220446e-16;-2.220446e-16;0
0.83784;-0.605443;0.904197;8.39567e-13;0;0;8.39567e-13;0;0;1.665288e-17;0;0;0;0;1.665288e-17;-1.665288e-17;1.665288e-17;45;0;2.220384e-17;1.922909e-17;0;2.94308e-17;3.874961e-18;0;-2.555583e-17;0.904197;0;0;0
0.905005;-0.605443;0.893571;8.39567e-13;0;0;8.39567e-13;0;-1.110223e-16;-1.506277e-17;0;0;0;0;2.007324e-18;-1.130296e-16;5.751847e-17;45;0;7.66913e-17;7.603103e-17;0;-1.534494e-17;-1.478061e-17;-1.110223e-16;5.643304e-19;0.893571;-1.110223e-16;1.110223e-16;0
0.97217;-0.605443;0.860965;8.39567e-13;0;0;8.39567e-13;2.220446e-16;0;2.167437e-19;0;0;0;0;2.220448e-16;-2.115691e-22;1.110225e-16;45;0;1.4803e-16;1.4803e-16;2.220446e-16;5.328486e-18;-4.894999e-18;0;-1.022349e-17;0.860965;2.220446e-16;-2.220446e-16;0
1.039336;-0.605443;0.842954;8.39567e-13;0;0;8.39567e-13;2.220446e-16;0;-1.415013e-17;0;0;0;0;2.229427e-16;-8.981064e-19;1.119204e-16;45;0;1.492272e-16;1.489287e-16;2.220446e-16;-1.038788e-17;-1.791239e-17;0;-7.524513e-18;0.842954;2.220446e-16;-2.220446e-16;0
1.106501;-0.605443;0.777323;8.39567e-13;0;0;8.39567e-13;-3.330669e-16;2.220446e-16;-1.749416e-17;0;0;0;0;2.225954e-16;-3.336177e-16;2.781065e-16;45;0;3.708087e-16;3.232551e-16;-3.330669e-16;-2.614668e-17;-8.841639e-18;2.220446e-16;1.730504e-17;0.777323;-1.110223e-16;1.110223e-16;0
1.173667;-0.605443;0.778554;8.39567e-13;0;0;8.39567e-13;2.220446e-16;-1.110223e-16;8.925408e-17;0;0;0;0;2.444547e-16;-1.334324e-16;1.889436e-16;45;0;2.519248e-16;2.212897e-16;2.220446e-16;1.043704e-16;7.413779e-17;-1.110223e-16;-3.023258e-17;0.778554;1.110223e-16;-1.110223e-16;0
1.240832;-0.605443;0.744272;8.39567e-13;0;0;8.39567e-13;-1.110223e-16;0;-3.69356e-17;0;0;0;0;1.116513e-17;-1.221874e-16;6.667628e-17;45;0;8.890171e-17;8.542356e-17;-1.110223e-16;-5.918886e-17;-1.468234e-17;0;4.450653e-17;0.744272;-1.110223e-16;1.110223e-16;0
1.307997;-0.605443;0.662749;8.39567e-13;0;0;8.39567e-13;0;2.220446e-16;-8.79745e-18;0;0;0;0;2.223926e-16;-3.480112e-19;1.113703e-16;45;0;1.484938e-16;1.483779e-16;0;-4.143614e-17;2.384124e-17;2.220446e-16;6.527738e-17;0.662749;2.220446e-16;-2.220446e-16;0
1.375163;-0.605443;0.58174;8.39567e-13;0;0;8.39567e-13;2.220446e-16;0;4.25745e-17;0;0;0;0;2.299279e-16;-7.883289e-18;1.189056e-16;45;0;1.585408e-16;1.559794e-16;2.220446e-16;2.897682e-17;5.617219e-17;0;2.719537e-17;0.58174;2.220446e-16;-2.220446e-16;0
1.442328;-0.605443;0.48526;8.39567e-13;0;0;8.39567e-13;0;-3.330669e-16;-4.06514e-17;0;0;0;0;4.889786e-18;-3.379567e-16;1.714232e-16;45;0;2.285643e-16;2.269519e-16;0;-1.061451e-16;2.484229e-17;-3.330669e-16;1.309874e-16;0.48526;-3.330669e-16;3.330669e-16;0
1.509493;-0.605443;0.332043;8.39567e-13;0;0;8.39567e-13;0;-2.220446e-16;-5.086727e-17;0;0;0;0;1.109825e-17;-2.331429e-16;1.221206e-16;45;0;1.628274e-16;1.59257e-16;0;-1.047247e-16;2.990214e-18;-2.220446e-16;1.07715e-16;0.332043;-2.220446e-16;2.220446e-16;0
-0.371137;-0.672608;0.342931;8.39567e-13;0;0;8.39567e-13;-2.220446e-16;2.220446e-16;1.386702e-17;0;0;0;0;2.224772e-16;-2.224772e-16;2.224772e-16;45;0;2.966363e-16;2.568945e-16;-2.220446e-16;1.660226e-18;2.607381e-17;2.220446e-16;2.441359e-17;0.342931;0;0;0
-0.303971;-0.672608;0.370839;8.39567e-13;0;0;8.39567e-13;0;0;3.771146e-17;0;0;0;0;3.771146e-17;-3.771146e-17;3.771146e-17;45;0;5.028195e-17;4.354545e-17;0;3.42114e-17;4.121153e-17;0;7.000131e-18;0.370839;0;0;0
-0.236806;-0.672608;0.421892;8.39567e-13;0;0;8.39567e-13;-2.220446e-16;2.220446e-16;1.126103e-16;0;0;0;0;2.489676e-16;-2.489676e-16;2.489676e-16;45;0;3.319568e-16;2.87483e-16;-2.220446e-16;1.725368e-16;5.26837e-17;2.220446e-16;-1.198531e-16;0.421892;0;0;0
-0.169641;-0.672608;0.546506;8.39567e-13;0;0;8.39567e-13;0;0;-1.470752e-17;0;0;0;0;1.470752e-17;-1.470752e-17;1.470752e-17;45;0;1.961003e-17;1.698278e-17;0;-1.019785e-17;-1.92172e-17;0;-9.019353e-18;0.546506;0;0;0
-0.102475;-0.672608;0.631637;8.39567e-13;0;0;8.39567e-13;2.220446e-16;4.440892e-16;2.659353e-17;0;0;0;0;4.472298e-16;2.18904e-16;1.141629e-16;45;0;1.522172e-16;2.582273e-16;2.220446e-16;3.129975e-17;2.188731e-17;4.440892e-16;-9.41244e-18;0.631637;6.661338e-16;-6.661338e-16;0
-0.03531;-0.672608;0.687341;8.39567e-13;0;0;8.39567e-13;-1.110223e-16;-3.330669e-16;-1.00638e-17;0;0;0;0;-1.105671e-16;-3.335221e-16;1.114775e-16;45;0;1.486367e-16;1.961694e-16;-1.110223e-16;-1.220313e-17;-7.924478e-18;-3.330669e-16;4.27865e-18;0.687341;-4.440892e-16;4.440892e-16;0
0.031855;-0.672608;0.745331;8.39567e-13;0;0;8.39567e-13;-1.110223e-16;0;5.299589e-17;0;0;0;0;2.123552e-17;-1.322578e-16;7.674668e-17;45;0;1.023289e-16;9.603621e-17;-1.110223e-16;6.188296e-17;4.410882e-17;0;-1.777414e-17;0.745331;-1.110223e-16;1.110223e-16;0
0.099021;-0.672608;0.786491;8.39567e-13;0;0;8.39567e-13;2.220446e-16;0;-2.13619e-17;0;0;0;0;2.240811e-16;-2.036454e-18;1.130588e-16;45;0;1.50745e-16;1.500708e-16;2.220446e-16;-2.565662e-17;-1.706718e-17;0;8.589441e-18;0.786491;2.220446e-16;-2.220446e-16;0
0.166186;-0.672608;0.836324;8.39567e-13;0;0;8.39567e-13;-3.330669e-16;2.220446e-16;6.023241e-17;0;0;0;0;2.28505e-16;-3.395273e-16;2.840161e-16;45;0;3.786881e-16;3.30035e-16;-3.330669e-16;4.499278e-17;7.547203e-17;2.220446e-16;3.047926e-17;0.836324;-1.110223e-16;1.110223e-16;0
0.233352;-0.672608;0.820763;8.39567e-13;0;0;8.39567e-13;2.220446e-16;-1.110223e-16;-2.517109e-17;0;0;0;0;2.239361e-16;-1.129138e-16;1.68425e-16;45;0;2.245666e-16;1.979702e-16;2.220446e-16;-1.747252e-17;-3.286966e-17;-1.110223e-16;-1.539713e-17;0.820763;1.110223e-16;-1.110223e-16;0
0.300517;-0.672608;0.830118;8.39567e-13;0;0;8.39567e-13;4.440892e-16;0;1.106505e-17;0;0;0;0;4.443648e-16;-2.755287e-19;2.223201e-16;45;0;2.964269e-16;2.96335e-16;4.440892e-16;2.759276e-17;-5.46267e-18;0;-3.305543e-17;0.830118;4.440892e-16;-4.440892e-16;0
0.367682;-0.672608;0.875293;8.39567e-13;0;0;8.39567e-13;2.220446e-16;2.220446e-16;-6.100695e-18;0;0;0;0;2.281453e-16;2.159439e-16;6.100695e-18;45;0;8.13426e-18;1.481973e-16;2.220446e-16;-1.673966e-17;4.538271e-18;2.220446e-16;2.127793e-17;0.875293;4.440892e-16;-4.440892e-16;0
0.434848;-0.672608;0.902563;8.39567e-13;0;0;8.39567e-13;2.220446e-16;2.220446e-16;2.419361e-17;0;0;0;0;2.462382e-16;1.97851e-16;2.419361e-17;45;0;3.225815e-17;1.506428e-16;2.220446e-16;2.357374e-17;2.481348e-17;2.220446e-16;1.239733e-18;0.902563;4.440892e-16;-4.440892e-16;0
0.502013;-0.672608;0.927811;8.39567e-13;0;0;8.39567e-13;2.220446e-16;0;1.101725e-17;0;0;0;0;2.225899e-16;-5.453072e-19;1.115676e-16;45;0;1.487568e-16;1.485754e-16;2.220446e-16;1.190128e-17;1.013323e-17;0;-1.768052e-18;0.927811;2.220446e-16;-2.220446e-16;0
0.569178;-0.672608;0.928544;8.39567e-13;0;0;8.39567e-13;-1.110223e-16;2.220446e-16;-9.698081e-18;0;0;0;0;2.223267e-16;-1.113044e-16;1.668156e-16;45;0;2.224208e-16;1.961449e-16;-1.110223e-16;2.115169e-17;-4.054785e-17;2.220446e-16;-6.169954e-17;0.928544;1.110223e-16;-1.110223e-16;0
0.636344;-0.672608;0.88965;8.39567e-13;0;0;8.39567e-13;2.220446e-16;2.220446e-16;-1.060785e-17;0;0;0;0;2.326524e-16;2.114367e-16;1.060785e-17;45;0;1.41438e-17;1.485356e-16;2.220446e-16;4.113799e-18;-2.53295e-17;2.220446e-16;-2.94433e-17;0.88965;4.440892e-16;-4.440892e-16;0
0.703509;-0.672608;0.902126;8.39567e-13;0;0;8.39567e-13;0;2.220446e-16;-8.582948e-18;0;0;0;0;2.223759e-16;-3.312724e-19;1.113536e-16;45;0;1.484714e-16;1.483611e-16;0;-6.871256e-18;-1.029464e-17;2.220446e-16;-3.423383e-18;0.902126;2.220446e-16;-2.220446e-16;0
0.770674;-0.672608;0.929375;8.39567e-13;0;0;8.39567e-13;2.220446e-16;-1.110223e-16;-1.503975e-17;0;0;0;0;2.227224e-16;-1.117e-16;1.672112e-16;45;0;2.229483e-16;1.965935e-16;2.220446e-16;-2.491308e-17;-5.166409e-18;-1.110223e-16;1.974668e-17;0.929375;1.110223e-16;-1.110223e-16;0
0.83784;-0.672608;0.909524;8.39567e-13;0;0;8.39567e-13;2.220446e-16;-1.110223e-16;7.003559e-18;0;0;0;0;2.221918e-16;-1.111695e-16;1.666807e-16;45;0;2.222409e-16;1.959918e-16;2.220446e-16;-5.607011e-18;1.961413e-17;-1.110223e-16;2.522114e-17;0.909524;1.110223e-16;-1.110223e-16;0
0.905005;-0.672608;0.879102;8.39567e-13;0;0;8.39567e-13;0;-1.110223e-16;9.996922e-18;0;0;0;0;8.929829e-19;-1.119153e-16;5.640414e-17;45;0;7.520551e-17;7.490963e-17;0;3.489217e-17;-1.489833e-17;-1.110223e-16;-4.97905e-17;0.879102;-1.110223e-16;1.110223e-16;0
0.97217;-0.672608;0.867823;8.39567e-13;0;0;8.39567e-13;2.220446e-16;2.220446e-16;-1.256443e-17;0;0;0;0;2.34609e-16;2.094802e-16;1.256443e-17;45;0;1.675258e-17;1.48739e-16;2.220446e-16;-2.225689e-17;-2.871973e-18;2.220446e-16;1.938492e-17;0.867823;4.440892e-16;-4.440892e-16;0
1.039336;-0.672608;0.857401;8.39567e-13;0;0;8.39567e-13;-1.110223e-16;0;7.811978e-17;0;0;0;0;4.032302e-17;-1.513453e-16;9.583417e-17;45;0;1.277789e-16;1.166839e-16;-1.110223e-16;8.582162e-17;7.041795e-17;0;-1.540367e-17;0.857401;-1.110223e-16;1.110223e-16;0
1.106501;-0.672608;0.780635;8.39567e-13;0;0;8.39567e-13;0;2.220446e-16;-3.835681e-17;0;0;0;0;2.284838e-16;-6.439168e-18;1.174615e-16;45;0;1.566153e-16;1.545136e-16;0;-1.31231e-17;-6.359053e-17;2.220446e-16;-5.046743e-17;0.780635;2.220446e-16;-2.220446e-16;0
1.173667;-0.672608;0.744459;8.39567e-13;0;0;8.39567e-13;-1.110223e-16;-1.110223e-16;1.947239e-18;0;0;0;0;-1.090751e-16;-1.129695e-16;1.947239e-18;45;0;2.596319e-18;7.404902e-17;-1.110223e-16;2.123842e-17;-1.734394e-17;-1.110223e-16;-3.858235e-17;0.744459;-2.220446e-16;2.220446e-16;0
1.240832;-0.672608;0.696299;8.39567e-13;0;0;8.39567e-13;-3.330669e-16;-1.110223e-16;-6.434004e-17;0;0;0;0;-9.372628e-17;-3.503629e-16;1.283183e-16;45;0;1.710911e-16;2.094443e-16;-3.330669e-16;-9.653782e-17;-3.214225e-17;-1.110223e-16;6.439557e-17;0.696299;-4.440892e-16;4.440892e-16;0
1.307997;-0.672608;0.65573;8.39567e-13;0;0;8.39567e-13;-1.110223e-16;0;1.572217e-17;0;0;0;0;2.183515e-18;-1.132058e-16;5.769466e-17;45;0;7.692622e-17;7.620881e-17;-1.110223e-16;1.855859e-18;2.958848e-17;0;2.773262e-17;0.65573;-1.110223e-16;1.110223e-16;0
1.375163;-0.672608;0.584883;8.39567e-13;0;0;8.39567e-13;4.440892e-16;-1.110223e-16;-9.139237e-18;0;0;0;0;4.442396e-16;-1.111727e-16;2.777062e-16;45;0;3.702749e-16;3.393429e-16;4.440892e-16;-1.187085e-17;-6.407626e-18;-1.110223e-16;5.463224e-18;0.584883;3.330669e-16;-3.330669e-16;0
1.442328;-0.672608;0.485493;8.39567e-13;0;0;8.39567e-13;2.220446e-16;0;-6.714989e-17;0;0;0;0;2.407723e-16;-1.872769e-17;1.2975e-16;45;0;1.73e-16;1.671076e-16;2.220446e-16;-1.162947e-16;-1.80051e-17;0;9.828957e-17;0.485493;2.220446e-16;-2.220446e-16;0
1.509493;-0.672608;0.348849;8.39567e-13;0;0;8.39567e-13;-2.220446e-16;2.220446e-16;1.929177e-17;0;0;0;0;2.228811e-16;-2.228811e-16;2.228811e-16;45;0;2.971748e-16;2.573609e-16;-2.220446e-16;6.403668e-17;-2.545315e-17;2.220446e-16;-8.948984e-17;0.348849;0;0;0
-0.371137;-0.739774;0.323581;8.39567e-13;0;0;8.39567e-13;-2.220446e-16;2.220446e-16;-2.759853e-17;0;0;0;0;2.237532e-16;-2.237532e-16;2.237532e-16;45;0;2.983376e-16;2.583679e-16;-2.220446e-16;-1.234679e-17;-4.285028e-17;2.220446e-16;-3.05035e-17;0.323581;0;0;0
-0.303971;-0.739774;0.386675;8.39567e-13;0;0;8.39567e-13;0;-4.440892e-16;-2.850874e-17;0;0;0;0;1.822666e-18;-4.459119e-16;2.238673e-16;45;0;2.984897e-16;2.97884e-16;0;-2.133372e-17;-3.568376e-17;-4.440892e-16;-1.435004e-17;0.386675;-4.440892e-16;4.440892e-16;0
-0.236806;-0.739774;0.457687;8.39567e-13;0;0;8.39567e-13;0;0;2.743468e-17;0;0;0;0;2.743468e-17;-2.743468e-17;2.743468e-17;45;0;3.657957e-17;3.167884e-17;0;4.233033e-17;1.253903e-17;0;-2.979129e-17;0.457687;0;0;0
-0.169641;-0.739774;0.554698;8.39567e-13;0;0;8.39567e-13;0;2.220446e-16;-1.310192e-17;0;0;0;0;2.22815e-16;-7.704165e-19;1.117927e-16;45;0;1.49057e-16;1.488008e-16;0;-2.620384e-17;0;2.220446e-16;2.620384e-17;0.554698;2.220446e-16;-2.220446e-16;0
-0.102475;-0.739774;0.640779;8.39567e-13;0;0;8.39567e-13;-1.110223e-16;2.220446e-16;2.981496e-17;0;0;0;0;2.246925e-16;-1.136702e-16;1.691813e-16;45;0;2.255751e-16;1.988282e-16;-1.110223e-16;3.820745e-17;2.142247e-17;2.220446e-16;-1.678497e-17;0.640779;1.110223e-16;-1.110223e-16;0
-0.03531;-0.739774;0.69216;8.39567e-13;0;0;8.39567e-13;2.220446e-16;0;1.258823e-17;0;0;0;0;2.22756e-16;-7.113769e-19;1.117337e-16;45;0;1.489782e-16;1.487417e-16;2.220446e-16;1.183933e-18;2.399252e-17;0;2.280859e-17;0.69216;2.220446e-16;-2.220446e-16;0
0.031855;-0.739774;0.737832;8.39567e-13;0;0;8.39567e-13;2.220446e-16;2.220446e-16;-2.308158e-17;0;0;0;0;2.451262e-16;1.98963e-16;2.308158e-17;45;0;3.077545e-17;1.504099e-16;2.220446e-16;-2.82741e-17;-1.788908e-17;2.220446e-16;1.038502e-17;0.737832;4.440892e-16;-4.440892e-16;0
0.099021;-0.739774;0.756172;8.39567e-13;0;0;8.39567e-13;2.220446e-16;2.220446e-16;-4.264412e-17;0;0;0;0;2.646887e-16;1.794005e-16;4.264412e-17;45;0;5.685883e-17;1.560048e-16;2.220446e-16;-5.888496e-17;-2.640328e-17;2.220446e-16;3.248169e-17;0.756172;4.440892e-16;-4.440892e-16;0
0.166186;-0.739774;0.813804;8.39567e-13;0;0;8.39567e-13;-1.110223e-16;2.220446e-16;4.117758e-17;0;0;0;0;2.270599e-16;-1.160376e-16;1.715488e-16;45;0;2.287317e-16;2.015147e-16;-1.110223e-16;5.997425e-17;2.238092e-17;2.220446e-16;-3.759333e-17;0.813804;1.110223e-16;-1.110223e-16;0
0.233352;-0.739774;0.844499;8.39567e-13;0;0;8.39567e-13;2.220446e-16;2.220446e-16;2.008916e-17;0;0;0;0;2.421338e-16;2.019554e-16;2.008916e-17;45;0;2.678555e-17;1.498363e-16;2.220446e-16;2.754205e-17;1.263627e-17;2.220446e-16;-1.490578e-17;0.844499;4.440892e-16;-4.440892e-16;0
0.300517;-0.739774;0.854155;8.39567e-13;0;0;8.39567e-13;2.220446e-16;-1.110223e-16;-1.390001e-17;0;0;0;0;2.226237e-16;-1.116014e-16;1.671125e-16;45;0;2.228167e-16;1.964816e-16;2.220446e-16;-2.276518e-17;-5.034836e-18;-1.110223e-16;1.773034e-17;0.854155;1.110223e-16;-1.110223e-16;0
0.367682;-0.739774;0.87273;8.39567e-13;0;0;8.39567e-13;2.220446e-16;0;9.827185e-20;0;0;0;0;2.220447e-16;-4.349286e-23;1.110223e-16;45;0;1.480298e-16;1.480298e-16;2.220446e-16;-2.501938e-17;2.521592e-17;0;5.02353e-17;0.87273;2.220446e-16;-2.220446e-16;0
0.434848;-0.739774;0.914328;8.39567e-13;0;0;8.39567e-13;0;-1.110223e-16;-1.899203e-17;0;0;0;0;3.158986e-18;-1.141813e-16;5.867014e-17;45;0;7.822685e-17;7.71954e-17;0;-2.439881e-17;-1.358525e-17;-1.110223e-16;1.081356e-17;0.914328;-1.110223e-16;1.110223e-16;0
0.502013;-0.739774;0.900167;8.39567e-13;0;0;8.39567e-13;2.220446e-16;0;-8.691145e-18;0;0;0;0;2.223843e-16;-3.396643e-19;1.11362e-16;45;0;1.484826e-16;1.483695e-16;2.220446e-16;-4.056376e-17;2.318147e-17;0;6.374522e-17;0.900167;2.220446e-16;-2.220446e-16;0
0.569178;-0.739774;0.92758;8.39567e-13;0;0;8.39567e-13;0;-1.110223e-16;6.209752e-18;0;0;0;0;3.462469e-19;-1.113686e-16;5.58574e-17;45;0;7.447653e-17;7.436139e-17;0;-1.889359e-17;3.131309e-17;-1.110223e-16;5.020668e-17;0.92758;-1.110223e-16;1.110223e-16;0
0.636344;-0.739774;0.921345;8.39567e-13;0;0;8.39567e-13;2.220446e-16;2.220446e-16;-1.892897e-17;0;0;0;0;2.409736e-16;2.031156e-16;1.892897e-17;45;0;2.523863e-17;1.496347e-16;2.220446e-16;-3.398761e-17;-3.87034e-18;2.220446e-16;3.011727e-17;0.921345;4.440892e-16;-4.440892e-16;0
0.703509;-0.739774;0.9268;8.39567e-13;0;0;8.39567e-13;-3.330669e-16;2.220446e-16;-7.651065e-18;0;0;0;0;2.2215e-16;-3.331723e-16;2.776612e-16;45;0;3.702149e-16;3.227443e-16;-3.330669e-16;-1.27349e-17;-2.567234e-18;2.220446e-16;1.016766e-17;0.9268;-1.110223e-16;1.110223e-16;0
0.770674;-0.739774;0.9342;8.39567e-13;0;0;8.39567e-13;0;-1.110223e-16;8.898448e-18;0;0;0;0;7.086877e-19;-1.11731e-16;5.621984e-17;45;0;7.495978e-17;7.472468e-17;0;1.017986e-17;7.617039e-18;-1.110223e-16;-2.562819e-18;0.9342;-1.110223e-16;1.110223e-16;0
0.83784;-0.739774;0.886176;8.39567e-13;0;0;8.39567e-13;2.220446e-16;-1.110223e-16;-2.464217e-17;0;0;0;0;2.238579e-16;-1.128356e-16;1.683468e-16;45;0;2.244623e-16;1.978814e-16;2.220446e-16;-2.568618e-17;-2.359816e-17;-1.110223e-16;2.088014e-18;0.886176;1.110223e-16;-1.110223e-16;0
0.905005;-0.739774;0.860245;8.39567e-13;0;0;8.39567e-13;2.220446e-16;0;4.747668e-18;0;0;0;0;2.221461e-16;-1.014663e-19;1.111238e-16;45;0;1.48165e-16;1.481312e-16;2.220446e-16;3.574674e-17;-2.62514e-17;0;-6.199815e-17;0.860245;2.220446e-16;-2.220446e-16;0
0.97217;-0.739774;0.864224;8.39567e-13;0;0;8.39567e-13;0;0;8.270384e-18;0;0;0;0;8.270384e-18;-8.270384e-18;8.270384e-18;45;0;1.102718e-17;9.549818e-18;0;3.821293e-19;1.615864e-17;0;1.577651e-17;0.864224;0;0;0
1.039336;-0.739774;0.874009;8.39567e-13;0;0;8.39567e-13;-1.110223e-16;0;6.041106e-17;0;0;0;0;2.653142e-17;-1.375537e-16;8.204257e-17;45;0;1.093901e-16;1.017064e-16;-1.110223e-16;6.475355e-17;5.606857e-17;0;-8.684987e-18;0.874009;-1.110223e-16;1.110223e-16;0
1.106501;-0.739774;0.826184;8.39567e-13;0;0;8.39567e-13;-1.110223e-16;0;7.811693e-18;0;0;0;0;5.469477e-19;-1.115692e-16;5.60581e-17;45;0;7.474413e-17;7.456248e-17;-1.110223e-16;7.613953e-18;8.009433e-18;0;3.954797e-19;0.826184;-1.110223e-16;1.110223e-16;0
1.173667;-0.739774;0.762187;8.39567e-13;0;0;8.39567e-13;-1.110223e-16;2.220446e-16;-4.70517e-17;0;0;0;0;2.285639e-16;-1.175416e-16;1.730527e-16;45;0;2.30737e-16;2.032221e-16;-1.110223e-16;-6.266953e-17;-3.143387e-17;2.220446e-16;3.123566e-17;0.762187;1.110223e-16;-1.110223e-16;0
1.240832;-0.739774;0.70377;8.39567e-13;0;0;8.39567e-13;2.220446e-16;-1.110223e-16;1.296505e-17;0;0;0;0;2.225485e-16;-1.115262e-16;1.670374e-16;45;0;2.227165e-16;1.963964e-16;2.220446e-16;6.515455e-18;1.941465e-17;-1.110223e-16;1.289919e-17;0.70377;1.110223e-16;-1.110223e-16;0
1.307997;-0.739774;0.640954;8.39567e-13;0;0;8.39567e-13;0;0;-8.000781e-18;0;0;0;0;8.000781e-18;-8.000781e-18;8.000781e-18;45;0;1.066771e-17;9.238506e-18;0;-8.637229e-18;-7.364334e-18;0;1.272896e-18;0.640954;0;0;0
1.375163;-0.739774;0.570081;8.39567e-13;0;0;8.39567e-13;-2.220446e-16;-1.110223e-16;1.324521e-17;0;0;0;0;-1.09464e-16;-2.236029e-16;5.706946e-17;45;0;7.609262e-17;1.291066e-16;-2.220446e-16;1.297626e-17;1.351416e-17;-1.110223e-16;5.37901e-19;0.570081;-3.330669e-16;3.330669e-16;0
1.442328;-0.739774;0.489528;8.39567e-13;0;0;8.39567e-13;-2.220446e-16;0;-1.190786e-17;0;0;0;0;6.367716e-19;-2.226814e-16;1.116591e-16;45;0;1.488788e-16;1.48667e-16;-2.220446e-16;-1.739345e-18;-2.207638e-17;0;-2.033704e-17;0.489528;-2.220446e-16;2.220446e-16;0
1.509493;-0.739774;0.371708;8.39567e-13;0;0;8.39567e-13;0;0;2.999626e-17;0;0;0;0;2.999626e-17;-2.999626e-17;2.999626e-17;45;0;3.999501e-17;3.46367e-17;0;2.906266e-17;3.092985e-17;0;1.867193e-18;0.371708;0;0;0
-0.371137;-0.806939;0.284415;8.39567e-13;0;0;8.39567e-13;2.220446e-16;-2.220446e-16;-2.733328e-17;0;0;0;0;2.237206e-16;-2.237206e-16;2.237206e-16;45;0;2.982942e-16;2.583303e-16;2.220446e-16;-8.786596e-17;3.319941e-17;-2.220446e-16;1.210654e-16;0.284415;0;0;0
-0.303971;-0.806939;0.380441;8.39567e-13;0;0;8.39567e-13;-2.220446e-16;0;5.148266e-17;0;0;0;0;1.135586e-17;-2.334005e-16;1.223782e-16;45;0;1.631709e-16;1.595204e-16;-2.220446e-16;7.945133e-17;2.351399e-17;0;-5.593734e-17;0.380441;-2.220446e-16;2.220446e-16;0
-0.236806;-0.806939;0.485229;8.39567e-13;0;0;8.39567e-13;2.220446e-16;-3.330669e-16;-5.430623e-18;0;0;0;0;2.220977e-16;-3.3312e-16;2.776089e-16;45;0;3.701452e-16;3.226843e-16;2.220446e-16;2.138657e-17;-3.224782e-17;-3.330669e-16;-5.363439e-17;0.485229;-1.110223e-16;1.110223e-16;0
-0.169641;-0.806939;0.554043;8.39567e-13;0;0;8.39567e-13;2.220446e-16;2.220446e-16;4.526619e-17;0;0;0;0;2.673108e-16;1.767784e-16;4.526619e-17;45;0;6.035492e-17;1.569868e-16;2.220446e-16;8.019934e-17;1.033304e-17;2.220446e-16;-6.98663e-17;0.554043;4.440892e-16;-4.440892e-16;0
-0.102475;-0.806939;0.615366;8.39567e-13;0;0;8.39567e-13;0;2.220446e-16;7.275254e-18;0;0;0;0;2.222827e-16;-2.381171e-19;1.112604e-16;45;0;1.483472e-16;1.482679e-16;0;-3.17783e-20;1.458229e-17;2.220446e-16;1.461406e-17;0.615366;2.220446e-16;-2.220446e-16;0
-0.03531;-0.806939;0.680925;8.39567e-13;0;0;8.39567e-13;2.220446e-16;-1.110223e-16;3.005483e-17;0;0;0;0;2.247349e-16;-1.137126e-16;1.692238e-16;45;0;2.256317e-16;1.988763e-16;2.220446e-16;3.65932e-17;2.351646e-17;-1.110223e-16;-1.307674e-17;0.680925;1.110223e-16;-1.110223e-16;0
0.031855;-0.806939;0.748532;8.39567e-13;0;0;8.39567e-13;2.220446e-16;2.220446e-16;-1.488159e-17;0;0;0;0;2.369262e-16;2.07163e-16;1.488159e-17;45;0;1.984213e-17;1.490238e-16;2.220446e-16;-1.202907e-17;-1.773412e-17;2.220446e-16;-5.705045e-18;0.748532;4.440892e-16;-4.440892e-16;0
0.099021;-0.806939;0.763004;8.39567e-13;0;0;8.39567e-13;-1.110223e-16;-1.110223e-16;5.754967e-17;0;0;0;0;-5.347263e-17;-1.68572e-16;5.754967e-17;45;0;7.67329e-17;9.946936e-17;-1.110223e-16;7.913141e-17;3.596794e-17;-1.110223e-16;-4.316346e-17;0.763004;-2.220446e-16;2.220446e-16;0
0.166186;-0.806939;0.81279;8.39567e-13;0;0;8.39567e-13;2.220446e-16;2.220446e-16;-2.846044e-18;0;0;0;0;2.248907e-16;2.191986e-16;2.846044e-18;45;0;3.794726e-18;1.480662e-16;2.220446e-16;-3.540395e-18;-2.151693e-18;2.220446e-16;1.388703e-18;0.81279;4.440892e-16;-4.440892e-16;0
0.233352;-0.806939;0.846221;8.39567e-13;0;0;8.39567e-13;0;2.220446e-16;-5.597222e-18;0;0;0;0;2.221856e-16;-1.410033e-19;1.111633e-16;45;0;1.482177e-16;1.481708e-16;0;-3.077245e-18;-8.117199e-18;2.220446e-16;-5.039954e-18;0.846221;2.220446e-16;-2.220446e-16;0
0.300517;-0.806939;0.844518;8.39567e-13;0;0;8.39567e-13;2.220446e-16;0;-1.325444e-17;0;0;0;0;2.22833e-16;-7.883937e-19;1.118107e-16;45;0;1.490809e-16;1.488188e-16;2.220446e-16;-1.495279e-17;-1.155608e-17;0;3.396712e-18;0.844518;2.220446e-16;-2.220446e-16;0
0.367682;-0.806939;0.855403;8.39567e-13;0;0;8.39567e-13;2.220446e-16;2.220446e-16;-1.718431e-18;0;0;0;0;2.23763e-16;2.203262e-16;1.718431e-18;45;0;2.291241e-18;1.48043e-16;2.220446e-16;4.140175e-17;-4.483861e-17;2.220446e-16;-8.624036e-17;0.855403;4.440892e-16;-4.440892e-16;0
0.434848;-0.806939;0.928487;8.39567e-13;0;0;8.39567e-13;2.220446e-16;-1.110223e-16;2.644172e-17;0;0;0;0;2.241307e-16;-1.131084e-16;1.686196e-16;45;0;2.248261e-16;1.981909e-16;2.220446e-16;-9.481986e-18;6.236543e-17;-1.110223e-16;7.184743e-17;0.928487;1.110223e-16;-1.110223e-16;0
0.502013;-0.806939;0.900763;8.39567e-13;0;0;8.39567e-13;0;2.220446e-16;-1.503695e-17;0;0;0;0;2.230583e-16;-1.013681e-18;1.12036e-16;45;0;1.493813e-16;1.490446e-16;0;6.750034e-18;-3.682393e-17;2.220446e-16;-4.357397e-17;0.900763;2.220446e-16;-2.220446e-16;0
0.569178;-0.806939;0.911901;8.39567e-13;0;0;8.39567e-13;-1.110223e-16;0;1.108077e-18;0;0;0;0;1.105826e-20;-1.110334e-16;5.552221e-17;45;0;7.402961e-17;7.402593e-17;-1.110223e-16;4.780319e-18;-2.564165e-18;0;-7.344485e-18;0.911901;-1.110223e-16;1.110223e-16;0
0.636344;-0.806939;0.917605;8.39567e-13;0;0;8.39567e-13;0;2.220446e-16;-3.181107e-18;0;0;0;0;2.220902e-16;-4.556455e-20;1.110679e-16;45;0;1.480905e-16;1.480753e-16;0;-2.228694e-17;1.592473e-17;2.220446e-16;3.821167e-17;0.917605;2.220446e-16;-2.220446e-16;0
0.703509;-0.806939;0.914641;8.39567e-13;0;0;8.39567e-13;2.220446e-16;-1.110223e-16;1.329285e-17;0;0;0;0;2.225743e-16;-1.11552e-16;1.670631e-16;45;0;2.227508e-16;1.964256e-16;2.220446e-16;6.725421e-18;1.986027e-17;-1.110223e-16;1.313485e-17;0.914641;1.110223e-16;-1.110223e-16;0
0.770674;-0.806939;0.908791;8.39567e-13;0;0;8.39567e-13;-1.110223e-16;0;3.238519e-17;0;0;0;0;8.756168e-18;-1.197785e-16;6.426732e-17;45;0;8.568976e-17;8.292527e-17;-1.110223e-16;2.690685e-17;3.786352e-17;0;1.095667e-17;0.908791;-1.110223e-16;1.110223e-16;0
0.83784;-0.806939;0.897835;8.39567e-13;0;0;8.39567e-13;-3.330669e-16;0;-3.278707e-17;0;0;0;0;3.196872e-18;-3.362638e-16;1.697303e-16;45;0;2.263071e-16;2.25249e-16;-3.330669e-16;-6.062342e-17;-4.950725e-18;0;5.567269e-17;0.897835;-3.330669e-16;3.330669e-16;0
0.905005;-0.806939;0.881475;8.39567e-13;0;0;8.39567e-13;0;0;-6.05731e-18;0;0;0;0;6.05731e-18;-6.05731e-18;6.05731e-18;45;0;8.076414e-18;6.99438e-18;0;-2.736472e-17;1.52501e-17;0;4.261482e-17;0.881475;0;0;0
0.97217;-0.806939;0.872164;8.39567e-13;0;0;8.39567e-13;2.220446e-16;0;-4.705811e-19;0;0;0;0;2.220456e-16;-9.973022e-22;1.110233e-16;45;0;1.480311e-16;1.480307e-16;2.220446e-16;-2.55739e-17;2.463274e-17;0;5.020663e-17;0.872164;2.220446e-16;-2.220446e-16;0
1.039336;-0.806939;0.833535;8.39567e-13;0;0;8.39567e-13;0;-1.110223e-16;-1.477421e-17;0;0;0;0;1.932432e-18;-1.129547e-16;5.744358e-17;45;0;7.659145e-17;7.59555e-17;0;-2.954842e-17;0;-1.110223e-16;2.954842e-17;0.833535;-1.110223e-16;1.110223e-16;0
1.106501;-0.806939;0.825199;8.39567e-13;0;0;8.39567e-13;2.220446e-16;2.220446e-16;7.023381e-17;0;0;0;0;2.922784e-16;1.518108e-16;7.023381e-17;45;0;9.364507e-17;1.687894e-16;2.220446e-16;8.790147e-17;5.256614e-17;2.220446e-16;-3.533533e-17;0.825199;4.440892e-16;-4.440892e-16;0
1.173667;-0.806939;0.764509;8.39567e-13;0;0;8.39567e-13;2.220446e-16;0;2.75341e-17;0;0;0;0;2.25408e-16;-3.363355e-18;1.143857e-16;45;0;1.525142e-16;1.514055e-16;2.220446e-16;6.975357e-18;4.809285e-17;0;4.111749e-17;0.764509;2.220446e-16;-2.220446e-16;0
1.240832;-0.806939;0.708029;8.39567e-13;0;0;8.39567e-13;2.220446e-16;-3.330669e-16;2.023734e-18;0;0;0;0;2.22052e-16;-3.330743e-16;2.775631e-16;45;0;3.700842e-16;3.226318e-16;2.220446e-16;-1.83793e-17;2.242677e-17;-3.330669e-16;4.080606e-17;0.708029;-1.110223e-16;1.110223e-16;0
1.307997;-0.806939;0.629227;8.39567e-13;0;0;8.39567e-13;-1.110223e-16;2.220446e-16;-1.809979e-17;0;0;0;0;2.230253e-16;-1.12003e-16;1.675142e-16;45;0;2.233522e-16;1.969371e-16;-1.110223e-16;-2.396538e-17;-1.223419e-17;2.220446e-16;1.173119e-17;0.629227;1.110223e-16;-1.110223e-16;0
1.375163;-0.806939;0.563725;8.39567e-13;0;0;8.39567e-13;0;-1.110223e-16;-5.988555e-17;0;0;0;0;2.614524e-17;-1.371675e-16;8.165639e-17;45;0;1.088752e-16;1.012912e-16;0;-9.557701e-17;-2.419409e-17;-1.110223e-16;7.138292e-17;0.563725;-1.110223e-16;1.110223e-16;0
1.442328;-0.806939;0.484063;8.39567e-13;0;0;8.39567e-13;0;2.220446e-16;8.72052e-18;0;0;0;0;2.223866e-16;-3.419608e-19;1.113643e-16;45;0;1.484857e-16;1.483718e-16;0;3.957166e-17;-2.213062e-17;2.220446e-16;-6.170228e-17;0.484063;2.220446e-16;-2.220446e-16;0
1.509493;-0.806939;0.357296;8.39567e-13;0;0;8.39567e-13;2.220446e-16;2.220446e-16;-5.042978e-17;0;0;0;0;2.724744e-16;1.716148e-16;5.042978e-17;45;0;6.723971e-17;1.590713e-16;2.220446e-16;-6.733021e-17;-3.352935e-17;2.220446e-16;3.380086e-17;0.357296;4.440892e-16;-4.440892e-16;0
-0.371137;-0.874105;0.248375;8.39567e-13;0;0;8.39567e-13;-2.220446e-16;-2.220446e-16;9.232657e-17;0;0;0;0;-1.29718e-16;-3.143712e-16;9.232657e-17;45;0;1.231021e-16;1.824237e-16;-2.220446e-16;6.917889e-17;1.154743e-16;-2.220446e-16;4.629537e-17;0.248375;-4.440892e-16;4.440892e-16;0
-0.303971;-0.874105;0.354024;8.39567e-13;0;0;8.39567e-13;-2.220446e-16;2.220446e-16;8.609627e-17;0;0;0;0;2.38152e-16;-2.38152e-16;2.38152e-16;45;0;3.17536e-16;2.749942e-16;-2.220446e-16;1.613209e-16;1.087168e-17;2.220446e-16;-1.504492e-16;0.354024;0;0;0
-0.236806;-0.874105;0.467987;8.39567e-13;0;0;8.39567e-13;-5.551115e-16;-1.110223e-16;2.006846e-20;0;0;0;0;-1.110223e-16;-5.551115e-16;2.220446e-16;45;0;2.960595e-16;3.391787e-16;-5.551115e-16;-1.514832e-17;1.518846e-17;-1.110223e-16;3.033678e-17;0.467987;-6.661338e-16;6.661338e-16;0
-0.169641;-0.874105;0.542216;8.39567e-13;0;0;8.39567e-13;-2.220446e-16;-1.110223e-16;-1.691017e-18;0;0;0;0;-1.109966e-16;-2.220704e-16;5.55369e-17;45;0;7.40492e-17;1.282124e-16;-2.220446e-16;-9.273212e-18;5.891178e-18;-1.110223e-16;1.516439e-17;0.542216;-3.330669e-16;3.330669e-16;0
-0.102475;-0.874105;0.628113;8.39567e-13;0;0;8.39567e-13;0;2.220446e-16;4.036762e-17;0;0;0;0;2.291557e-16;-7.111081e-18;1.181334e-16;45;0;1.575112e-16;1.551951e-16;0;5.221714e-17;2.85181e-17;2.220446e-16;-2.369904e-17;0.628113;2.220446e-16;-2.220446e-16;0
-0.03531;-0.874105;0.68533;8.39567e-13;0;0;8.39567e-13;2.220446e-16;0;-6.208947e-17;0;0;0;0;2.382271e-16;-1.618247e-17;1.272048e-16;45;0;1.696064e-16;1.644778e-16;2.220446e-16;-9.160805e-17;-3.257089e-17;0;5.903716e-17;0.68533;2.220446e-16;-2.220446e-16;0
0.031855;-0.874105;0.712894;8.39567e-13;0;0;8.39567e-13;-1.110223e-16;-3.330669e-16;2.707502e-17;0;0;0;0;-1.077686e-16;-3.363206e-16;1.14276e-16;45;0;1.52368e-16;1.983049e-16;-1.110223e-16;2.702424e-17;2.71258e-17;-3.330669e-16;1.015608e-19;0.712894;-4.440892e-16;4.440892e-16;0
0.099021;-0.874105;0.748411;8.39567e-13;0;0;8.39567e-13;2.220446e-16;0;-2.215311e-17;0;0;0;0;2.242332e-16;-2.188615e-18;1.132109e-16;45;0;1.509479e-16;1.502237e-16;2.220446e-16;-2.951882e-17;-1.47874e-17;0;1.473142e-17;0.748411;2.220446e-16;-2.220446e-16;0
0.166186;-0.874105;0.808278;8.39567e-13;0;0;8.39567e-13;0;0;1.869484e-17;0;0;0;0;1.869484e-17;-1.869484e-17;1.869484e-17;45;0;2.492646e-17;2.158695e-17;0;1.489742e-17;2.249227e-17;0;7.594841e-18;0.808278;0;0;0
0.233352;-0.874105;0.848744;8.39567e-13;0;0;8.39567e-13;-3.330669e-16;0;-2.503829e-17;0;0;0;0;1.871734e-18;-3.349386e-16;1.684052e-16;45;0;2.245403e-16;2.23919e-16;-3.330669e-16;8.829532e-18;-5.890611e-17;0;-6.773564e-17;0.848744;-3.330669e-16;3.330669e-16;0
0.300517;-0.874105;0.842215;8.39567e-13;0;0;8.39567e-13;0;0;-1.375061e-17;0;0;0;0;1.375061e-17;-1.375061e-17;1.375061e-17;45;0;1.833415e-17;1.587784e-17;0;-8.944455e-18;-1.855677e-17;0;-9.612318e-18;0.842215;0;0;0
0.367682;-0.874105;0.861198;8.39567e-13;0;0;8.39567e-13;-3.330669e-16;2.220446e-16;2.328985e-17;0;0;0;0;2.2302e-16;-3.340423e-16;2.785312e-16;45;0;3.713749e-16;3.237422e-16;-3.330669e-16;9.259634e-18;3.732006e-17;2.220446e-16;2.806043e-17;0.861198;-1.110223e-16;1.110223e-16;0
0.434848;-0.874105;0.896539;8.39567e-13;0;0;8.39567e-13;-1.110223e-16;2.220446e-16;-1.318951e-17;0;0;0;0;2.225661e-16;-1.115438e-16;1.670549e-16;45;0;2.227399e-16;1.964163e-16;-1.110223e-16;-4.970188e-18;-2.140883e-17;2.220446e-16;-1.643864e-17;0.896539;1.110223e-16;-1.110223e-16;0
0.502013;-0.874105;0.91354;8.39567e-13;0;0;8.39567e-13;0;2.220446e-16;2.114725e-17;0;0;0;0;2.240407e-16;-1.996094e-18;1.130184e-16;45;0;1.506912e-16;1.500303e-16;0;4.487006e-17;-2.575562e-18;2.220446e-16;-4.744563e-17;0.91354;2.220446e-16;-2.220446e-16;0
0.569178;-0.874105;0.906745;8.39567e-13;0;0;8.39567e-13;0;0;-2.203952e-17;0;0;0;0;2.203952e-17;-2.203952e-17;2.203952e-17;45;0;2.938602e-17;2.544904e-17;0;-2.859874e-17;-1.54803e-17;0;1.311844e-17;0.906745;0;0;0
0.636344;-0.874105;0.921998;8.39567e-13;0;0;8.39567e-13;-1.110223e-16;0;-1.97424e-17;0;0;0;0;3.406164e-18;-1.144285e-16;5.891732e-17;45;0;7.855642e-17;7.7446e-17;-1.110223e-16;-1.941624e-17;-2.006855e-17;0;-6.523204e-19;0.921998;-1.110223e-16;1.110223e-16;0
0.703509;-0.874105;0.952814;8.39567e-13;0;0;8.39567e-13;2.220446e-16;-1.110223e-16;-5.382537e-18;0;0;0;0;2.221316e-16;-1.111093e-16;1.666204e-16;45;0;2.221605e-16;1.959235e-16;2.220446e-16;5.377164e-18;-1.614224e-17;-1.110223e-16;-2.15194e-17;0.952814;1.110223e-16;-1.110223e-16;0
0.770674;-0.874105;0.926736;8.39567e-13;0;0;8.39567e-13;0;0;-2.622761e-17;0;0;0;0;2.622761e-17;-2.622761e-17;2.622761e-17;45;0;3.497015e-17;3.028504e-17;0;-4.261112e-17;-9.844108e-18;0;3.276701e-17;0.926736;0;0;0
0.83784;-0.874105;0.91063;8.39567e-13;0;0;8.39567e-13;-1.110223e-16;-1.110223e-16;2.116141e-17;0;0;0;0;-8.98609e-17;-1.321837e-16;2.116141e-17;45;0;2.821521e-17;7.794404e-17;-1.110223e-16;7.213882e-18;3.510893e-17;-1.110223e-16;2.789505e-17;0.91063;-2.220446e-16;2.220446e-16;0
0.905005;-0.874105;0.892594;8.39567e-13;0;0;8.39567e-13;-1.110223e-16;0;-1.000248e-17;0;0;0;0;8.939692e-19;-1.119163e-16;5.640512e-17;45;0;7.520682e-17;7.491061e-17;-1.110223e-16;-2.239067e-18;-1.77659e-17;0;-1.552684e-17;0.892594;-1.110223e-16;1.110223e-16;0
0.97217;-0.874105;0.89052;8.39567e-13;0;0;8.39567e-13;2.220446e-16;2.220446e-16;1.444357e-17;0;0;0;0;2.364882e-16;2.07601e-16;1.444357e-17;45;0;1.925809e-17;1.489663e-16;2.220446e-16;4.729525e-17;-1.840811e-17;2.220446e-16;-6.570336e-17;0.89052;4.440892e-16;-4.440892e-16;0
1.039336;-0.874105;0.817695;8.39567e-13;0;0;8.39567e-13;0;-1.110223e-16;-6.483101e-17;0;0;0;0;2.983841e-17;-1.408607e-16;8.534956e-17;45;0;1.137994e-16;1.052724e-16;0;-4.202524e-17;-8.763678e-17;-1.110223e-16;-4.561154e-17;0.817695;-1.110223e-16;1.110223e-16;0
1.106501;-0.874105;0.79395;8.39567e-13;0;0;8.39567e-13;0;0;-1.116118e-17;0;0;0;0;1.116118e-17;-1.116118e-17;1.116118e-17;45;0;1.488158e-17;1.288782e-17;0;5.682016e-18;-2.800438e-17;0;-3.36864e-17;0.79395;0;0;0
1.173667;-0.874105;0.757348;8.39567e-13;0;0;8.39567e-13;2.220446e-16;-1.110223e-16;2.997545e-17;0;0;0;0;2.247208e-16;-1.136985e-16;1.692097e-16;45;0;2.256129e-16;1.988604e-16;2.220446e-16;5.995091e-17;0;-1.110223e-16;-5.995091e-17;0.757348;1.110223e-16;-1.110223e-16;0
1.240832;-0.874105;0.721096;8.39567e-13;0;0;8.39567e-13;0;2.220446e-16;-2.929967e-18;0;0;0;0;2.220833e-16;-3.865535e-20;1.11061e-16;45;0;1.480813e-16;1.480684e-16;0;-1.988788e-18;-3.871146e-18;2.220446e-16;-1.882358e-18;0.721096;2.220446e-16;-2.220446e-16;0
1.307997;-0.874105;0.645015;8.39567e-13;0;0;8.39567e-13;-2.220446e-16;0;4.201223e-17;0;0;0;0;7.683127e-18;-2.297277e-16;1.187054e-16;45;0;1.582739e-16;1.55776e-16;-2.220446e-16;7.033284e-17;1.369162e-17;0;-5.664123e-17;0.645015;-2.220446e-16;2.220446e-16;0
1.375163;-0.874105;0.564698;8.39567e-13;0;0;8.39567e-13;0;0;-2.796725e-17;0;0;0;0;2.796725e-17;-2.796725e-17;2.796725e-17;45;0;3.728967e-17;3.22938e-17;0;-4.913662e-17;-6.797884e-18;0;4.233874e-17;0.564698;0;0;0
1.442328;-0.874105;0.489895;8.39567e-13;0;0;8.39567e-13;-2.220446e-16;2.220446e-16;5.654734e-17;0;0;0;0;2.291319e-16;-2.291319e-16;2.291319e-16;45;0;3.055091e-16;2.645787e-16;-2.220446e-16;1.023369e-16;1.075776e-17;2.220446e-16;-9.157916e-17;0.489895;0;0;0
1.509493;-0.874105;0.343754;8.39567e-13;0;0;8.39567e-13;0;2.220446e-16;-5.225692e-17;0;0;0;0;2.337282e-16;-1.16836e-17;1.227059e-16;45;0;1.636079e-16;1.598557e-16;0;-7.757549e-17;-2.693835e-17;2.220446e-16;5.063714e-17;0.343754;2.220446e-16;-2.220446e-16;0
-0.371137;-0.94127;0.256273;8.39567e-13;0;0;8.39567e-13;-3.330669e-16;2.220446e-16;1.160127e-17;0;0;0;0;2.22287e-16;-3.333093e-16;2.777981e-16;45;0;3.703975e-16;3.229013e-16;-3.330669e-16;4.660151e-17;-2.339897e-17;2.220446e-16;-7.000048e-17;0.256273;-1.110223e-16;1.110223e-16;0
-0.303971;-0.94127;0.371463;8.39567e-13;0;0;8.39567e-13;0;2.220446e-16;-2.961703e-17;0;0;0;0;2.259271e-16;-3.882527e-18;1.149048e-16;45;0;1.532064e-16;1.519288e-16;0;-5.923405e-17;0;2.220446e-16;5.923405e-17;0.371463;2.220446e-16;-2.220446e-16;0
-0.236806;-0.94127;0.467908;8.39567e-13;0;0;8.39567e-13;2.220446e-16;0;6.724208e-17;0;0;0;0;2.4082e-16;-1.877542e-17;1.297977e-16;45;0;1.730636e-16;1.67157e-16;2.220446e-16;1.092347e-16;2.524949e-17;0;-8.398518e-17;0.467908;2.220446e-16;-2.220446e-16;0
-0.169641;-0.94127;0.548781;8.39567e-13;0;0;8.39567e-13;-2.220446e-16;0;-3.524054e-17;0;0;0;0;5.458801e-18;-2.275034e-16;1.164811e-16;45;0;1.553081e-16;1.535209e-16;-2.220446e-16;-3.228591e-17;-3.819517e-17;0;-5.909255e-18;0.548781;-2.220446e-16;2.220446e-16;0
-0.102475;-0.94127;0.636142;8.39567e-13;0;0;8.39567e-13;-1.110223e-16;-1.110223e-16;-1.633537e-17;0;0;0;0;-9.468693e-17;-1.273577e-16;1.633537e-17;45;0;2.178049e-17;7.638058e-17;-1.110223e-16;-3.267074e-17;0;-1.110223e-16;3.267074e-17;0.636142;-2.220446e-16;2.220446e-16;0
-0.03531;-0.94127;0.690643;8.39567e-13;0;0;8.39567e-13;-3.330669e-16;-1.110223e-16;1.283389e-17;0;0;0;0;-1.10283e-16;-3.338062e-16;1.117616e-16;45;0;1.490155e-16;1.963849e-16;-3.330669e-16;2.34306e-17;2.237175e-18;-1.110223e-16;-2.119342e-17;0.690643;-4.440892e-16;4.440892e-16;0
0.031855;-0.94127;0.713628;8.39567e-13;0;0;8.39567e-13;0;2.220446e-16;1.576841e-17;0;0;0;0;2.231588e-16;-1.114197e-18;1.121365e-16;45;0;1.495153e-16;1.491453e-16;0;1.694338e-17;1.459344e-17;2.220446e-16;-2.349935e-18;0.713628;2.220446e-16;-2.220446e-16;0
0.099021;-0.94127;0.77072;8.39567e-13;0;0;8.39567e-13;-2.220446e-16;-1.110223e-16;-1.086253e-17;0;0;0;0;-1.099695e-16;-2.230974e-16;5.656397e-17;45;0;7.541862e-17;1.288097e-16;-2.220446e-16;-2.571341e-17;3.988361e-18;-1.110223e-16;2.970177e-17;0.77072;-3.330669e-16;3.330669e-16;0
0.166186;-0.94127;0.817223;8.39567e-13;0;0;8.39567e-13;-3.330669e-16;-3.330669e-16;-1.746285e-17;0;0;0;0;-3.156041e-16;-3.505298e-16;1.746285e-17;45;0;2.328379e-17;2.229583e-16;-3.330669e-16;-8.823317e-18;-2.610238e-17;-3.330669e-16;-1.727906e-17;0.817223;-6.661338e-16;6.661338e-16;0
0.233352;-0.94127;0.841152;8.39567e-13;0;0;8.39567e-13;2.220446e-16;2.220446e-16;-2.368643e-18;0;0;0;0;2.244133e-16;2.19676e-16;2.368643e-18;45;0;3.158191e-18;1.48055e-16;2.220446e-16;-3.980462e-17;3.506734e-17;2.220446e-16;7.487196e-17;0.841152;4.440892e-16;-4.440892e-16;0
0.300517;-0.94127;0.843589;8.39567e-13;0;0;8.39567e-13;-3.330669e-16;2.220446e-16;1.236766e-17;0;0;0;0;2.2232e-16;-3.333423e-16;2.778312e-16;45;0;3.704415e-16;3.229393e-16;-3.330669e-16;1.468647e-17;1.004885e-17;2.220446e-16;-4.637619e-18;0.843589;-1.110223e-16;1.110223e-16;0
0.367682;-0.94127;0.880093;8.39567e-13;0;0;8.39567e-13;-1.110223e-16;0;2.286003e-18;0;0;0;0;4.704996e-20;-1.110694e-16;5.55582e-17;45;0;7.40776e-17;7.406192e-17;-1.110223e-16;-2.447367e-17;2.904567e-17;0;5.351934e-17;0.880093;-1.110223e-16;1.110223e-16;0
0.434848;-0.94127;0.901307;8.39567e-13;0;0;8.39567e-13;0;2.220446e-16;1.090898e-17;0;0;0;0;2.225793e-16;-5.346674e-19;1.11557e-16;45;0;1.487426e-16;1.485647e-16;0;1.24409e-17;9.377061e-18;2.220446e-16;-3.063842e-18;0.901307;2.220446e-16;-2.220446e-16;0
0.502013;-0.94127;0.947195;8.39567e-13;0;0;8.39567e-13;2.220446e-16;2.220446e-16;-8.732263e-18;0;0;0;0;2.307769e-16;2.133123e-16;8.732263e-18;45;0;1.164302e-17;1.483727e-16;2.220446e-16;2.469573e-18;-1.99341e-17;2.220446e-16;-2.240367e-17;0.947195;4.440892e-16;-4.440892e-16;0
0.569178;-0.94127;0.934319;8.39567e-13;0;0;8.39567e-13;0;2.220446e-16;-3.877011e-17;0;0;0;0;2.286194e-16;-6.574776e-18;1.175971e-16;45;0;1.567961e-16;1.546511e-16;0;-4.14318e-17;-3.610842e-17;2.220446e-16;5.323382e-18;0.934319;2.220446e-16;-2.220446e-16;0
0.636344;-0.94127;0.935166;8.39567e-13;0;0;8.39567e-13;-1.110223e-16;0;-2.645618e-18;0;0;0;0;6.300827e-20;-1.110853e-16;5.557416e-17;45;0;7.409888e-17;7.407789e-17;-1.110223e-16;2.01917e-17;-2.548294e-17;0;-4.567464e-17;0.935166;-1.110223e-16;1.110223e-16;0
0.703509;-0.94127;0.963793;8.39567e-13;0;0;8.39567e-13;2.220446e-16;0;-3.80696e-18;0;0;0;0;2.221099e-16;-6.525123e-20;1.110876e-16;45;0;1.481167e-16;1.48095e-16;2.220446e-16;5.926412e-18;-1.354033e-17;0;-1.946674e-17;0.963793;2.220446e-16;-2.220446e-16;0
0.770674;-0.94127;0.931237;8.39567e-13;0;0;8.39567e-13;-1.110223e-16;-1.110223e-16;8.676027e-18;0;0;0;0;-1.023463e-16;-1.196983e-16;8.676027e-18;45;0;1.156804e-17;7.46898e-17;-1.110223e-16;2.211512e-17;-4.763069e-18;-1.110223e-16;-2.687819e-17;0.931237;-2.220446e-16;2.220446e-16;0
0.83784;-0.94127;0.899017;8.39567e-13;0;0;8.39567e-13;0;-1.110223e-16;1.375555e-17;0;0;0;0;1.67891e-18;-1.127012e-16;5.719006e-17;45;0;7.625341e-17;7.569998e-17;0;-6.941752e-19;2.820528e-17;-1.110223e-16;2.889946e-17;0.899017;-1.110223e-16;1.110223e-16;0
0.905005;-0.94127;0.855354;8.39567e-13;0;0;8.39567e-13;-3.330669e-16;-1.110223e-16;-5.10177e-17;0;0;0;0;-9.986131e-17;-3.442279e-16;1.221833e-16;45;0;1.629111e-16;2.04494e-16;-3.330669e-16;-6.181602e-17;-4.021937e-17;-1.110223e-16;2.159665e-17;0.855354;-4.440892e-16;4.440892e-16;0
0.97217;-0.94127;0.867626;8.39567e-13;0;0;8.39567e-13;2.220446e-16;-1.110223e-16;1.29249e-17;0;0;0;0;2.225454e-16;-1.115231e-16;1.670343e-16;45;0;2.227124e-16;1.963928e-16;2.220446e-16;6.236611e-18;1.961319e-17;-1.110223e-16;1.337658e-17;0.867626;1.110223e-16;-1.110223e-16;0
1.039336;-0.94127;0.820636;8.39567e-13;0;0;8.39567e-13;2.220446e-16;-3.330669e-16;-2.812904e-17;0;0;0;0;2.234663e-16;-3.344887e-16;2.789775e-16;45;0;3.7197e-16;3.242542e-16;2.220446e-16;-1.019862e-16;4.572813e-17;-3.330669e-16;1.477143e-16;0.820636;-1.110223e-16;1.110223e-16;0
1.106501;-0.94127;0.796824;8.39567e-13;0;0;8.39567e-13;-3.330669e-16;0;4.421605e-17;0;0;0;0;5.769914e-18;-3.388368e-16;1.723034e-16;45;0;2.297378e-16;2.278389e-16;-3.330669e-16;6.948602e-17;1.894609e-17;0;-5.053992e-17;0.796824;-3.330669e-16;3.330669e-16;0
1.173667;-0.94127;0.762121;8.39567e-13;0;0;8.39567e-13;2.220446e-16;0;8.959345e-18;0;0;0;0;2.224055e-16;-3.609167e-19;1.113832e-16;45;0;1.48511e-16;1.483908e-16;2.220446e-16;1.046763e-18;1.687193e-17;0;1.582516e-17;0.762121;2.220446e-16;-2.220446e-16;0
1.240832;-0.94127;0.708902;8.39567e-13;0;0;8.39567e-13;2.220446e-16;0;5.819511e-17;0;0;0;0;2.363723e-16;-1.43277e-17;1.2535e-16;45;0;1.671333e-16;1.62568e-16;2.220446e-16;7.350041e-17;4.288982e-17;0;-3.06106e-17;0.708902;2.220446e-16;-2.220446e-16;0
1.307997;-0.94127;0.660943;8.39567e-13;0;0;8.39567e-13;0;2.220446e-16;-1.548175e-17;0;0;0;0;2.231189e-16;-1.074246e-18;1.120966e-16;45;0;1.494621e-16;1.491053e-16;0;-1.560261e-17;-1.536088e-17;2.220446e-16;2.417361e-19;0.660943;2.220446e-16;-2.220446e-16;0
1.375163;-0.94127;0.566682;8.39567e-13;0;0;8.39567e-13;-2.220446e-16;0;-8.288739e-18;0;0;0;0;3.089817e-19;-2.223536e-16;1.113313e-16;45;0;1.484417e-16;1.483388e-16;-2.220446e-16;-3.658417e-17;2.000669e-17;0;5.659085e-17;0.566682;-2.220446e-16;2.220446e-16;0
1.442328;-0.94127;0.5055;8.39567e-13;0;0;8.39567e-13;-2.220446e-16;0;1.458108e-17;0;0;0;0;9.534071e-19;-2.22998e-16;1.119757e-16;45;0;1.49301e-16;1.489842e-16;-2.220446e-16;1.846275e-17;1.069941e-17;0;-7.763347e-18;0.5055;-2.220446e-16;2.220446e-16;0
1.509493;-0.94127;0.366975;8.39567e-13;0;0;8.39567e-13;-2.220446e-16;0;7.278581e-18;0;0;0;0;2.383347e-19;-2.222829e-16;1.112606e-16;45;0;1.483475e-16;1.482681e-16;-2.220446e-16;5.419338e-18;9.137823e-18;0;3.718485e-18;0.366975;-2.220446e-16;2.220446e-16;0
-0.371137;-1.008435;0.260559;8.39567e-13;0;0;8.39567e-13;2.220446e-16;0;1.327458e-17;0;0;0;0;2.228354e-16;-7.907829e-19;1.118131e-16;45;0;1.490841e-16;1.488212e-16;2.220446e-16;2.654916e-17;0;0;-2.654916e-17;0.260559;2.220446e-16;-2.220446e-16;0
-0.303971;-1.008435;0.347534;8.39567e-13;0;0;8.39567e-13;-2.220446e-16;2.220446e-16;5.33846e-17;0;0;0;0;2.283719e-16;-2.283719e-16;2.283719e-16;45;0;3.044959e-16;2.637012e-16;-2.220446e-16;1.243283e-16;-1.755914e-17;2.220446e-16;-1.418875e-16;0.347534;0;0;0
-0.236806;-1.008435;0.451938;8.39567e-13;0;0;8.39567e-13;0;2.220446e-16;7.795996e-18;0;0;0;0;2.22318e-16;-2.733812e-19;1.112957e-16;45;0;1.483942e-16;1.483032e-16;0;3.833462e-17;-2.274263e-17;2.220446e-16;-6.107725e-17;0.451938;2.220446e-16;-2.220446e-16;0
-0.169641;-1.008435;0.56601;8.39567e-13;0;0;8.39567e-13;-2.220446e-16;0;-5.541705e-17;0;0;0;0;1.306235e-17;-2.35107e-16;1.240846e-16;45;0;1.654462e-16;1.612685e-16;-2.220446e-16;-9.871002e-17;-1.212409e-17;0;8.658593e-17;0.56601;-2.220446e-16;2.220446e-16;0
-0.102475;-1.008435;0.639507;8.39567e-13;0;0;8.39567e-13;2.220446e-16;2.220446e-16;-3.243287e-17;0;0;0;0;2.544775e-16;1.896117e-16;3.243287e-17;45;0;4.324382e-17;1.526936e-16;2.220446e-16;-5.076351e-17;-1.410222e-17;2.220446e-16;3.66613e-17;0.639507;4.440892e-16;-4.440892e-16;0
-0.03531;-1.008435;0.691247;8.39567e-13;0;0;8.39567e-13;-3.330669e-16;-1.110223e-16;3.798478e-17;0;0;0;0;-1.047041e-16;-3.393851e-16;1.173405e-16;45;0;1.56454e-16;2.006768e-16;-3.330669e-16;4.515338e-17;3.081617e-17;-1.110223e-16;-1.43372e-17;0.691247;-4.440892e-16;4.440892e-16;0
0.031855;-1.008435;0.699635;8.39567e-13;0;0;8.39567e-13;0;-1.110223e-16;2.634439e-17;0;0;0;0;5.934066e-18;-1.169564e-16;6.144522e-17;45;0;8.192695e-17;8.002231e-17;0;2.018898e-17;3.249979e-17;-1.110223e-16;1.231081e-17;0.699635;-1.110223e-16;1.110223e-16;0
0.099021;-1.008435;0.764353;8.39567e-13;0;0;8.39567e-13;-1.110223e-16;-1.110223e-16;-9.82601e-18;0;0;0;0;-1.011963e-16;-1.208483e-16;9.82601e-18;45;0;1.310135e-17;7.487947e-17;-1.110223e-16;-8.36338e-18;-1.128864e-17;-1.110223e-16;-2.92526e-18;0.764353;-2.220446e-16;2.220446e-16;0
0.166186;-1.008435;0.834316;8.39567e-13;0;0;8.39567e-13;-1.110223e-16;0;-8.264476e-18;0;0;0;0;6.118341e-19;-1.116341e-16;5.612299e-17;45;0;7.483065e-17;7.462754e-17;-1.110223e-16;-8.531273e-18;-7.99768e-18;0;5.33593e-19;0.834316;-1.110223e-16;1.110223e-16;0
0.233352;-1.008435;0.864646;8.39567e-13;0;0;8.39567e-13;0;-1.110223e-16;-1.389103e-17;0;0;0;0;1.711648e-18;-1.127339e-16;5.72228e-17;45;0;7.629707e-17;7.573296e-17;0;-7.952643e-18;-1.982942e-17;-1.110223e-16;-1.187678e-17;0.864646;-1.110223e-16;1.110223e-16;0
0.300517;-1.008435;0.880028;8.39567e-13;0;0;8.39567e-13;-3.330669e-16;-3.330669e-16;3.241676e-17;0;0;0;0;-3.006501e-16;-3.654837e-16;3.241676e-17;45;0;4.322234e-17;2.251776e-16;-3.330669e-16;6.483352e-17;0;-3.330669e-16;-6.483352e-17;0.880028;-6.661338e-16;6.661338e-16;0
0.367682;-1.008435;0.891071;8.39567e-13;0;0;8.39567e-13;-1.110223e-16;0;4.922575e-18;0;0;0;0;2.178328e-19;-1.112401e-16;5.572898e-17;45;0;7.430531e-17;7.423281e-17;-1.110223e-16;1.957183e-17;-9.726681e-18;0;-2.929851e-17;0.891071;-1.110223e-16;1.110223e-16;0
0.434848;-1.008435;0.902285;8.39567e-13;0;0;8.39567e-13;2.220446e-16;2.220446e-16;8.579592e-18;0;0;0;0;2.306242e-16;2.13465e-16;8.579592e-18;45;0;1.143946e-17;1.483609e-16;2.220446e-16;1.238587e-17;4.77331e-18;2.220446e-16;-7.612565e-18;0.902285;4.440892e-16;-4.440892e-16;0
0.502013;-1.008435;0.945847;8.39567e-13;0;0;8.39567e-13;-1.110223e-16;-1.110223e-16;2.949601e-17;0;0;0;0;-8.152629e-17;-1.405183e-16;2.949601e-17;45;0;3.932801e-17;8.147527e-17;-1.110223e-16;2.927458e-17;2.971744e-17;-1.110223e-16;4.428621e-19;0.945847;-2.220446e-16;2.220446e-16;0
0.569178;-1.008435;0.953509;8.39567e-13;0;0;8.39567e-13;2.220446e-16;-1.110223e-16;-3.574048e-17;0;0;0;0;2.258366e-16;-1.148143e-16;1.703255e-16;45;0;2.271007e-16;2.001264e-16;2.220446e-16;-1.343655e-17;-5.80444e-17;-1.110223e-16;-4.460786e-17;0.953509;1.110223e-16;-1.110223e-16;0
0.636344;-1.008435;0.935491;8.39567e-13;0;0;8.39567e-13;0;0;-4.782531e-17;0;0;0;0;4.782531e-17;-4.782531e-17;4.782531e-17;45;0;6.376708e-17;5.522391e-17;0;-6.130881e-17;-3.434181e-17;0;2.6967e-17;0.935491;0;0;0
0.703509;-1.008435;0.931688;8.39567e-13;0;0;8.39567e-13;0;0;-2.723321e-17;0;0;0;0;2.723321e-17;-2.723321e-17;2.723321e-17;45;0;3.631094e-17;3.14462e-17;0;-2.618554e-17;-2.828088e-17;0;-2.095335e-18;0.931688;0;0;0
0.770674;-1.008435;0.915114;8.39567e-13;0;0;8.39567e-13;0;2.220446e-16;7.655236e-18;0;0;0;0;2.223082e-16;-2.636098e-19;1.112859e-16;45;0;1.483812e-16;1.482934e-16;0;-4.100879e-18;1.941135e-17;2.220446e-16;2.351223e-17;0.915114;2.220446e-16;-2.220446e-16;0
0.83784;-1.008435;0.885718;8.39567e-13;0;0;8.39567e-13;-1.110223e-16;2.220446e-16;7.164893e-19;0;0;0;0;2.220461e-16;-1.110238e-16;1.66535e-16;45;0;2.220467e-16;1.958267e-16;-1.110223e-16;-8.250393e-18;9.683372e-18;2.220446e-16;1.793377e-17;0.885718;1.110223e-16;-1.110223e-16;0
0.905005;-1.008435;0.866028;8.39567e-13;0;0;8.39567e-13;0;0;2.140802e-17;0;0;0;0;2.140802e-17;-2.140802e-17;2.140802e-17;45;0;2.854402e-17;2.471985e-17;0;1.792409e-17;2.489194e-17;0;6.967853e-18;0.866028;0;0;0
0.97217;-1.008435;0.857921;8.39567e-13;0;0;8.39567e-13;2.220446e-16;0;1.197092e-18;0;0;0;0;2.220511e-16;-6.453602e-21;1.110288e-16;45;0;1.480383e-16;1.480362e-16;2.220446e-16;1.87758e-17;-1.638162e-17;0;-3.515742e-17;0.857921;2.220446e-16;-2.220446e-16;0
1.039336;-1.008435;0.844954;8.39567e-13;0;0;8.39567e-13;-1.110223e-16;2.220446e-16;5.104482e-18;0;0;0;0;2.221228e-16;-1.111005e-16;1.666117e-16;45;0;2.221489e-16;1.959136e-16;-1.110223e-16;2.17896e-19;9.991067e-18;2.220446e-16;9.773171e-18;0.844954;1.110223e-16;-1.110223e-16;0
1.106501;-1.008435;0.830249;8.39567e-13;0;0;8.39567e-13;2.220446e-16;2.220446e-16;-3.988411e-17;0;0;0;0;2.619287e-16;1.821605e-16;3.988411e-17;45;0;5.317882e-17;1.550284e-16;2.220446e-16;-5.079327e-17;-2.897496e-17;2.220446e-16;2.18183e-17;0.830249;4.440892e-16;-4.440892e-16;0
1.173667;-1.008435;0.800096;8.39567e-13;0;0;8.39567e-13;0;2.220446e-16;2.808102e-17;0;0;0;0;2.255408e-16;-3.496235e-18;1.145185e-16;45;0;1.526914e-16;1.515394e-16;0;1.084268e-17;4.531936e-17;2.220446e-16;3.447668e-17;0.800096;2.220446e-16;-2.220446e-16;0
1.240832;-1.008435;0.712994;8.39567e-13;0;0;8.39567e-13;0;0;-5.756721e-17;0;0;0;0;5.756721e-17;-5.756721e-17;5.756721e-17;45;0;7.675628e-17;6.647289e-17;0;-7.864449e-17;-3.648993e-17;0;4.215455e-17;0.712994;0;0;0
1.307997;-1.008435;0.648092;8.39567e-13;0;0;8.39567e-13;0;2.220446e-16;-1.385466e-17;0;0;0;0;2.229057e-16;-8.611339e-19;1.118834e-16;45;0;1.491779e-16;1.488917e-16;0;-2.071761e-17;-6.99172e-18;2.220446e-16;1.372589e-17;0.648092;2.220446e-16;-2.220446e-16;0
1.375163;-1.008435;0.559914;8.39567e-13;0;0;8.39567e-13;0;0;2.755132e-17;0;0;0;0;2.755132e-17;-2.755132e-17;2.755132e-17;45;0;3.673509e-17;3.181353e-17;0;5.510264e-17;0;0;-5.510264e-17;0.559914;0;0;0
1.442328;-1.008435;0.482512;8.39567e-13;0;0;8.39567e-13;-2.220446e-16;0;2.574336e-17;0;0;0;0;2.945554e-18;-2.249902e-16;1.139679e-16;45;0;1.519571e-16;1.509849e-16;-2.220446e-16;5.148672e-17;0;0;-5.148672e-17;0.482512;-2.220446e-16;2.220446e-16;0
1.509493;-1.008435;0.349416;8.39567e-13;0;0;8.39567e-13;4.440892e-16;0;4.745737e-17;0;0;0;0;4.491041e-16;-5.014878e-18;2.270595e-16;45;0;3.02746e-16;3.010883e-16;4.440892e-16;1.209124e-16;-2.599769e-17;0;-1.469101e-16;0.349416;4.440892e-16;-4.440892e-16;0
-0.371137;-1.075601;0.265492;8.39567e-13;0;0;8.39567e-13;2.220446e-16;-2.220446e-16;4.605187e-17;0;0;0;0;2.267699e-16;-2.267699e-16;2.267699e-16;45;0;3.023598e-16;2.618513e-16;2.220446e-16;3.60311e-17;5.607265e-17;-2.220446e-16;2.004155e-17;0.265492;0;0;0
-0.303971;-1.075601;0.337993;8.39567e-13;0;0;8.39567e-13;0;0;-5.494237e-18;0;0;0;0;5.494237e-18;-5.494237e-18;5.494237e-18;45;0;7.325649e-18;6.344198e-18;0;1.007042e-18;-1.199552e-17;0;-1.300256e-17;0.337993;0;0;0
-0.236806;-1.075601;0.444461;8.39567e-13;0;0;8.39567e-13;2.220446e-16;-1.110223e-16;-2.138504e-17;0;0;0;0;2.234121e-16;-1.123897e-16;1.679009e-16;45;0;2.238679e-16;1.973757e-16;2.220446e-16;-3.695223e-17;-5.817845e-18;-1.110223e-16;3.113438e-17;0.444461;1.110223e-16;-1.110223e-16;0
-0.169641;-1.075601;0.523614;8.39567e-13;0;0;8.39567e-13;4.440892e-16;0;1.678484e-17;0;0;0;0;4.447227e-16;-6.334978e-19;2.226781e-16;45;0;2.969041e-16;2.966932e-16;4.440892e-16;5.328388e-17;-1.97142e-17;0;-7.299809e-17;0.523614;4.440892e-16;-4.440892e-16;0
-0.102475;-1.075601;0.601639;8.39567e-13;0;0;8.39567e-13;-1.110223e-16;2.220446e-16;-1.211462e-18;0;0;0;0;2.22049e-16;-1.110267e-16;1.665379e-16;45;0;2.220505e-16;1.958299e-16;-1.110223e-16;2.534458e-17;-2.776751e-17;2.220446e-16;-5.311209e-17;0.601639;1.110223e-16;-1.110223e-16;0
-0.03531;-1.075601;0.684967;8.39567e-13;0;0;8.39567e-13;-1.110223e-16;2.220446e-16;-1.953039e-17;0;0;0;0;2.231859e-16;-1.121636e-16;1.676748e-16;45;0;2.235664e-16;1.971192e-16;-1.110223e-16;-3.11466e-17;-7.914177e-18;2.220446e-16;2.323242e-17;0.684967;1.110223e-16;-1.110223e-16;0
0.031855;-1.075601;0.723216;8.39567e-13;0;0;8.39567e-13;-1.110223e-16;0;-1.535226e-17;0;0;0;0;2.083811e-18;-1.131061e-16;5.759496e-17;45;0;7.679328e-17;7.610819e-17;-1.110223e-16;-1.197714e-17;-1.872738e-17;0;-6.750238e-18;0.723216;-1.110223e-16;1.110223e-16;0
0.099021;-1.075601;0.743088;8.39567e-13;0;0;8.39567e-13;2.220446e-16;2.220446e-16;-1.85594e-19;0;0;0;0;2.222302e-16;2.21859e-16;1.85594e-19;45;0;2.474586e-19;1.480299e-16;2.220446e-16;-1.534017e-17;1.496898e-17;2.220446e-16;3.030915e-17;0.743088;4.440892e-16;-4.440892e-16;0
0.166186;-1.075601;0.843473;8.39567e-13;0;0;8.39567e-13;-2.220446e-16;0;-1.344959e-18;0;0;0;0;8.146328e-21;-2.220528e-16;1.110305e-16;45;0;1.480406e-16;1.480379e-16;-2.220446e-16;-1.639279e-17;1.370287e-17;0;3.009567e-17;0.843473;-2.220446e-16;2.220446e-16;0
0.233352;-1.075601;0.890964;8.39567e-13;0;0;8.39567e-13;-1.110223e-16;-1.110223e-16;3.054482e-17;0;0;0;0;-8.047748e-17;-1.415671e-16;3.054482e-17;45;0;4.072643e-17;8.198891e-17;-1.110223e-16;3.575325e-17;2.533639e-17;-1.110223e-16;-1.041686e-17;0.890964;-2.220446e-16;2.220446e-16;0
0.300517;-1.075601;0.870849;8.39567e-13;0;0;8.39567e-13;2.220446e-16;0;2.372047e-17;0;0;0;0;2.245503e-16;-2.505722e-18;1.13528e-16;45;0;1.513707e-16;1.505424e-16;2.220446e-16;3.804974e-17;9.391198e-18;0;-2.865855e-17;0.870849;2.220446e-16;-2.220446e-16;0
0.367682;-1.075601;0.86859;8.39567e-13;0;0;8.39567e-13;0;2.220446e-16;2.282063e-17;0;0;0;0;2.243657e-16;-2.321125e-18;1.133434e-16;45;0;1.511246e-16;1.503568e-16;0;2.804666e-17;1.759459e-17;2.220446e-16;-1.045207e-17;0.86859;2.220446e-16;-2.220446e-16;0
0.434848;-1.075601;0.898941;8.39567e-13;0;0;8.39567e-13;2.220446e-16;-3.330669e-16;2.574015e-17;0;0;0;0;2.232356e-16;-3.342579e-16;2.787468e-16;45;0;3.716623e-16;3.239895e-16;2.220446e-16;2.82916e-17;2.31887e-17;-3.330669e-16;-5.102896e-18;0.898941;-1.110223e-16;1.110223e-16;0
0.502013;-1.075601;0.908788;8.39567e-13;0;0;8.39567e-13;2.220446e-16;-3.330669e-16;-6.17383e-18;0;0;0;0;2.221133e-16;-3.331356e-16;2.776244e-16;45;0;3.701659e-16;3.227021e-16;2.220446e-16;-3.293021e-17;2.058255e-17;-3.330669e-16;5.351275e-17;0.908788;-1.110223e-16;1.110223e-16;0
0.569178;-1.075601;0.903068;8.39567e-13;0;0;8.39567e-13;-3.330669e-16;2.220446e-16;7.405873e-18;0;0;0;0;2.221434e-16;-3.331657e-16;2.776545e-16;45;0;3.70206e-16;3.227367e-16;-3.330669e-16;1.994115e-17;-5.1294e-18;2.220446e-16;-2.507055e-17;0.903068;-1.110223e-16;1.110223e-16;0
0.636344;-1.075601;0.919179;8.39567e-13;0;0;8.39567e-13;0;-1.110223e-16;-1.330958e-17;0;0;0;0;1.573284e-18;-1.125956e-16;5.708444e-17;45;0;7.611258e-17;7.559361e-17;0;-4.552064e-17;1.890148e-17;-1.110223e-16;6.442212e-17;0.919179;-1.110223e-16;1.110223e-16;0
0.703509;-1.075601;0.943899;8.39567e-13;0;0;8.39567e-13;-1.110223e-16;-3.330669e-16;-1.062601e-17;0;0;0;0;-1.105149e-16;-3.335743e-16;1.115296e-16;45;0;1.487062e-16;1.96209e-16;-1.110223e-16;-8.398505e-18;-1.285352e-17;-3.330669e-16;-4.455013e-18;0.943899;-4.440892e-16;4.440892e-16;0
0.770674;-1.075601;0.916039;8.39567e-13;0;0;8.39567e-13;0;-1.110223e-16;-1.420723e-17;0;0;0;0;1.789226e-18;-1.128115e-16;5.730038e-17;45;0;7.640051e-17;7.581113e-17;0;-1.343842e-17;-1.497603e-17;-1.110223e-16;-1.537614e-18;0.916039;-1.110223e-16;1.110223e-16;0
0.83784;-1.075601;0.907932;8.39567e-13;0;0;8.39567e-13;-1.110223e-16;0;2.392296e-17;0;0;0;0;4.935484e-18;-1.159578e-16;6.044663e-17;45;0;8.059552e-17;7.900176e-17;-1.110223e-16;-3.032463e-18;5.087837e-17;0;5.391083e-17;0.907932;-1.110223e-16;1.110223e-16;0
0.905005;-1.075601;0.898993;8.39567e-13;0;0;8.39567e-13;-1.110223e-16;2.220446e-16;2.589845e-17;0;0;0;0;2.240464e-16;-1.130241e-16;1.685352e-16;45;0;2.247136e-16;1.980952e-16;-1.110223e-16;5.179691e-17;0;2.220446e-16;-5.179691e-17;0.898993;1.110223e-16;-1.110223e-16;0
0.97217;-1.075601;0.850876;8.39567e-13;0;0;8.39567e-13;2.220446e-16;0;-2.310983e-17;0;0;0;0;2.244243e-16;-2.379707e-18;1.13402e-16;45;0;1.512027e-16;1.504157e-16;2.220446e-16;-2.721309e-17;-1.900656e-17;0;8.206533e-18;0.850876;2.220446e-16;-2.220446e-16;0
1.039336;-1.075601;0.82854;8.39567e-13;0;0;8.39567e-13;0;0;1.848906e-17;0;0;0;0;1.848906e-17;-1.848906e-17;1.848906e-17;45;0;2.465208e-17;2.134933e-17;0;3.714711e-18;3.326341e-17;0;2.954869e-17;0.82854;0;0;0
1.106501;-1.075601;0.838746;8.39567e-13;0;0;8.39567e-13;0;2.220446e-16;2.070092e-17;0;0;0;0;2.23958e-16;-1.913431e-18;1.129357e-16;45;0;1.50581e-16;1.499472e-16;0;2.587611e-18;3.881424e-17;2.220446e-16;3.622662e-17;0.838746;2.220446e-16;-2.220446e-16;0
1.173667;-1.075601;0.788106;8.39567e-13;0;0;8.39567e-13;2.220446e-16;2.220446e-16;-3.867203e-17;0;0;0;0;2.607166e-16;1.833726e-16;3.867203e-17;45;0;5.156271e-17;1.546184e-16;2.220446e-16;-3.787588e-17;-3.946818e-17;2.220446e-16;-1.592303e-18;0.788106;4.440892e-16;-4.440892e-16;0
1.240832;-1.075601;0.707306;8.39567e-13;0;0;8.39567e-13;2.220446e-16;-1.110223e-16;2.717891e-17;0;0;0;0;2.242479e-16;-1.132256e-16;1.687367e-16;45;0;2.249823e-16;1.983238e-16;2.220446e-16;5.435782e-17;0;-1.110223e-16;-5.435782e-17;0.707306;1.110223e-16;-1.110223e-16;0
1.307997;-1.075601;0.670335;8.39567e-13;0;0;8.39567e-13;-2.220446e-16;2.220446e-16;5.81471e-17;0;0;0;0;2.295319e-16;-2.295319e-16;2.295319e-16;45;0;3.060425e-16;2.650406e-16;-2.220446e-16;1.305436e-16;-1.424945e-17;2.220446e-16;-1.447931e-16;0.670335;0;0;0
1.375163;-1.075601;0.584583;8.39567e-13;0;0;8.39567e-13;-2.220446e-16;-3.330669e-16;2.194908e-17;0;0;0;0;-2.178628e-16;-3.372487e-16;5.969297e-17;45;0;7.959062e-17;1.974582e-16;-2.220446e-16;4.389816e-17;0;-3.330669e-16;-4.389816e-17;0.584583;-5.551115e-16;5.551115e-16;0
1.442328;-1.075601;0.458849;8.39567e-13;0;0;8.39567e-13;0;0;-2.506731e-17;0;0;0;0;2.506731e-17;-2.506731e-17;2.506731e-17;45;0;3.342308e-17;2.894524e-17;0;-5.257085e-17;2.436229e-18;0;5.500708e-17;0.458849;0;0;0
1.509493;-1.075601;0.324468;8.39567e-13;0;0;8.39567e-13;-3.330669e-16;2.220446e-16;6.772361e-17;0;0;0;0;2.301875e-16;-3.412098e-16;2.856986e-16;45;0;3.809315e-16;3.319656e-16;-3.330669e-16;1.007342e-16;3.471302e-17;2.220446e-16;-6.602119e-17;0.324468;-1.110223e-16;1.110223e-16;0
-0.371137;-1.142766;0.29322;8.39567e-13;0;0;8.39567e-13;0;2.220446e-16;2.661405e-17;0;0;0;0;2.2519e-16;-3.145379e-18;1.141677e-16;45;0;1.522236e-16;1.51186e-16;0;4.135474e-18;4.909263e-17;2.220446e-16;4.495716e-17;0.29322;2.220446e-16;-2.220446e-16;0
-0.303971;-1.142766;0.357118;8.39567e-13;0;0;8.39567e-13;2.220446e-16;-3.330669e-16;2.489633e-17;0;0;0;0;2.23159e-16;-3.341813e-16;2.786701e-16;45;0;3.715601e-16;3.239016e-16;2.220446e-16;5.573358e-17;-5.94093e-18;-3.330669e-16;-6.167451e-17;0.357118;-1.110223e-16;1.110223e-16;0
-0.236806;-1.142766;0.474902;8.39567e-13;0;0;8.39567e-13;-3.330669e-16;-3.330669e-16;-4.050459e-17;0;0;0;0;-2.925623e-16;-3.735715e-16;4.050459e-17;45;0;5.400612e-17;2.26917e-16;-3.330669e-16;-4.660025e-17;-3.440893e-17;-3.330669e-16;1.219132e-17;0.474902;-6.661338e-16;6.661338e-16;0
-0.169641;-1.142766;0.546378;8.39567e-13;0;0;8.39567e-13;-1.110223e-16;-1.110223e-16;-2.674511e-17;0;0;0;0;-8.42772e-17;-1.377674e-16;2.674511e-17;45;0;3.566014e-17;8.019934e-17;-1.110223e-16;-2.490675e-17;-2.858346e-17;-1.110223e-16;-3.676719e-18;0.546378;-2.220446e-16;2.220446e-16;0
-0.102475;-1.142766;0.597705;8.39567e-13;0;0;8.39567e-13;-1.110223e-16;0;1.251051e-17;0;0;0;0;1.392283e-18;-1.124146e-16;5.690344e-17;45;0;7.587125e-17;7.541144e-17;-1.110223e-16;2.502103e-17;0;0;-2.502103e-17;0.597705;-1.110223e-16;1.110223e-16;0
-0.03531;-1.142766;0.664244;8.39567e-13;0;0;8.39567e-13;-1.110223e-16;-3.330669e-16;-1.381617e-17;0;0;0;0;-1.101659e-16;-3.339233e-16;1.118787e-16;45;0;1.491716e-16;1.964737e-16;-1.110223e-16;-2.763235e-17;0;-3.330669e-16;2.763235e-17;0.664244;-4.440892e-16;4.440892e-16;0
0.031855;-1.142766;0.717089;8.39567e-13;0;0;8.39567e-13;2.220446e-16;-1.110223e-16;-2.503001e-17;0;0;0;0;2.239151e-16;-1.128928e-16;1.68404e-16;45;0;2.245386e-16;1.979463e-16;2.220446e-16;-4.033351e-17;-9.726519e-18;-1.110223e-16;3.060699e-17;0.717089;1.110223e-16;-1.110223e-16;0
0.099021;-1.142766;0.714731;8.39567e-13;0;0;8.39567e-13;2.220446e-16;-1.110223e-16;6.901779e-18;0;0;0;0;2.221876e-16;-1.111653e-16;1.666764e-16;45;0;2.222352e-16;1.95987e-16;2.220446e-16;1.380356e-17;0;-1.110223e-16;-1.380356e-17;0.714731;1.110223e-16;-1.110223e-16;0
0.166186;-1.142766;0.806724;8.39567e-13;0;0;8.39567e-13;0;2.220446e-16;-4.802074e-17;0;0;0;0;2.319849e-16;-9.940265e-18;1.209626e-16;45;0;1.612834e-16;1.580742e-16;0;-9.604147e-17;0;2.220446e-16;9.604147e-17;0.806724;2.220446e-16;-2.220446e-16;0
0.233352;-1.142766;0.874495;8.39567e-13;0;0;8.39567e-13;0;2.220446e-16;-3.309891e-17;0;0;0;0;2.268735e-16;-4.828849e-18;1.158512e-16;45;0;1.544682e-16;1.52884e-16;0;-1.595489e-17;-5.024293e-17;2.220446e-16;-3.428804e-17;0.874495;2.220446e-16;-2.220446e-16;0
0.300517;-1.142766;0.881782;8.39567e-13;0;0;8.39567e-13;-3.330669e-16;-1.110223e-16;-6.573226e-18;0;0;0;0;-1.108279e-16;-3.332613e-16;1.112167e-16;45;0;1.48289e-16;1.95972e-16;-3.330669e-16;4.270926e-18;-1.741738e-17;-1.110223e-16;-2.16883e-17;0.881782;-4.440892e-16;4.440892e-16;0
0.367682;-1.142766;0.903099;8.39567e-13;0;0;8.39567e-13;2.220446e-16;0;1.440366e-17;0;0;0;0;2.22975e-16;-9.304419e-19;1.119527e-16;45;0;1.492703e-16;1.489611e-16;2.220446e-16;4.64786e-17;-1.767129e-17;0;-6.414989e-17;0.903099;2.220446e-16;-2.220446e-16;0
0.434848;-1.142766;0.918496;8.39567e-13;0;0;8.39567e-13;2.220446e-16;0;-1.157455e-17;0;0;0;0;2.226463e-16;-6.017174e-19;1.11624e-16;45;0;1.48832e-16;1.486319e-16;2.220446e-16;-4.59871e-17;2.283801e-17;0;6.882511e-17;0.918496;2.220446e-16;-2.220446e-16;0
0.502013;-1.142766;0.892736;8.39567e-13;0;0;8.39567e-13;-3.330669e-16;2.220446e-16;1.693545e-18;0;0;0;0;2.220498e-16;-3.330721e-16;2.775609e-16;45;0;3.700812e-16;3.226293e-16;-3.330669e-16;3.38709e-18;0;2.220446e-16;-3.38709e-18;0.892736;-1.110223e-16;1.110223e-16;0
0.569178;-1.142766;0.90559;8.39567e-13;0;0;8.39567e-13;0;2.220446e-16;1.917615e-17;0;0;0;0;2.236885e-16;-1.643915e-18;1.126662e-16;45;0;1.502216e-16;1.496767e-16;0;-1.199189e-17;5.034419e-17;2.220446e-16;6.233609e-17;0.90559;2.220446e-16;-2.220446e-16;0
0.636344;-1.142766;0.938516;8.39567e-13;0;0;8.39567e-13;2.220446e-16;2.220446e-16;5.359563e-17;0;0;0;0;2.756402e-16;1.68449e-16;5.359563e-17;45;0;7.146084e-17;1.604456e-16;2.220446e-16;2.699784e-17;8.019343e-17;2.220446e-16;5.319559e-17;0.938516;4.440892e-16;-4.440892e-16;0
0.703509;-1.142766;0.9568;8.39567e-13;0;0;8.39567e-13;0;-3.330669e-16;-4.220951e-17;0;0;0;0;5.265946e-18;-3.383329e-16;1.717994e-16;45;0;2.290659e-16;2.273309e-16;0;-6.429621e-17;-2.012281e-17;-3.330669e-16;4.41734e-17;0.9568;-3.330669e-16;3.330669e-16;0
0.770674;-1.142766;0.912367;8.39567e-13;0;0;8.39567e-13;-1.110223e-16;0;8.998331e-18;0;0;0;0;7.245836e-19;-1.117469e-16;5.623573e-17;45;0;7.498098e-17;7.474063e-17;-1.110223e-16;-1.772482e-17;3.572148e-17;0;5.344631e-17;0.912367;-1.110223e-16;1.110223e-16;0
0.83784;-1.142766;0.937095;8.39567e-13;0;0;8.39567e-13;0;-1.110223e-16;-5.863844e-18;0;0;0;0;3.088504e-19;-1.113312e-16;5.582e-17;45;0;7.442667e-17;7.432393e-17;0;-1.944364e-17;7.715954e-18;-1.110223e-16;2.71596e-17;0.937095;-1.110223e-16;1.110223e-16;0
0.905005;-1.142766;0.904486;8.39567e-13;0;0;8.39567e-13;-1.110223e-16;0;2.032444e-17;0;0;0;0;3.603743e-18;-1.14626e-16;5.911489e-17;45;0;7.881986e-17;7.764649e-17;-1.110223e-16;2.651948e-17;1.41294e-17;0;-1.239007e-17;0.904486;-1.110223e-16;1.110223e-16;0
0.97217;-1.142766;0.867292;8.39567e-13;0;0;8.39567e-13;-1.110223e-16;-1.110223e-16;-1.490088e-17;0;0;0;0;-9.612142e-17;-1.259232e-16;1.490088e-17;45;0;1.986784e-17;7.598848e-17;-1.110223e-16;2.552105e-17;-5.532281e-17;-1.110223e-16;-8.084386e-17;0.867292;-2.220446e-16;2.220446e-16;0
1.039336;-1.142766;0.850541;8.39567e-13;0;0;8.39567e-13;0;4.440892e-16;-2.385491e-17;0;0;0;0;4.45367e-16;-1.277725e-18;2.233223e-16;45;0;2.977631e-16;2.973381e-16;0;-3.305748e-17;-1.465233e-17;4.440892e-16;1.840515e-17;0.850541;4.440892e-16;-4.440892e-16;0
1.106501;-1.142766;0.84877;8.39567e-13;0;0;8.39567e-13;0;2.220446e-16;2.673814e-17;0;0;0;0;2.25219e-16;-3.174368e-18;1.141967e-16;45;0;1.522622e-16;1.512152e-16;0;1.286155e-17;4.061473e-17;2.220446e-16;2.775318e-17;0.84877;2.220446e-16;-2.220446e-16;0
1.173667;-1.142766;0.791613;8.39567e-13;0;0;8.39567e-13;-1.110223e-16;2.220446e-16;8.413018e-18;0;0;0;0;2.22257e-16;-1.112347e-16;1.667458e-16;45;0;2.223278e-16;1.960657e-16;-1.110223e-16;2.255112e-17;-5.725088e-18;2.220446e-16;-2.827621e-17;0.791613;1.110223e-16;-1.110223e-16;0
1.240832;-1.142766;0.732538;8.39567e-13;0;0;8.39567e-13;0;-1.110223e-16;2.953285e-17;0;0;0;0;7.367123e-18;-1.183894e-16;6.287827e-17;45;0;8.38377e-17;8.149307e-17;0;1.853432e-17;4.053138e-17;-1.110223e-16;2.199706e-17;0.732538;-1.110223e-16;1.110223e-16;0
1.307997;-1.142766;0.705309;8.39567e-13;0;0;8.39567e-13;4.440892e-16;2.220446e-16;-2.756117e-17;0;0;0;0;4.474591e-16;2.186747e-16;1.143922e-16;45;0;1.525229e-16;2.583626e-16;4.440892e-16;-3.550676e-17;-1.961557e-17;2.220446e-16;1.589119e-17;0.705309;6.661338e-16;-6.661338e-16;0
1.375163;-1.142766;0.596097;8.39567e-13;0;0;8.39567e-13;2.220446e-16;-3.330669e-16;2.987189e-20;0;0;0;0;2.220446e-16;-3.330669e-16;2.775558e-16;45;0;3.700743e-16;3.226233e-16;2.220446e-16;-2.767846e-18;2.82759e-18;-3.330669e-16;5.595436e-18;0.596097;-1.110223e-16;1.110223e-16;0
1.442328;-1.142766;0.487595;8.39567e-13;0;0;8.39567e-13;2.220446e-16;0;7.621489e-18;0;0;0;0;2.223059e-16;-2.612936e-19;1.112836e-16;45;0;1.483781e-16;1.482911e-16;2.220446e-16;-2.359256e-17;3.883554e-17;0;6.24281e-17;0.487595;2.220446e-16;-2.220446e-16;0
1.509493;-1.142766;0.340398;8.39567e-13;0;0;8.39567e-13;-2.220446e-16;0;1.762054e-16;0;0;0;0;9.724267e-17;-3.192873e-16;2.08265e-16;45;0;2.776866e-16;2.51616e-16;-2.220446e-16;3.163685e-16;3.604233e-17;0;-2.803262e-16;0.340398;-2.220446e-16;2.220446e-16;0
-0.371137;-1.209931;0.262201;8.39567e-13;0;0;8.39567e-13;-1.110223e-16;4.440892e-16;-1.051154e-17;0;0;0;0;4.442882e-16;-1.112213e-16;2.777547e-16;45;0;3.703396e-16;3.393958e-16;-1.110223e-16;1.285342e-17;-3.387651e-17;4.440892e-16;-4.672993e-17;0.262201;3.330669e-16;-3.330669e-16;0
-0.303971;-1.209931;0.351414;8.39567e-13;0;0;8.39567e-13;-3.330669e-16;-1.110223e-16;2.986437e-17;0;0;0;0;-1.070758e-16;-3.370134e-16;1.149688e-16;45;0;1.532918e-16;1.988381e-16;-3.330669e-16;5.694864e-17;2.780092e-18;-1.110223e-16;-5.416855e-17;0.351414;-4.440892e-16;4.440892e-16;0
-0.236806;-1.209931;0.470619;8.39567e-13;0;0;8.39567e-13;-2.220446e-16;0;2.987069e-17;0;0;0;0;3.948172e-18;-2.259928e-16;1.149705e-16;45;0;1.53294e-16;1.51995e-16;-2.220446e-16;1.859548e-17;4.114591e-17;0;2.255042e-17;0.470619;-2.220446e-16;2.220446e-16;0
-0.169641;-1.209931;0.564149;8.39567e-13;0;0;8.39567e-13;0;0;2.69668e-18;0;0;0;0;2.69668e-18;-2.69668e-18;2.69668e-18;45;0;3.595573e-18;3.113857e-18;0;1.931295e-17;-1.391959e-17;0;-3.323253e-17;0.564149;0;0;0
-0.102475;-1.209931;0.620666;8.39567e-13;0;0;8.39567e-13;0;0;3.602097e-17;0;0;0;0;3.602097e-17;-3.602097e-17;3.602097e-17;45;0;4.802795e-17;4.159343e-17;0;7.204193e-17;0;0;-7.204193e-17;0.620666;0;0;0
-0.03531;-1.209931;0.691412;8.39567e-13;0;0;8.39567e-13;0;-3.330669e-16;-5.43122e-17;0;0;0;0;8.63277e-18;-3.416997e-16;1.751662e-16;45;0;2.33555e-16;2.307312e-16;0;-6.117216e-17;-4.745223e-17;-3.330669e-16;1.371992e-17;0.691412;-3.330669e-16;3.330669e-16;0
0.031855;-1.209931;0.72019;8.39567e-13;0;0;8.39567e-13;2.220446e-16;2.220446e-16;8.771934e-18;0;0;0;0;2.308165e-16;2.132727e-16;8.771934e-18;45;0;1.169591e-17;1.483759e-16;2.220446e-16;7.487521e-18;1.005635e-17;2.220446e-16;2.568828e-18;0.72019;4.440892e-16;-4.440892e-16;0
0.099021;-1.209931;0.71307;8.39567e-13;0;0;8.39567e-13;-2.220446e-16;0;-4.585928e-17;0;0;0;0;9.098574e-18;-2.311432e-16;1.201209e-16;45;0;1.601612e-16;1.572161e-16;-2.220446e-16;-7.556392e-17;-1.615464e-17;0;5.940927e-17;0.71307;-2.220446e-16;2.220446e-16;0
0.166186;-1.209931;0.806452;8.39567e-13;0;0;8.39567e-13;0;0;4.387105e-18;0;0;0;0;4.387105e-18;-4.387105e-18;4.387105e-18;45;0;5.849474e-18;5.065793e-18;0;-1.128563e-17;2.005984e-17;0;3.134548e-17;0.806452;0;0;0
0.233352;-1.209931;0.881442;8.39567e-13;0;0;8.39567e-13;0;2.220446e-16;3.434786e-17;0;0;0;0;2.272364e-16;-5.19184e-18;1.162141e-16;45;0;1.549522e-16;1.532509e-16;0;2.898132e-17;3.971439e-17;2.220446e-16;1.073307e-17;0.881442;2.220446e-16;-2.220446e-16;0
0.300517;-1.209931;0.886395;8.39567e-13;0;0;8.39567e-13;2.220446e-16;0;-4.281338e-17;0;0;0;0;2.300136e-16;-7.969031e-18;1.189913e-16;45;0;1.586551e-16;1.560666e-16;2.220446e-16;-3.271317e-17;-5.29136e-17;0;-2.020043e-17;0.886395;2.220446e-16;-2.220446e-16;0
0.367682;-1.209931;0.879742;8.39567e-13;0;0;8.39567e-13;-1.110223e-16;-1.110223e-16;3.556643e-17;0;0;0;0;-7.545587e-17;-1.465887e-16;3.556643e-17;45;0;4.742191e-17;8.464531e-17;-1.110223e-16;5.057778e-17;2.055509e-17;-1.110223e-16;-3.002269e-17;0.879742;-2.220446e-16;2.220446e-16;0
0.434848;-1.209931;0.891774;8.39567e-13;0;0;8.39567e-13;-3.330669e-16;0;2.460278e-17;0;0;0;0;1.807534e-18;-3.348744e-16;1.68341e-16;45;0;2.244547e-16;2.238546e-16;-3.330669e-16;4.423904e-17;4.96652e-18;0;-3.927252e-17;0.891774;-3.330669e-16;3.330669e-16;0
0.502013;-1.209931;0.923673;8.39567e-13;0;0;8.39567e-13;0;-1.110223e-16;-2.374456e-17;0;0;0;0;4.865103e-18;-1.158874e-16;6.037626e-17;45;0;8.050167e-17;7.892996e-17;0;-1.801036e-17;-2.947877e-17;-1.110223e-16;-1.146841e-17;0.923673;-1.110223e-16;1.110223e-16;0
0.569178;-1.209931;0.949673;8.39567e-13;0;0;8.39567e-13;-1.110223e-16;-3.330669e-16;-8.180664e-18;0;0;0;0;-1.107213e-16;-3.333679e-16;1.113233e-16;45;0;1.48431e-16;1.960526e-16;-1.110223e-16;-1.125594e-17;-5.105386e-18;-3.330669e-16;6.150556e-18;0.949673;-4.440892e-16;4.440892e-16;0
0.636344;-1.209931;0.934692;8.39567e-13;0;0;8.39567e-13;-1.110223e-16;-1.110223e-16;7.054057e-18;0;0;0;0;-1.039682e-16;-1.180764e-16;7.054057e-18;45;0;9.40541e-18;7.446171e-17;-1.110223e-16;7.05267e-18;7.055444e-18;-1.110223e-16;2.774044e-21;0.934692;-2.220446e-16;2.220446e-16;0
0.703509;-1.209931;0.893415;8.39567e-13;0;0;8.39567e-13;0;-1.110223e-16;-1.470709e-17;0;0;0;0;1.915206e-18;-1.129375e-16;5.742636e-17;45;0;7.656848e-17;7.593812e-17;0;-1.308189e-17;-1.63323e-17;-1.110223e-16;-3.250413e-18;0.893415;-1.110223e-16;1.110223e-16;0
0.770674;-1.209931;0.892063;8.39567e-13;0;0;8.39567e-13;-3.330669e-16;2.220446e-16;8.172112e-18;0;0;0;0;2.221649e-16;-3.331872e-16;2.77676e-16;45;0;3.702347e-16;3.227613e-16;-3.330669e-16;1.634422e-17;0;2.220446e-16;-1.634422e-17;0.892063;-1.110223e-16;1.110223e-16;0
0.83784;-1.209931;0.893441;8.39567e-13;0;0;8.39567e-13;2.220446e-16;0;-1.117212e-18;0;0;0;0;2.220502e-16;-5.621079e-21;1.110279e-16;45;0;1.480372e-16;1.480354e-16;2.220446e-16;-1.802641e-17;1.579199e-17;0;3.38184e-17;0.893441;2.220446e-16;-2.220446e-16;0
0.905005;-1.209931;0.884919;8.39567e-13;0;0;8.39567e-13;-1.110223e-16;2.220446e-16;5.123559e-17;0;0;0;0;2.29748e-16;-1.187257e-16;1.742368e-16;45;0;2.323158e-16;2.045667e-16;-1.110223e-16;1.00223e-17;9.244889e-17;2.220446e-16;8.242658e-17;0.884919;1.110223e-16;-1.110223e-16;0
0.97217;-1.209931;0.862321;8.39567e-13;0;0;8.39567e-13;2.220446e-16;0;-3.067536e-18;0;0;0;0;2.22087e-16;-4.236977e-20;1.110647e-16;45;0;1.480862e-16;1.480721e-16;2.220446e-16;1.050391e-18;-7.185462e-18;0;-8.235854e-18;0.862321;2.220446e-16;-2.220446e-16;0
1.039336;-1.209931;0.822778;8.39567e-13;0;0;8.39567e-13;2.220446e-16;-3.330669e-16;-4.384639e-17;0;0;0;0;2.254865e-16;-3.365089e-16;2.809977e-16;45;0;3.746636e-16;3.265718e-16;2.220446e-16;-5.810119e-17;-2.95916e-17;-3.330669e-16;2.850959e-17;0.822778;-1.110223e-16;1.110223e-16;0
1.106501;-1.209931;0.825999;8.39567e-13;0;0;8.39567e-13;2.220446e-16;0;-1.859891e-17;0;0;0;0;2.235917e-16;-1.547103e-18;1.125694e-16;45;0;1.500925e-16;1.495795e-16;2.220446e-16;-2.763111e-17;-9.566711e-18;0;1.80644e-17;0.825999;2.220446e-16;-2.220446e-16;0
1.173667;-1.209931;0.788798;8.39567e-13;0;0;8.39567e-13;4.440892e-16;0;4.838525e-17;0;0;0;0;4.492998e-16;-5.210622e-18;2.272552e-16;45;0;3.03007e-16;3.012851e-16;4.440892e-16;9.677049e-17;0;0;-9.677049e-17;0.788798;4.440892e-16;-4.440892e-16;0
1.240832;-1.209931;0.7054;8.39567e-13;0;0;8.39567e-13;0;-1.110223e-16;-3.079214e-17;0;0;0;0;7.968323e-18;-1.189906e-16;6.347947e-17;45;0;8.46393e-17;8.211217e-17;0;-1.48453e-17;-4.673898e-17;-1.110223e-16;-3.189368e-17;0.7054;-1.110223e-16;1.110223e-16;0
1.307997;-1.209931;0.665649;8.39567e-13;0;0;8.39567e-13;0;-1.110223e-16;-1.87082e-17;0;0;0;0;3.067723e-18;-1.1409e-16;5.857887e-17;45;0;7.810517e-17;7.710293e-17;0;7.934995e-18;-4.535138e-17;-1.110223e-16;-5.328638e-17;0.665649;-1.110223e-16;1.110223e-16;0
1.375163;-1.209931;0.586312;8.39567e-13;0;0;8.39567e-13;0;2.220446e-16;2.523114e-18;0;0;0;0;2.220733e-16;-2.866668e-20;1.11051e-16;45;0;1.48068e-16;1.480584e-16;0;-7.662871e-18;1.27091e-17;2.220446e-16;2.037197e-17;0.586312;2.220446e-16;-2.220446e-16;0
1.442328;-1.209931;0.510433;8.39567e-13;0;0;8.39567e-13;-2.220446e-16;0;2.091507e-17;0;0;0;0;1.95288e-18;-2.239975e-16;1.129752e-16;45;0;1.506336e-16;1.499869e-16;-2.220446e-16;3.132947e-17;1.050067e-17;0;-2.08288e-17;0.510433;-2.220446e-16;2.220446e-16;0
1.509493;-1.209931;0.375338;8.39567e-13;0;0;8.39567e-13;-2.220446e-16;4.440892e-16;1.907053e-17;0;0;0;0;4.446348e-16;-2.225901e-16;3.336124e-16;45;0;4.448165e-16;3.922684e-16;-2.220446e-16;1.051574e-16;-6.701635e-17;4.440892e-16;-1.721738e-16;0.375338;2.220446e-16;-2.220446e-16;0
-0.371137;-1.277097;0.245907;8.39567e-13;0;0;8.39567e-13;0;4.440892e-16;4.356717e-18;0;0;0;0;4.441319e-16;-4.273727e-20;2.220874e-16;45;0;2.961164e-16;2.961022e-16;0;8.713435e-18;0;4.440892e-16;-8.713435e-18;0.245907;4.440892e-16;-4.440892e-16;0
-0.303971;-1.277097;0.358139;8.39567e-13;0;0;8.39567e-13;2.220446e-16;0;-2.230496e-17;0;0;0;0;2.24263e-16;-2.218427e-18;1.132407e-16;45;0;1.509876e-16;1.502536e-16;2.220446e-16;-3.92069e-17;-5.403022e-18;0;3.380388e-17;0.358139;2.220446e-16;-2.220446e-16;0
-0.236806;-1.277097;0.475412;8.39567e-13;0;0;8.39567e-13;0;-1.110223e-16;2.976716e-17;0;0;0;0;7.477511e-18;-1.184998e-16;6.298866e-17;45;0;8.398489e-17;8.160665e-17;0;4.354484e-17;1.598947e-17;-1.110223e-16;-2.755537e-17;0.475412;-1.110223e-16;1.110223e-16;0
-0.169641;-1.277097;0.548493;8.39567e-13;0;0;8.39567e-13;-2.220446e-16;-3.330669e-16;-1.584754e-17;0;0;0;0;-2.198268e-16;-3.352847e-16;5.772895e-17;45;0;7.697194e-17;1.966781e-16;-2.220446e-16;-2.646546e-17;-5.229616e-18;-3.330669e-16;2.123584e-17;0.548493;-5.551115e-16;5.551115e-16;0
-0.102475;-1.277097;0.621353;8.39567e-13;0;0;8.39567e-13;2.220446e-16;0;-2.34732e-17;0;0;0;0;2.244989e-16;-2.454315e-18;1.134766e-16;45;0;1.513022e-16;1.504907e-16;2.220446e-16;-2.918799e-17;-1.775841e-17;0;1.142958e-17;0.621353;2.220446e-16;-2.220446e-16;0
-0.03531;-1.277097;0.708016;8.39567e-13;0;0;8.39567e-13;2.220446e-16;-1.110223e-16;9.659938e-18;0;0;0;0;2.223245e-16;-1.113022e-16;1.668134e-16;45;0;2.224179e-16;1.961424e-16;2.220446e-16;7.866348e-18;1.145353e-17;-1.110223e-16;3.587181e-18;0.708016;1.110223e-16;-1.110223e-16;0
0.031855;-1.277097;0.732404;8.39567e-13;0;0;8.39567e-13;2.220446e-16;-1.110223e-16;2.933682e-17;0;0;0;0;2.246089e-16;-1.135866e-16;1.690977e-16;45;0;2.254636e-16;1.987333e-16;2.220446e-16;2.954303e-17;2.913061e-17;-1.110223e-16;-4.124262e-19;0.732404;1.110223e-16;-1.110223e-16;0
0.099021;-1.277097;0.737825;8.39567e-13;0;0;8.39567e-13;0;0;4.684378e-17;0;0;0;0;4.684378e-17;-4.684378e-17;4.684378e-17;45;0;6.245838e-17;5.409054e-17;0;6.001502e-17;3.367256e-17;0;-2.634246e-17;0.737825;0;0;0
0.166186;-1.277097;0.816829;8.39567e-13;0;0;8.39567e-13;2.220446e-16;0;4.597831e-17;0;0;0;0;2.311887e-16;-9.144068e-18;1.201664e-16;45;0;1.602218e-16;1.572624e-16;2.220446e-16;6.94824e-17;2.247422e-17;0;-4.700817e-17;0.816829;2.220446e-16;-2.220446e-16;0
0.233352;-1.277097;0.863722;8.39567e-13;0;0;8.39567e-13;0;-1.110223e-16;-1.05806e-17;0;0;0;0;9.993518e-19;-1.120217e-16;5.65105e-17;45;0;7.534734e-17;7.501644e-17;0;-1.654639e-17;-4.614803e-18;-1.110223e-16;1.193159e-17;0.863722;-1.110223e-16;1.110223e-16;0
0.300517;-1.277097;0.871584;8.39567e-13;0;0;8.39567e-13;-1.110223e-16;-1.110223e-16;-2.813583e-18;0;0;0;0;-1.082087e-16;-1.138359e-16;2.813583e-18;45;0;3.751444e-18;7.408614e-17;-1.110223e-16;7.572104e-18;-1.319927e-17;-1.110223e-16;-2.077137e-17;0.871584;-2.220446e-16;2.220446e-16;0
0.367682;-1.277097;0.86185;8.39567e-13;0;0;8.39567e-13;0;0;-2.02756e-17;0;0;0;0;2.02756e-17;-2.02756e-17;2.02756e-17;45;0;2.703414e-17;2.341225e-17;0;-1.997657e-17;-2.057463e-17;0;-5.980612e-19;0.86185;0;0;0
0.434848;-1.277097;0.880068;8.39567e-13;0;0;8.39567e-13;-3.330669e-16;0;-2.036314e-18;0;0;0;0;1.244921e-20;-3.330793e-16;1.665459e-16;45;0;2.220612e-16;2.22057e-16;-3.330669e-16;5.523759e-18;-9.596386e-18;0;-1.512015e-17;0.880068;-3.330669e-16;3.330669e-16;0
0.502013;-1.277097;0.927914;8.39567e-13;0;0;8.39567e-13;0;0;-6.09178e-18;0;0;0;0;6.09178e-18;-6.09178e-18;6.09178e-18;45;0;8.122373e-18;7.034182e-18;0;-2.330157e-18;-9.853403e-18;0;-7.523245e-18;0.927914;0;0;0
0.569178;-1.277097;0.937718;8.39567e-13;0;0;8.39567e-13;-1.110223e-16;-1.110223e-16;-9.381482e-18;0;0;0;0;-1.016408e-16;-1.204038e-16;9.381482e-18;45;0;1.250864e-17;7.480341e-17;-1.110223e-16;1.477328e-17;-3.353624e-17;-1.110223e-16;-4.830952e-17;0.937718;-2.220446e-16;2.220446e-16;0
0.636344;-1.277097;0.934086;8.39567e-13;0;0;8.39567e-13;-3.330669e-16;-1.110223e-16;-2.980959e-20;0;0;0;0;-1.110223e-16;-3.330669e-16;1.110223e-16;45;0;1.480297e-16;1.958249e-16;-3.330669e-16;-1.589016e-17;1.583054e-17;-1.110223e-16;3.172071e-17;0.934086;-4.440892e-16;4.440892e-16;0
0.703509;-1.277097;0.926371;8.39567e-13;0;0;8.39567e-13;2.220446e-16;2.220446e-16;1.285697e-17;0;0;0;0;2.349016e-16;2.091876e-16;1.285697e-17;45;0;1.714263e-17;1.487723e-16;2.220446e-16;-1.041014e-17;3.612409e-17;2.220446e-16;4.653423e-17;0.926371;4.440892e-16;-4.440892e-16;0
0.770674;-1.277097;0.961593;8.39567e-13;0;0;8.39567e-13;-1.110223e-16;-3.330669e-16;2.678387e-17;0;0;0;0;-1.078372e-16;-3.36252e-16;1.142074e-16;45;0;1.522765e-16;1.982521e-16;-1.110223e-16;5.356775e-17;0;-3.330669e-16;-5.356775e-17;0.961593;-4.440892e-16;4.440892e-16;0
0.83784;-1.277097;0.930174;8.39567e-13;0;0;8.39567e-13;0;0;-2.059786e-17;0;0;0;0;2.059786e-17;-2.059786e-17;2.059786e-17;45;0;2.746382e-17;2.378436e-17;0;-4.548717e-18;-3.664701e-17;0;-3.209829e-17;0.930174;0;0;0
0.905005;-1.277097;0.880198;8.39567e-13;0;0;8.39567e-13;-1.110223e-16;2.220446e-16;-1.37879e-17;0;0;0;0;2.226144e-16;-1.115921e-16;1.671033e-16;45;0;2.228043e-16;1.964711e-16;-1.110223e-16;-5.273503e-18;-2.23023e-17;2.220446e-16;-1.702879e-17;0.880198;1.110223e-16;-1.110223e-16;0
0.97217;-1.277097;0.869141;8.39567e-13;0;0;8.39567e-13;2.220446e-16;2.220446e-16;-2.73349e-17;0;0;0;0;2.493795e-16;1.947097e-16;2.73349e-17;45;0;3.644654e-17;1.513574e-16;2.220446e-16;-9.574852e-18;-4.509495e-17;2.220446e-16;-3.55201e-17;0.869141;4.440892e-16;-4.440892e-16;0
1.039336;-1.277097;0.847967;8.39567e-13;0;0;8.39567e-13;0;-3.330669e-16;-6.768895e-18;0;0;0;0;1.37507e-19;-3.332044e-16;1.66671e-16;45;0;2.222279e-16;2.221821e-16;0;-4.158932e-17;2.805153e-17;-3.330669e-16;6.964086e-17;0.847967;-3.330669e-16;3.330669e-16;0
1.106501;-1.277097;0.809079;8.39567e-13;0;0;8.39567e-13;0;2.220446e-16;2.932037e-17;0;0;0;0;2.25851e-16;-3.806421e-18;1.148287e-16;45;0;1.53105e-16;1.518521e-16;0;1.835567e-17;4.028507e-17;2.220446e-16;2.19294e-17;0.809079;2.220446e-16;-2.220446e-16;0
1.173667;-1.277097;0.762343;8.39567e-13;0;0;8.39567e-13;2.220446e-16;2.220446e-16;1.871168e-17;0;0;0;0;2.407563e-16;2.033329e-16;1.871168e-17;45;0;2.494891e-17;1.495983e-16;2.220446e-16;8.791416e-18;2.863194e-17;2.220446e-16;1.984052e-17;0.762343;4.440892e-16;-4.440892e-16;0
1.240832;-1.277097;0.700576;8.39567e-13;0;0;8.39567e-13;0;0;-7.398234e-18;0;0;0;0;7.398234e-18;-7.398234e-18;7.398234e-18;45;0;9.864312e-18;8.542744e-18;0;9.184386e-18;-2.398085e-17;0;-3.316524e-17;0.700576;0;0;0
1.307997;-1.277097;0.658146;8.39567e-13;0;0;8.39567e-13;-2.220446e-16;2.220446e-16;5.303032e-17;0;0;0;0;2.282893e-16;-2.282893e-16;2.282893e-16;45;0;3.043858e-16;2.636058e-16;-2.220446e-16;9.811271e-17;7.947938e-18;2.220446e-16;-9.016477e-17;0.658146;0;0;0
1.375163;-1.277097;0.59717;8.39567e-13;0;0;8.39567e-13;0;0;5.301686e-17;0;0;0;0;5.301686e-17;-5.301686e-17;5.301686e-17;45;0;7.068914e-17;6.121859e-17;0;1.124581e-16;-6.424372e-18;0;-1.188825e-16;0.59717;0;0;0
1.442328;-1.277097;0.498549;8.39567e-13;0;0;8.39567e-13;-3.330669e-16;-1.110223e-16;3.482375e-17;0;0;0;0;-1.056889e-16;-3.384003e-16;1.163557e-16;45;0;1.551409e-16;1.999108e-16;-3.330669e-16;6.930254e-17;3.449641e-19;-1.110223e-16;-6.895757e-17;0.498549;-4.440892e-16;4.440892e-16;0
1.509493;-1.277097;0.392746;8.39567e-13;0;0;8.39567e-13;2.220446e-16;-2.220446e-16;1.603997e-17;0;0;0;0;2.226232e-16;-2.226232e-16;2.226232e-16;45;0;2.968309e-16;2.570631e-16;2.220446e-16;3.594213e-17;-3.862191e-18;-2.220446e-16;-3.980432e-17;0.392746;0;0;0
-0.371137;-1.344262;0.276534;8.39567e-13;0;0;8.39567e-13;-1.110223e-16;2.220446e-16;-1.341391e-17;0;0;0;0;2.22584e-16;-1.115617e-16;1.670728e-16;45;0;2.227637e-16;1.964365e-16;-1.110223e-16;-6.01389e-17;3.331108e-17;2.220446e-16;9.344998e-17;0.276534;1.110223e-16;-1.110223e-16;0
-0.303971;-1.344262;0.373792;8.39567e-13;0;0;8.39567e-13;0;0;2.953682e-17;0;0;0;0;2.953682e-17;-2.953682e-17;2.953682e-17;45;0;3.938243e-17;3.410618e-17;0;5.348873e-17;5.584911e-18;0;-4.790382e-17;0.373792;0;0;0
-0.236806;-1.344262;0.473984;8.39567e-13;0;0;8.39567e-13;2.220446e-16;2.220446e-16;9.673916e-18;0;0;0;0;2.317185e-16;2.123707e-16;9.673916e-18;45;0;1.289855e-17;1.484506e-16;2.220446e-16;1.335948e-17;5.98835e-18;2.220446e-16;-7.371134e-18;0.473984;4.440892e-16;-4.440892e-16;0
-0.169641;-1.344262;0.560486;8.39567e-13;0;0;8.39567e-13;-1.110223e-16;0;2.235445e-17;0;0;0;0;4.332055e-18;-1.153544e-16;5.984321e-17;45;0;7.979094e-17;7.838684e-17;-1.110223e-16;3.064097e-17;1.406793e-17;0;-1.657304e-17;0.560486;-1.110223e-16;1.110223e-16;0
-0.102475;-1.344262;0.616017;8.39567e-13;0;0;8.39567e-13;2.220446e-16;0;3.442333e-17;0;0;0;0;2.272588e-16;-5.21417e-18;1.162365e-16;45;0;1.54982e-16;1.532735e-16;2.220446e-16;4.603984e-17;2.280682e-17;0;-2.323302e-17;0.616017;2.220446e-16;-2.220446e-16;0
-0.03531;-1.344262;0.668891;8.39567e-13;0;0;8.39567e-13;-1.110223e-16;0;-6.627128e-17;0;0;0;0;3.09375e-17;-1.419598e-16;8.644866e-17;45;0;1.152649e-16;1.064615e-16;-1.110223e-16;-1.134632e-16;-1.907933e-17;0;9.43839e-17;0.668891;-1.110223e-16;1.110223e-16;0
0.031855;-1.344262;0.73872;8.39567e-13;0;0;8.39567e-13;0;0;-6.28455e-18;0;0;0;0;6.28455e-18;-6.28455e-18;6.28455e-18;45;0;8.3794e-18;7.256773e-18;0;-2.114541e-17;8.576315e-18;0;2.972173e-17;0.73872;0;0;0
0.099021;-1.344262;0.778623;8.39567e-13;0;0;8.39567e-13;0;-1.110223e-16;-1.822664e-17;0;0;0;0;2.915713e-18;-1.13938e-16;5.842686e-17;45;0;7.790249e-17;7.6949e-17;0;-1.872599e-17;-1.77273e-17;-1.110223e-16;9.986942e-19;0.778623;-1.110223e-16;1.110223e-16;0
0.166186;-1.344262;0.815241;8.39567e-13;0;0;8.39567e-13;0;0;-9.183002e-18;0;0;0;0;9.183002e-18;-9.183002e-18;9.183002e-18;45;0;1.2244e-17;1.060362e-17;0;-1.8366e-17;0;0;1.8366e-17;0.815241;0;0;0
0.233352;-1.344262;0.852172;8.39567e-13;0;0;8.39567e-13;-1.110223e-16;2.220446e-16;5.179633e-18;0;0;0;0;2.221251e-16;-1.111028e-16;1.66614e-16;45;0;2.22152e-16;1.959162e-16;-1.110223e-16;2.748745e-17;-1.712819e-17;2.220446e-16;-4.461564e-17;0.852172;1.110223e-16;-1.110223e-16;0
0.300517;-1.344262;0.888981;8.39567e-13;0;0;8.39567e-13;0;2.220446e-16;-6.245844e-18;0;0;0;0;2.222202e-16;-1.755492e-19;1.111979e-16;45;0;1.482638e-16;1.482053e-16;0;-2.681487e-18;-9.810201e-18;2.220446e-16;-7.128714e-18;0.888981;2.220446e-16;-2.220446e-16;0
0.367682;-1.344262;0.908052;8.39567e-13;0;0;8.39567e-13;0;-3.330669e-16;-3.850256e-17;0;0;0;0;4.392959e-18;-3.374599e-16;1.709264e-16;45;0;2.279019e-16;2.264518e-16;0;-3.635743e-17;-4.064769e-17;-3.330669e-16;-4.290259e-18;0.908052;-3.330669e-16;3.330669e-16;0
0.434848;-1.344262;0.909681;8.39567e-13;0;0;8.39567e-13;2.220446e-16;-3.330669e-16;1.974661e-19;0;0;0;0;2.220447e-16;-3.33067e-16;2.775558e-16;45;0;3.700744e-16;3.226234e-16;2.220446e-16;1.041831e-17;-1.002338e-17;-3.330669e-16;-2.044168e-17;0.909681;-1.110223e-16;1.110223e-16;0
0.502013;-1.344262;0.926276;8.39567e-13;0;0;8.39567e-13;0;-1.110223e-16;-2.018248e-17;0;0;0;0;3.555087e-18;-1.145774e-16;5.906623e-17;45;0;7.875499e-17;7.759711e-17;0;2.351686e-18;-4.271665e-17;-1.110223e-16;-4.506833e-17;0.926276;-1.110223e-16;1.110223e-16;0
0.569178;-1.344262;0.891193;8.39567e-13;0;0;8.39567e-13;2.220446e-16;2.220446e-16;1.326226e-17;0;0;0;0;2.353069e-16;2.087823e-16;1.326226e-17;45;0;1.768301e-17;1.488198e-16;2.220446e-16;3.70121e-17;-1.048759e-17;2.220446e-16;-4.749969e-17;0.891193;4.440892e-16;-4.440892e-16;0
0.636344;-1.344262;0.925828;8.39567e-13;0;0;8.39567e-13;0;2.220446e-16;2.835017e-17;0;0;0;0;2.256071e-16;-3.562529e-18;1.145848e-16;45;0;1.527798e-16;1.516062e-16;0;2.856517e-18;5.384381e-17;2.220446e-16;5.09873e-17;0.925828;2.220446e-16;-2.220446e-16;0
0.703509;-1.344262;0.970454;8.39567e-13;0;0;8.39567e-13;0;2.220446e-16;-1.709592e-17;0;0;0;0;2.233532e-16;-1.308558e-18;1.123309e-16;45;0;1.497745e-16;1.493402e-16;0;-1.187924e-17;-2.23126e-17;2.220446e-16;-1.043336e-17;0.970454;2.220446e-16;-2.220446e-16;0
0.770674;-1.344262;0.945339;8.39567e-13;0;0;8.39567e-13;-1.110223e-16;2.220446e-16;2.721797e-17;0;0;0;0;2.242542e-16;-1.132319e-16;1.68743e-16;45;0;2.249907e-16;1.983309e-16;-1.110223e-16;3.948804e-17;1.494791e-17;2.220446e-16;-2.454013e-17;0.945339;1.110223e-16;-1.110223e-16;0
0.83784;-1.344262;0.905127;8.39567e-13;0;0;8.39567e-13;-3.330669e-16;2.220446e-16;2.909388e-19;0;0;0;0;2.220448e-16;-3.330671e-16;2.775559e-16;45;0;3.700745e-16;3.226235e-16;-3.330669e-16;-6.937986e-18;7.519863e-18;2.220446e-16;1.445785e-17;0.905127;-1.110223e-16;1.110223e-16;0
0.905005;-1.344262;0.869849;8.39567e-13;0;0;8.39567e-13;0;0;-3.942302e-18;0;0;0;0;3.942302e-18;-3.942302e-18;3.942302e-18;45;0;5.256403e-18;4.552178e-18;0;6.825789e-18;-1.471039e-17;0;-2.153618e-17;0.869849;0;0;0
0.97217;-1.344262;0.882468;8.39567e-13;0;0;8.39567e-13;-1.110223e-16;0;-3.240095e-17;0;0;0;0;8.764111e-18;-1.197864e-16;6.427526e-17;45;0;8.570035e-17;8.293349e-17;-1.110223e-16;-3.149496e-17;-3.330694e-17;0;-1.811977e-18;0.882468;-1.110223e-16;1.110223e-16;0
1.039336;-1.344262;0.864923;8.39567e-13;0;0;8.39567e-13;0;2.220446e-16;-3.139873e-17;0;0;0;0;2.263992e-16;-4.35461e-18;1.153769e-16;45;0;1.538359e-16;1.524051e-16;0;-8.915603e-17;2.635858e-17;2.220446e-16;1.155146e-16;0.864923;2.220446e-16;-2.220446e-16;0
1.106501;-1.344262;0.79537;8.39567e-13;0;0;8.39567e-13;0;-1.110223e-16;-3.807033e-18;0;0;0;0;1.303927e-19;-1.111527e-16;5.564154e-17;45;0;7.418872e-17;7.41453e-17;0;-1.615476e-17;8.540696e-18;-1.110223e-16;2.469546e-17;0.79537;-1.110223e-16;1.110223e-16;0
1.173667;-1.344262;0.772236;8.39567e-13;0;0;8.39567e-13;-1.110223e-16;-1.110223e-16;2.681102e-17;0;0;0;0;-8.421128e-17;-1.378333e-16;2.681102e-17;45;0;3.574803e-17;8.022868e-17;-1.110223e-16;3.565387e-17;1.796817e-17;-1.110223e-16;-1.76857e-17;0.772236;-2.220446e-16;2.220446e-16;0
1.240832;-1.344262;0.732239;8.39567e-13;0;0;8.39567e-13;2.220446e-16;-3.330669e-16;5.040165e-17;0;0;0;0;2.265837e-16;-3.37606e-16;2.820949e-16;45;0;3.761265e-16;3.278306e-16;2.220446e-16;-1.354696e-17;1.143503e-16;-3.330669e-16;1.278972e-16;0.732239;-1.110223e-16;1.110223e-16;0
1.307997;-1.344262;0.684098;8.39567e-13;0;0;8.39567e-13;0;-1.110223e-16;-1.085535e-17;0;0;0;0;1.051439e-18;-1.120737e-16;5.656259e-17;45;0;7.541679e-17;7.506876e-17;0;-4.412268e-17;2.241198e-17;-1.110223e-16;6.653466e-17;0.684098;-1.110223e-16;1.110223e-16;0
1.375163;-1.344262;0.620601;8.39567e-13;0;0;8.39567e-13;-2.220446e-16;2.220446e-16;2.081505e-17;0;0;0;0;2.230181e-16;-2.230181e-16;2.230181e-16;45;0;2.973575e-16;2.575191e-16;-2.220446e-16;1.217942e-17;2.945068e-17;2.220446e-16;1.727126e-17;0.620601;0;0;0
1.442328;-1.344262;0.492804;8.39567e-13;0;0;8.39567e-13;-2.220446e-16;-1.110223e-16;-8.930958e-18;0;0;0;0;-1.103085e-16;-2.227584e-16;5.622499e-17;45;0;7.496666e-17;1.286116e-16;-2.220446e-16;-1.105259e-17;-6.809323e-18;-1.110223e-16;4.243271e-18;0.492804;-3.330669e-16;3.330669e-16;0
1.509493;-1.344262;0.391721;8.39567e-13;0;0;8.39567e-13;0;-2.220446e-16;3.537552e-18;0;0;0;0;5.634498e-20;-2.22101e-16;1.110786e-16;45;0;1.481049e-16;1.480861e-16;0;9.062238e-18;-1.987134e-18;-2.220446e-16;-1.104937e-17;0.391721;-2.220446e-16;2.220446e-16;0
-0.371137;-1.411427;0.275843;8.39567e-13;0;0;8.39567e-13;2.220446e-16;0;5.198549e-17;0;0;0;0;2.336129e-16;-1.156825e-17;1.225905e-16;45;0;1.634541e-16;1.597377e-16;2.220446e-16;4.590765e-17;5.806332e-17;0;1.215566e-17;0.275843;2.220446e-16;-2.220446e-16;0
-0.303971;-1.411427;0.378767;8.39567e-13;0;0;8.39567e-13;2.220446e-16;0;-2.835347e-17;0;0;0;0;2.256079e-16;-3.563346e-18;1.145857e-16;45;0;1.527809e-16;1.51607e-16;2.220446e-16;-5.107107e-17;-5.635868e-18;0;4.54352e-17;0.378767;2.220446e-16;-2.220446e-16;0
-0.236806;-1.411427;0.487413;8.39567e-13;0;0;8.39567e-13;2.220446e-16;2.220446e-16;-3.600279e-17;0;0;0;0;2.580474e-16;1.860418e-16;3.600279e-17;45;0;4.800373e-17;1.537565e-16;2.220446e-16;-7.788569e-17;5.880093e-18;2.220446e-16;8.376577e-17;0.487413;4.440892e-16;-4.440892e-16;0
-0.169641;-1.411427;0.565768;8.39567e-13;0;0;8.39567e-13;2.220446e-16;-1.110223e-16;-5.69881e-18;0;0;0;0;2.221421e-16;-1.111198e-16;1.666309e-16;45;0;2.221746e-16;1.959355e-16;2.220446e-16;-1.648332e-17;5.085698e-18;-1.110223e-16;2.156902e-17;0.565768;1.110223e-16;-1.110223e-16;0
-0.102475;-1.411427;0.629325;8.39567e-13;0;0;8.39567e-13;0;0;3.904998e-17;0;0;0;0;3.904998e-17;-3.904998e-17;3.904998e-17;45;0;5.206664e-17;4.509103e-17;0;6.286806e-17;1.523189e-17;0;-4.763617e-17;0.629325;0;0;0
-0.03531;-1.411427;0.683541;8.39567e-13;0;0;8.39567e-13;-1.110223e-16;-1.110223e-16;7.458017e-19;0;0;0;0;-1.102765e-16;-1.117681e-16;7.458017e-19;45;0;9.944023e-19;7.401988e-17;-1.110223e-16;1.491603e-18;0;-1.110223e-16;-1.491603e-18;0.683541;-2.220446e-16;2.220446e-16;0
0.031855;-1.411427;0.743342;8.39567e-13;0;0;8.39567e-13;2.220446e-16;0;-3.000539e-17;0;0;0;0;2.260279e-16;-3.983242e-18;1.150055e-16;45;0;1.533407e-16;1.520304e-16;2.220446e-16;-5.15351e-17;-8.475681e-18;0;4.305942e-17;0.743342;2.220446e-16;-2.220446e-16;0
0.099021;-1.411427;0.774494;8.39567e-13;0;0;8.39567e-13;2.220446e-16;2.220446e-16;3.670639e-18;0;0;0;0;2.257152e-16;2.18374e-16;3.670639e-18;45;0;4.894185e-18;1.480904e-16;2.220446e-16;-1.097535e-17;1.831663e-17;2.220446e-16;2.929198e-17;0.774494;4.440892e-16;-4.440892e-16;0
0.166186;-1.411427;0.815423;8.39567e-13;0;0;8.39567e-13;0;0;-1.349458e-17;0;0;0;0;1.349458e-17;-1.349458e-17;1.349458e-17;45;0;1.799277e-17;1.558219e-17;0;-4.027564e-17;1.328649e-17;0;5.356213e-17;0.815423;0;0;0
0.233352;-1.411427;0.858646;8.39567e-13;0;0;8.39567e-13;2.220446e-16;2.220446e-16;1.417842e-17;0;0;0;0;2.36223e-16;2.078662e-16;1.417842e-17;45;0;1.890457e-17;1.489323e-16;2.220446e-16;1.028178e-17;1.807507e-17;2.220446e-16;7.793282e-18;0.858646;4.440892e-16;-4.440892e-16;0
0.300517;-1.411427;0.893462;8.39567e-13;0;0;8.39567e-13;2.220446e-16;-3.330669e-16;2.200625e-17;0;0;0;0;2.229156e-16;-3.339379e-16;2.784268e-16;45;0;3.712357e-16;3.236225e-16;2.220446e-16;3.923941e-17;4.773083e-18;-3.330669e-16;-3.446633e-17;0.893462;-1.110223e-16;1.110223e-16;0
0.367682;-1.411427;0.915177;8.39567e-13;0;0;8.39567e-13;-1.110223e-16;0;-6.860295e-18;0;0;0;0;4.223052e-19;-1.114446e-16;5.593346e-17;45;0;7.457794e-17;7.443757e-17;-1.110223e-16;1.103795e-17;-2.475854e-17;0;-3.579649e-17;0.915177;-1.110223e-16;1.110223e-16;0
0.434848;-1.411427;0.933252;8.39567e-13;0;0;8.39567e-13;2.220446e-16;0;4.278107e-17;0;0;0;0;2.30002e-16;-7.957407e-18;1.189797e-16;45;0;1.586396e-16;1.560548e-16;2.220446e-16;5.027282e-17;3.528932e-17;0;-1.49835e-17;0.933252;2.220446e-16;-2.220446e-16;0
0.502013;-1.411427;0.94299;8.39567e-13;0;0;8.39567e-13;2.220446e-16;0;-1.592876e-17;0;0;0;0;2.231815e-16;-1.136858e-18;1.121592e-16;45;0;1.495455e-16;1.49168e-16;2.220446e-16;-3.895903e-17;7.101503e-18;0;4.606053e-17;0.94299;2.220446e-16;-2.220446e-16;0
0.569178;-1.411427;0.927086;8.39567e-13;0;0;8.39567e-13;0;-3.330669e-16;-3.297447e-18;0;0;0;0;3.264236e-20;-3.330995e-16;1.665661e-16;45;0;2.220881e-16;2.220772e-16;0;8.881569e-18;-1.547646e-17;-3.330669e-16;-2.435803e-17;0.927086;-3.330669e-16;3.330669e-16;0
0.636344;-1.411427;0.948588;8.39567e-13;0;0;8.39567e-13;-1.110223e-16;0;-3.615935e-17;0;0;0;0;1.073828e-17;-1.217606e-16;6.624943e-17;45;0;8.833257e-17;8.49796e-17;-1.110223e-16;-4.190889e-17;-3.040982e-17;0;1.149906e-17;0.948588;-1.110223e-16;1.110223e-16;0
0.703509;-1.411427;0.948153;8.39567e-13;0;0;8.39567e-13;0;0;9.313018e-18;0;0;0;0;9.313018e-18;-9.313018e-18;9.313018e-18;45;0;1.241736e-17;1.075375e-17;0;3.887592e-17;-2.024989e-17;0;-5.91258e-17;0.948153;0;0;0
0.770674;-1.411427;0.913456;8.39567e-13;0;0;8.39567e-13;-1.110223e-16;0;5.143231e-18;0;0;0;0;2.377567e-19;-1.112601e-16;5.574891e-17;45;0;7.433188e-17;7.425275e-17;-1.110223e-16;-1.013996e-17;2.042642e-17;0;3.056639e-17;0.913456;-1.110223e-16;1.110223e-16;0
0.83784;-1.411427;0.939722;8.39567e-13;0;0;8.39567e-13;-1.110223e-16;-1.110223e-16;4.362051e-17;0;0;0;0;-6.74018e-17;-1.546428e-16;4.362051e-17;45;0;5.816068e-17;8.952764e-17;-1.110223e-16;2.402127e-18;8.483889e-17;-1.110223e-16;8.243676e-17;0.939722;-2.220446e-16;2.220446e-16;0
0.905005;-1.411427;0.900998;8.39567e-13;0;0;8.39567e-13;0;-1.110223e-16;-1.522811e-17;0;0;0;0;2.050843e-18;-1.130731e-16;5.7562e-17;45;0;7.674932e-17;7.607493e-17;0;2.995938e-18;-3.345216e-17;-1.110223e-16;-3.644809e-17;0.900998;-1.110223e-16;1.110223e-16;0
0.97217;-1.411427;0.886117;8.39567e-13;0;0;8.39567e-13;-1.110223e-16;-1.110223e-16;2.81703e-17;0;0;0;0;-8.2852e-17;-1.391926e-16;2.81703e-17;45;0;3.75604e-17;8.084732e-17;-1.110223e-16;3.601356e-17;2.032705e-17;-1.110223e-16;-1.568652e-17;0.886117;-2.220446e-16;2.220446e-16;0
1.039336;-1.411427;0.869679;8.39567e-13;0;0;8.39567e-13;-1.110223e-16;2.220446e-16;-4.080454e-17;0;0;0;0;2.269708e-16;-1.159485e-16;1.714596e-16;45;0;2.286128e-16;2.014136e-16;-1.110223e-16;-6.814783e-17;-1.346124e-17;2.220446e-16;5.468659e-17;0.869679;1.110223e-16;-1.110223e-16;0
1.106501;-1.411427;0.808915;8.39567e-13;0;0;8.39567e-13;-1.110223e-16;2.220446e-16;-4.474542e-17;0;0;0;0;2.279511e-16;-1.169288e-16;1.7244e-16;45;0;2.2992e-16;2.025264e-16;-1.110223e-16;-4.470619e-17;-4.478464e-17;2.220446e-16;-7.845042e-20;0.808915;1.110223e-16;-1.110223e-16;0
1.173667;-1.411427;0.797747;8.39567e-13;0;0;8.39567e-13;2.220446e-16;2.220446e-16;3.636876e-18;0;0;0;0;2.256815e-16;2.184077e-16;3.636876e-18;45;0;4.849167e-18;1.480893e-16;2.220446e-16;3.474363e-17;-2.746988e-17;2.220446e-16;-6.221352e-17;0.797747;4.440892e-16;-4.440892e-16;0
1.240832;-1.411427;0.744732;8.39567e-13;0;0;8.39567e-13;-1.110223e-16;2.220446e-16;2.55146e-17;0;0;0;0;2.239878e-16;-1.129655e-16;1.684767e-16;45;0;2.246355e-16;1.980288e-16;-1.110223e-16;4.341757e-17;7.611621e-18;2.220446e-16;-3.580595e-17;0.744732;1.110223e-16;-1.110223e-16;0
1.307997;-1.411427;0.671483;8.39567e-13;0;0;8.39567e-13;0;0;1.084891e-17;0;0;0;0;1.084891e-17;-1.084891e-17;1.084891e-17;45;0;1.446521e-17;1.252724e-17;0;1.509046e-17;6.60736e-18;0;-8.483102e-18;0.671483;0;0;0
1.375163;-1.411427;0.578171;8.39567e-13;0;0;8.39567e-13;0;2.220446e-16;-1.183036e-17;0;0;0;0;2.226731e-16;-6.285326e-19;1.116508e-16;45;0;1.488678e-16;1.486587e-16;0;1.322301e-17;-3.688372e-17;2.220446e-16;-5.010674e-17;0.578171;2.220446e-16;-2.220446e-16;0
1.442328;-1.411427;0.497737;8.39567e-13;0;0;8.39567e-13;0;0;4.956028e-19;0;0;0;0;4.956028e-19;-4.956028e-19;4.956028e-19;45;0;6.608038e-19;5.722729e-19;0;1.786989e-17;-1.687868e-17;0;-3.474857e-17;0.497737;0;0;0
1.509493;-1.411427;0.385873;8.39567e-13;0;0;8.39567e-13;2.220446e-16;-2.220446e-16;-4.667523e-17;0;0;0;0;2.268973e-16;-2.268973e-16;2.268973e-16;45;0;3.025297e-16;2.619984e-16;2.220446e-16;-4.026926e-17;-5.308122e-17;-2.220446e-16;-1.281196e-17;0.385873;0;0;0
-0.371137;-1.478593;0.265781;8.39567e-13;0;0;8.39567e-13;2.220446e-16;2.220446e-16;1.062564e-18;0;0;0;0;2.231072e-16;2.20982e-16;1.062564e-18;45;0;1.416752e-18;1.480348e-16;2.220446e-16;-2.07912e-18;4.204248e-18;2.220446e-16;6.283368e-18;0.265781;4.440892e-16;-4.440892e-16;0
-0.303971;-1.478593;0.357114;8.39567e-13;0;0;8.39567e-13;0;2.220446e-16;4.00417e-17;0;0;0;0;2.290447e-16;-7.000107e-18;1.180224e-16;45;0;1.573632e-16;1.550825e-16;0;7.430863e-17;5.774764e-18;2.220446e-16;-6.853386e-17;0.357114;2.220446e-16;-2.220446e-16;0
-0.236806;-1.478593;0.462146;8.39567e-13;0;0;8.39567e-13;6.661338e-16;0;-8.698525e-17;0;0;0;0;6.773052e-16;-1.117138e-17;3.442383e-16;45;0;4.589844e-16;4.553063e-16;6.661338e-16;-1.739705e-16;0;0;1.739705e-16;0.462146;6.661338e-16;-6.661338e-16;0
-0.169641;-1.478593;0.554711;8.39567e-13;0;0;8.39567e-13;0;2.220446e-16;-6.555977e-17;0;0;0;0;2.399565e-16;-1.791193e-17;1.289342e-16;45;0;1.719123e-16;1.662636e-16;0;-8.124142e-17;-4.987812e-17;2.220446e-16;3.136331e-17;0.554711;2.220446e-16;-2.220446e-16;0
-0.102475;-1.478593;0.649964;8.39567e-13;0;0;8.39567e-13;2.220446e-16;0;2.369166e-17;0;0;0;0;2.245443e-16;-2.499705e-18;1.13522e-16;45;0;1.513627e-16;1.505364e-16;2.220446e-16;5.432751e-17;-6.944198e-18;0;-6.127171e-17;0.649964;2.220446e-16;-2.220446e-16;0
-0.03531;-1.478593;0.696691;8.39567e-13;0;0;8.39567e-13;-2.220446e-16;2.220446e-16;4.543159e-17;0;0;0;0;2.266447e-16;-2.266447e-16;2.266447e-16;45;0;3.02193e-16;2.617068e-16;-2.220446e-16;6.873694e-17;2.212625e-17;2.220446e-16;-4.661069e-17;0.696691;0;0;0
0.031855;-1.478593;0.752078;8.39567e-13;0;0;8.39567e-13;2.220446e-16;-1.110223e-16;-9.057954e-18;0;0;0;0;2.222907e-16;-1.112685e-16;1.667796e-16;45;0;2.223728e-16;1.96104e-16;2.220446e-16;5.813842e-18;-2.392975e-17;-1.110223e-16;-2.974359e-17;0.752078;1.110223e-16;-1.110223e-16;0
0.099021;-1.478593;0.771894;8.39567e-13;0;0;8.39567e-13;-1.110223e-16;-1.110223e-16;-3.139317e-17;0;0;0;0;-7.962913e-17;-1.424155e-16;3.139317e-17;45;0;4.185756e-17;8.241506e-17;-1.110223e-16;-2.085754e-17;-4.19288e-17;-1.110223e-16;-2.107125e-17;0.771894;-2.220446e-16;2.220446e-16;0
0.166186;-1.478593;0.809776;8.39567e-13;0;0;8.39567e-13;2.220446e-16;2.220446e-16;1.023982e-17;0;0;0;0;2.322844e-16;2.118048e-16;1.023982e-17;45;0;1.365309e-17;1.485012e-16;2.220446e-16;-1.470905e-17;3.518869e-17;2.220446e-16;4.989773e-17;0.809776;4.440892e-16;-4.440892e-16;0
0.233352;-1.478593;0.850458;8.39567e-13;0;0;8.39567e-13;2.220446e-16;-3.330669e-16;-1.560234e-17;0;0;0;0;2.224828e-16;-3.335051e-16;2.779939e-16;45;0;3.706586e-16;3.23126e-16;2.220446e-16;-2.425234e-17;-6.952341e-18;-3.330669e-16;1.73e-17;0.850458;-1.110223e-16;1.110223e-16;0
0.300517;-1.478593;0.872457;8.39567e-13;0;0;8.39567e-13;0;2.220446e-16;-5.506694e-18;0;0;0;0;2.221811e-16;-1.364818e-19;1.111588e-16;45;0;1.482117e-16;1.481662e-16;0;-1.101339e-17;0;2.220446e-16;1.101339e-17;0.872457;2.220446e-16;-2.220446e-16;0
0.367682;-1.478593;0.896986;8.39567e-13;0;0;8.39567e-13;-1.110223e-16;0;-1.871362e-17;0;0;0;0;3.069457e-18;-1.140918e-16;5.858061e-17;45;0;7.810748e-17;7.710469e-17;-1.110223e-16;-3.502844e-17;-2.398809e-18;0;3.262963e-17;0.896986;-1.110223e-16;1.110223e-16;0
0.434848;-1.478593;0.927154;8.39567e-13;0;0;8.39567e-13;-3.330669e-16;0;-1.324694e-17;0;0;0;0;5.260344e-19;-3.335929e-16;1.670595e-16;45;0;2.22746e-16;2.225709e-16;-3.330669e-16;-1.522886e-17;-1.126501e-17;0;3.963853e-18;0.927154;-3.330669e-16;3.330669e-16;0
0.502013;-1.478593;0.939563;8.39567e-13;0;0;8.39567e-13;-3.330669e-16;2.220446e-16;6.560021e-18;0;0;0;0;2.221221e-16;-3.331444e-16;2.776333e-16;45;0;3.701777e-16;3.227122e-16;-3.330669e-16;2.001038e-17;-6.890343e-18;2.220446e-16;-2.690073e-17;0.939563;-1.110223e-16;1.110223e-16;0
0.569178;-1.478593;0.950748;8.39567e-13;0;0;8.39567e-13;-1.110223e-16;-1.110223e-16;-7.976092e-18;0;0;0;0;-1.030462e-16;-1.189984e-16;7.976092e-18;45;0;1.063479e-17;7.458568e-17;-1.110223e-16;-4.004443e-18;-1.194774e-17;-1.110223e-16;-7.943297e-18;0.950748;-2.220446e-16;2.220446e-16;0
0.636344;-1.478593;0.952935;8.39567e-13;0;0;8.39567e-13;2.220446e-16;2.220446e-16;1.372563e-17;0;0;0;0;2.357702e-16;2.08319e-16;1.372563e-17;45;0;1.830085e-17;1.488758e-16;2.220446e-16;-3.143089e-18;3.059436e-17;2.220446e-16;3.373745e-17;0.952935;4.440892e-16;-4.440892e-16;0
0.703509;-1.478593;0.929548;8.39567e-13;0;0;8.39567e-13;2.220446e-16;0;7.803301e-18;0;0;0;0;2.223185e-16;-2.738931e-19;1.112962e-16;45;0;1.483949e-16;1.483037e-16;2.220446e-16;1.56066e-17;0;0;-1.56066e-17;0.929548;2.220446e-16;-2.220446e-16;0
0.770674;-1.478593;0.904469;8.39567e-13;0;0;8.39567e-13;2.220446e-16;2.220446e-16;-4.399055e-17;0;0;0;0;2.660352e-16;1.780541e-16;4.399055e-17;45;0;5.865407e-17;1.565025e-16;2.220446e-16;-1.599151e-18;-8.638196e-17;2.220446e-16;-8.47828e-17;0.904469;4.440892e-16;-4.440892e-16;0
0.83784;-1.478593;0.937905;8.39567e-13;0;0;8.39567e-13;0;0;3.163857e-17;0;0;0;0;3.163857e-17;-3.163857e-17;3.163857e-17;45;0;4.218476e-17;3.653307e-17;0;3.006609e-17;3.321105e-17;0;3.14496e-18;0.937905;0;0;0
0.905005;-1.478593;0.883481;8.39567e-13;0;0;8.39567e-13;2.220446e-16;2.220446e-16;-1.320686e-17;0;0;0;0;2.352515e-16;2.088377e-16;1.320686e-17;45;0;1.760915e-17;1.488132e-16;2.220446e-16;-1.463076e-17;-1.178296e-17;2.220446e-16;2.847799e-18;0.883481;4.440892e-16;-4.440892e-16;0
0.97217;-1.478593;0.859235;8.39567e-13;0;0;8.39567e-13;2.220446e-16;-1.110223e-16;1.472249e-17;0;0;0;0;2.226941e-16;-1.116718e-16;1.67183e-16;45;0;2.229106e-16;1.965615e-16;2.220446e-16;4.694578e-17;-1.750079e-17;-1.110223e-16;-6.444657e-17;0.859235;1.110223e-16;-1.110223e-16;0
1.039336;-1.478593;0.858839;8.39567e-13;0;0;8.39567e-13;-1.110223e-16;2.220446e-16;-1.136059e-17;0;0;0;0;2.224316e-16;-1.114094e-16;1.669205e-16;45;0;2.225607e-16;1.962638e-16;-1.110223e-16;1.865176e-17;-4.137294e-17;2.220446e-16;-6.00247e-17;0.858839;1.110223e-16;-1.110223e-16;0
1.106501;-1.478593;0.816711;8.39567e-13;0;0;8.39567e-13;0;0;-3.397661e-18;0;0;0;0;3.397661e-18;-3.397661e-18;3.397661e-18;45;0;4.530214e-18;3.923281e-18;0;1.161012e-17;-1.840544e-17;0;-3.001557e-17;0.816711;0;0;0
1.173667;-1.478593;0.80035;8.39567e-13;0;0;8.39567e-13;2.220446e-16;-3.330669e-16;-7.639211e-17;0;0;0;0;2.323655e-16;-3.433878e-16;2.878766e-16;45;0;3.838355e-16;3.34465e-16;2.220446e-16;-7.999943e-17;-7.278479e-17;-3.330669e-16;7.214644e-18;0.80035;-1.110223e-16;1.110223e-16;0
1.240832;-1.478593;0.744775;8.39567e-13;0;0;8.39567e-13;-1.110223e-16;-3.330669e-16;-1.595903e-17;0;0;0;0;-1.098811e-16;-3.342081e-16;1.121635e-16;45;0;1.495513e-16;1.966901e-16;-1.110223e-16;-2.45733e-17;-7.344762e-18;-3.330669e-16;1.722854e-17;0.744775;-4.440892e-16;4.440892e-16;0
1.307997;-1.478593;0.659089;8.39567e-13;0;0;8.39567e-13;0;-1.110223e-16;-2.862614e-17;0;0;0;0;6.946383e-18;-1.179687e-16;6.245754e-17;45;0;8.327671e-17;8.106052e-17;0;-4.467331e-17;-1.257897e-17;-1.110223e-16;3.209434e-17;0.659089;-1.110223e-16;1.110223e-16;0
1.375163;-1.478593;0.559153;8.39567e-13;0;0;8.39567e-13;-2.220446e-16;0;-9.996027e-18;0;0;0;0;4.490939e-19;-2.224937e-16;1.114714e-16;45;0;1.486285e-16;1.484791e-16;-2.220446e-16;-2.638312e-17;6.391066e-18;0;3.277419e-17;0.559153;-2.220446e-16;2.220446e-16;0
1.442328;-1.478593;0.489871;8.39567e-13;0;0;8.39567e-13;-3.330669e-16;-3.330669e-16;7.85775e-17;0;0;0;0;-2.544894e-16;-4.116444e-16;7.85775e-17;45;0;1.0477e-16;2.398674e-16;-3.330669e-16;1.429447e-16;1.421028e-17;-3.330669e-16;-1.287344e-16;0.489871;-6.661338e-16;6.661338e-16;0
1.509493;-1.478593;0.35679;8.39567e-13;0;0;8.39567e-13;4.440892e-16;-2.220446e-16;1.638472e-17;0;0;0;0;4.44492e-16;-2.224474e-16;3.334697e-16;45;0;4.446262e-16;3.921066e-16;4.440892e-16;-3.212132e-17;6.489074e-17;-2.220446e-16;9.701206e-17;0.35679;2.220446e-16;-2.220446e-16;0
-0.371137;-1.545758;0.270515;8.39567e-13;0;0;8.39567e-13;-3.330669e-16;2.220446e-16;1.875652e-17;0;0;0;0;2.226776e-16;-3.336999e-16;2.781888e-16;45;0;3.709184e-16;3.233495e-16;-3.330669e-16;1.18413e-17;2.567173e-17;2.220446e-16;1.383042e-17;0.270515;-1.110223e-16;1.110223e-16;0
-0.303971;-1.545758;0.351045;8.39567e-13;0;0;8.39567e-13;2.220446e-16;0;3.642759e-17;0;0;0;0;2.27868e-16;-5.823414e-18;1.168457e-16;45;0;1.557943e-16;1.538899e-16;2.220446e-16;5.485915e-17;1.799604e-17;0;-3.686311e-17;0.351045;2.220446e-16;-2.220446e-16;0
-0.236806;-1.545758;0.454336;8.39567e-13;0;0;8.39567e-13;0;2.220446e-16;1.228692e-17;0;0;0;0;2.227224e-16;-6.77832e-19;1.117001e-16;45;0;1.489335e-16;1.487081e-16;0;7.029613e-20;2.450354e-17;2.220446e-16;2.443325e-17;0.454336;2.220446e-16;-2.220446e-16;0
-0.169641;-1.545758;0.526112;8.39567e-13;0;0;8.39567e-13;2.220446e-16;0;4.18454e-17;0;0;0;0;2.296688e-16;-7.624185e-18;1.186465e-16;45;0;1.581953e-16;1.557162e-16;2.220446e-16;5.914233e-17;2.454847e-17;0;-3.459386e-17;0.526112;2.220446e-16;-2.220446e-16;0
-0.102475;-1.545758;0.630361;8.39567e-13;0;0;8.39567e-13;-2.220446e-16;0;3.632386e-17;0;0;0;0;5.791113e-18;-2.278357e-16;1.168134e-16;45;0;1.557512e-16;1.538572e-16;-2.220446e-16;7.264771e-17;0;0;-7.264771e-17;0.630361;-2.220446e-16;2.220446e-16;0
-0.03531;-1.545758;0.678419;8.39567e-13;0;0;8.39567e-13;2.220446e-16;-1.110223e-16;1.537514e-17;0;0;0;0;2.227529e-16;-1.117306e-16;1.672417e-16;45;0;2.229889e-16;1.966281e-16;2.220446e-16;7.572966e-18;2.317732e-17;-1.110223e-16;1.560436e-17;0.678419;1.110223e-16;-1.110223e-16;0
0.031855;-1.545758;0.740609;8.39567e-13;0;0;8.39567e-13;0;0;2.461978e-17;0;0;0;0;2.461978e-17;-2.461978e-17;2.461978e-17;45;0;3.282637e-17;2.842847e-17;0;2.388068e-17;2.535888e-17;0;1.478205e-18;0.740609;0;0;0
0.099021;-1.545758;0.76874;8.39567e-13;0;0;8.39567e-13;0;0;9.020408e-18;0;0;0;0;9.020408e-18;-9.020408e-18;9.020408e-18;45;0;1.202721e-17;1.041587e-17;0;-4.258777e-19;1.846669e-17;0;1.889257e-17;0.76874;0;0;0
0.166186;-1.545758;0.811337;8.39567e-13;0;0;8.39567e-13;0;0;-3.572198e-18;0;0;0;0;3.572198e-18;-3.572198e-18;3.572198e-18;45;0;4.762931e-18;4.124819e-18;0;-2.680024e-18;-4.464372e-18;0;-1.784348e-18;0.811337;0;0;0
0.233352;-1.545758;0.8591;8.39567e-13;0;0;8.39567e-13;2.220446e-16;2.220446e-16;-6.285376e-17;0;0;0;0;2.848984e-16;1.591908e-16;6.285376e-17;45;0;8.380502e-17;1.648644e-16;2.220446e-16;-7.444519e-17;-5.126234e-17;2.220446e-16;2.318285e-17;0.8591;4.440892e-16;-4.440892e-16;0
0.300517;-1.545758;0.870388;8.39567e-13;0;0;8.39567e-13;-1.110223e-16;2.220446e-16;3.687194e-17;0;0;0;0;2.260776e-16;-1.150553e-16;1.705665e-16;45;0;2.27422e-16;2.003999e-16;-1.110223e-16;4.759922e-17;2.614466e-17;2.220446e-16;-2.145456e-17;0.870388;1.110223e-16;-1.110223e-16;0
0.367682;-1.545758;0.91085;8.39567e-13;0;0;8.39567e-13;-1.110223e-16;2.220446e-16;6.390537e-18;0;0;0;0;2.221672e-16;-1.111449e-16;1.66656e-16;45;0;2.22208e-16;1.959639e-16;-1.110223e-16;-1.536664e-17;2.814771e-17;2.220446e-16;4.351434e-17;0.91085;1.110223e-16;-1.110223e-16;0
0.434848;-1.545758;0.930095;8.39567e-13;0;0;8.39567e-13;2.220446e-16;0;-2.271489e-17;0;0;0;0;2.243445e-16;-2.299884e-18;1.133222e-16;45;0;1.510963e-16;1.503355e-16;2.220446e-16;-9.706565e-18;-3.572322e-17;0;-2.601665e-17;0.930095;2.220446e-16;-2.220446e-16;0
0.502013;-1.545758;0.930089;8.39567e-13;0;0;8.39567e-13;0;2.220446e-16;5.312313e-18;0;0;0;0;2.221716e-16;-1.270219e-19;1.111493e-16;45;0;1.481991e-16;1.481568e-16;0;1.957556e-17;-8.950936e-18;2.220446e-16;-2.85265e-17;0.930089;2.220446e-16;-2.220446e-16;0
0.569178;-1.545758;0.951685;8.39567e-13;0;0;8.39567e-13;-3.330669e-16;0;3.742328e-17;0;0;0;0;4.15308e-18;-3.3722e-16;1.706865e-16;45;0;2.275821e-16;2.262104e-16;-3.330669e-16;3.92646e-17;3.558196e-17;0;-3.682639e-18;0.951685;-3.330669e-16;3.330669e-16;0
0.636344;-1.545758;0.907142;8.39567e-13;0;0;8.39567e-13;0;0;1.707146e-17;0;0;0;0;1.707146e-17;-1.707146e-17;1.707146e-17;45;0;2.276194e-17;1.971242e-17;0;-8.999219e-18;4.314213e-17;0;5.214135e-17;0.907142;0;0;0
0.703509;-1.545758;0.896308;8.39567e-13;0;0;8.39567e-13;0;-1.110223e-16;2.158383e-17;0;0;0;0;4.048478e-18;-1.150708e-16;5.955963e-17;45;0;7.941284e-17;7.809833e-17;0;-3.256015e-19;4.349325e-17;-1.110223e-16;4.381885e-17;0.896308;-1.110223e-16;1.110223e-16;0
0.770674;-1.545758;0.907425;8.39567e-13;0;0;8.39567e-13;0;-1.110223e-16;2.607949e-18;0;0;0;0;6.122777e-20;-1.110835e-16;5.557238e-17;45;0;7.40965e-17;7.40761e-17;0;1.298064e-17;-7.764738e-18;-1.110223e-16;-2.074537e-17;0.907425;-1.110223e-16;1.110223e-16;0
0.83784;-1.545758;0.914774;8.39567e-13;0;0;8.39567e-13;0;2.220446e-16;2.306379e-17;0;0;0;0;2.244149e-16;-2.370335e-18;1.133926e-16;45;0;1.511902e-16;1.504063e-16;0;1.562646e-17;3.050113e-17;2.220446e-16;1.487467e-17;0.914774;2.220446e-16;-2.220446e-16;0
0.905005;-1.545758;0.895185;8.39567e-13;0;0;8.39567e-13;-1.110223e-16;2.220446e-16;6.979092e-18;0;0;0;0;2.221908e-16;-1.111685e-16;1.666796e-16;45;0;2.222395e-16;1.959907e-16;-1.110223e-16;-1.152e-17;2.547818e-17;2.220446e-16;3.699817e-17;0.895185;1.110223e-16;-1.110223e-16;0
0.97217;-1.545758;0.906218;8.39567e-13;0;0;8.39567e-13;2.220446e-16;2.220446e-16;-1.710029e-17;0;0;0;0;2.391449e-16;2.049443e-16;1.710029e-17;45;0;2.280038e-17;1.493409e-16;2.220446e-16;-3.064411e-20;-3.416993e-17;2.220446e-16;-3.413929e-17;0.906218;4.440892e-16;-4.440892e-16;0
1.039336;-1.545758;0.850263;8.39567e-13;0;0;8.39567e-13;-1.110223e-16;0;9.868094e-18;0;0;0;0;8.702925e-19;-1.118926e-16;5.638144e-17;45;0;7.517526e-17;7.488684e-17;-1.110223e-16;3.929305e-17;-1.955686e-17;0;-5.884992e-17;0.850263;-1.110223e-16;1.110223e-16;0
1.106501;-1.545758;0.79498;8.39567e-13;0;0;8.39567e-13;-3.330669e-16;0;-2.844893e-17;0;0;0;0;2.412493e-18;-3.354794e-16;1.689459e-16;45;0;2.252613e-16;2.244614e-16;-3.330669e-16;-2.331314e-17;-3.358472e-17;0;-1.027158e-17;0.79498;-3.330669e-16;3.330669e-16;0
1.173667;-1.545758;0.769866;8.39567e-13;0;0;8.39567e-13;0;-1.110223e-16;-7.893984e-18;0;0;0;0;5.584742e-19;-1.115808e-16;5.606962e-17;45;0;7.47595e-17;7.457404e-17;0;-1.118839e-17;-4.599582e-18;-1.110223e-16;6.588804e-18;0.769866;-1.110223e-16;1.110223e-16;0
1.240832;-1.545758;0.736006;8.39567e-13;0;0;8.39567e-13;-1.110223e-16;2.220446e-16;3.386354e-17;0;0;0;0;2.254527e-16;-1.144304e-16;1.699416e-16;45;0;2.265887e-16;1.996907e-16;-1.110223e-16;4.810271e-17;1.962438e-17;2.220446e-16;-2.847833e-17;0.736006;1.110223e-16;-1.110223e-16;0
1.307997;-1.545758;0.663396;8.39567e-13;0;0;8.39567e-13;-2.220446e-16;2.220446e-16;-2.113018e-18;0;0;0;0;2.220547e-16;-2.220547e-16;2.220547e-16;45;0;2.960729e-16;2.564066e-16;-2.220446e-16;9.125948e-18;-1.335198e-17;2.220446e-16;-2.247793e-17;0.663396;0;0;0
1.375163;-1.545758;0.582009;8.39567e-13;0;0;8.39567e-13;6.661338e-16;2.220446e-16;-9.141038e-17;0;0;0;0;6.842135e-16;2.039649e-16;2.401243e-16;45;0;3.201657e-16;4.056239e-16;6.661338e-16;-1.285214e-16;-5.429937e-17;2.220446e-16;7.422202e-17;0.582009;8.881784e-16;-8.881784e-16;0
1.442328;-1.545758;0.516895;8.39567e-13;0;0;8.39567e-13;2.220446e-16;-3.330669e-16;2.364888e-17;0;0;0;0;2.230503e-16;-3.340726e-16;2.785614e-16;45;0;3.714152e-16;3.237769e-16;2.220446e-16;3.204015e-18;4.409375e-17;-3.330669e-16;4.088973e-17;0.516895;-1.110223e-16;1.110223e-16;0
1.509493;-1.545758;0.38748;8.39567e-13;0;0;8.39567e-13;0;0;-1.131616e-17;0;0;0;0;1.131616e-17;-1.131616e-17;1.131616e-17;45;0;1.508822e-17;1.306678e-17;0;-2.263232e-17;0;0;2.263232e-17;0.38748;0;0;0
-0.371137;-1.612924;0.26311;8.39567e-13;0;0;8.39567e-13;0;-2.220446e-16;2.073031e-17;0;0;0;0;1.918822e-18;-2.239634e-16;1.129411e-16;45;0;1.505882e-16;1.499527e-16;0;4.898617e-18;3.656201e-17;-2.220446e-16;3.166339e-17;0.26311;-2.220446e-16;2.220446e-16;0
-0.303971;-1.612924;0.345616;8.39567e-13;0;0;8.39567e-13;-2.220446e-16;0;-7.792252e-18;0;0;0;0;2.73119e-19;-2.223177e-16;1.112954e-16;45;0;1.483939e-16;1.483029e-16;-2.220446e-16;-1.93071e-17;3.722592e-18;0;2.302969e-17;0.345616;-2.220446e-16;2.220446e-16;0
-0.236806;-1.612924;0.449952;8.39567e-13;0;0;8.39567e-13;-2.220446e-16;-1.110223e-16;-5.275914e-17;0;0;0;0;-8.995007e-17;-2.431169e-16;7.658339e-17;45;0;1.021112e-16;1.419365e-16;-2.220446e-16;-7.943066e-17;-2.608763e-17;-1.110223e-16;5.334303e-17;0.449952;-3.330669e-16;3.330669e-16;0
-0.169641;-1.612924;0.521856;8.39567e-13;0;0;8.39567e-13;0;-1.110223e-16;-2.58875e-17;0;0;0;0;5.739566e-18;-1.167619e-16;6.125072e-17;45;0;8.166762e-17;7.982325e-17;0;-3.25557e-17;-1.921929e-17;-1.110223e-16;1.333641e-17;0.521856;-1.110223e-16;1.110223e-16;0
-0.102475;-1.612924;0.62101;8.39567e-13;0;0;8.39567e-13;4.440892e-16;2.220446e-16;-2.694625e-17;0;0;0;0;4.473125e-16;2.188213e-16;1.142456e-16;45;0;1.523274e-16;2.582761e-16;4.440892e-16;-2.098976e-17;-3.290274e-17;2.220446e-16;-1.191297e-17;0.62101;6.661338e-16;-6.661338e-16;0
-0.03531;-1.612924;0.692297;8.39567e-13;0;0;8.39567e-13;2.220446e-16;0;-4.679491e-18;0;0;0;0;2.221432e-16;-9.857442e-20;1.111209e-16;45;0;1.481612e-16;1.481283e-16;2.220446e-16;-3.872429e-18;-5.486552e-18;0;-1.614122e-18;0.692297;2.220446e-16;-2.220446e-16;0
0.031855;-1.612924;0.765903;8.39567e-13;0;0;8.39567e-13;2.220446e-16;0;6.041139e-18;0;0;0;0;2.222088e-16;-1.64239e-19;1.111865e-16;45;0;1.482487e-16;1.48194e-16;2.220446e-16;-1.775508e-17;2.983736e-17;0;4.759244e-17;0.765903;2.220446e-16;-2.220446e-16;0
0.099021;-1.612924;0.802292;8.39567e-13;0;0;8.39567e-13;2.220446e-16;2.220446e-16;7.396001e-18;0;0;0;0;2.294406e-16;2.146486e-16;7.396001e-18;45;0;9.861335e-18;1.482759e-16;2.220446e-16;5.656682e-18;9.135321e-18;2.220446e-16;3.478638e-18;0.802292;4.440892e-16;-4.440892e-16;0
0.166186;-1.612924;0.8222;8.39567e-13;0;0;8.39567e-13;0;-1.110223e-16;2.572783e-17;0;0;0;0;5.672254e-18;-1.166946e-16;6.118341e-17;45;0;8.157788e-17;7.975439e-17;0;4.676332e-17;4.692338e-18;-1.110223e-16;-4.207098e-17;0.8222;-1.110223e-16;1.110223e-16;0
0.233352;-1.612924;0.846768;8.39567e-13;0;0;8.39567e-13;0;2.220446e-16;-3.177246e-17;0;0;0;0;2.265015e-16;-4.456876e-18;1.154792e-16;45;0;1.539722e-16;1.525083e-16;0;-3.541171e-17;-2.813321e-17;2.220446e-16;7.278501e-18;0.846768;2.220446e-16;-2.220446e-16;0
0.300517;-1.612924;0.874252;8.39567e-13;0;0;8.39567e-13;2.220446e-16;-1.110223e-16;1.643678e-18;0;0;0;0;2.220527e-16;-1.110304e-16;1.665416e-16;45;0;2.220554e-16;1.958341e-16;2.220446e-16;-3.00661e-18;6.293966e-18;-1.110223e-16;9.300576e-18;0.874252;1.110223e-16;-1.110223e-16;0
0.367682;-1.612924;0.922585;8.39567e-13;0;0;8.39567e-13;0;2.220446e-16;1.452433e-17;0;0;0;0;2.229906e-16;-9.460319e-19;1.119683e-16;45;0;1.492911e-16;1.489768e-16;0;2.32166e-17;5.832068e-18;2.220446e-16;-1.738453e-17;0.922585;2.220446e-16;-2.220446e-16;0
0.434848;-1.612924;0.943855;8.39567e-13;0;0;8.39567e-13;0;2.220446e-16;-1.645387e-17;0;0;0;0;2.232572e-16;-1.212636e-18;1.122349e-16;45;0;1.496466e-16;1.49244e-16;0;-2.001652e-17;-1.289122e-17;2.220446e-16;7.125303e-18;0.943855;2.220446e-16;-2.220446e-16;0
0.502013;-1.612924;0.924052;8.39567e-13;0;0;8.39567e-13;-1.110223e-16;-3.330669e-16;-2.868655e-17;0;0;0;0;-1.073761e-16;-3.367131e-16;1.146685e-16;45;0;1.528914e-16;1.986067e-16;-1.110223e-16;-2.159714e-17;-3.577596e-17;-3.330669e-16;-1.417882e-17;0.924052;-4.440892e-16;4.440892e-16;0
0.569178;-1.612924;0.94995;8.39567e-13;0;0;8.39567e-13;0;-1.110223e-16;-3.337551e-17;0;0;0;0;9.260853e-18;-1.202832e-16;6.477201e-17;45;0;8.636267e-17;8.344719e-17;0;-7.181755e-17;5.066533e-18;-1.110223e-16;7.688409e-17;0.94995;-1.110223e-16;1.110223e-16;0
0.636344;-1.612924;0.950476;8.39567e-13;0;0;8.39567e-13;0;-3.330669e-16;-6.292336e-18;0;0;0;0;1.188331e-19;-3.331857e-16;1.666523e-16;45;0;2.222031e-16;2.221635e-16;0;-2.426648e-18;-1.015802e-17;-3.330669e-16;-7.731375e-18;0.950476;-3.330669e-16;3.330669e-16;0
0.703509;-1.612924;0.940356;8.39567e-13;0;0;8.39567e-13;2.220446e-16;4.440892e-16;-9.233184e-18;0;0;0;0;4.444725e-16;2.216613e-16;1.114056e-16;45;0;1.485408e-16;2.566166e-16;2.220446e-16;1.777888e-18;-2.024426e-17;4.440892e-16;-2.202214e-17;0.940356;6.661338e-16;-6.661338e-16;0
0.770674;-1.612924;0.933287;8.39567e-13;0;0;8.39567e-13;0;2.220446e-16;2.964215e-17;0;0;0;0;2.259336e-16;-3.889005e-18;1.149113e-16;45;0;1.532151e-16;1.519353e-16;0;4.445073e-17;1.483357e-17;2.220446e-16;-2.961716e-17;0.933287;2.220446e-16;-2.220446e-16;0
0.83784;-1.612924;0.888886;8.39567e-13;0;0;8.39567e-13;2.220446e-16;-1.110223e-16;4.044094e-17;0;0;0;0;2.268846e-16;-1.158623e-16;1.713735e-16;45;0;2.284979e-16;2.013157e-16;2.220446e-16;4.135683e-17;3.952504e-17;-1.110223e-16;-1.831793e-18;0.888886;1.110223e-16;-1.110223e-16;0
0.905005;-1.612924;0.883067;8.39567e-13;0;0;8.39567e-13;-1.110223e-16;-1.110223e-16;2.31386e-17;0;0;0;0;-8.78837e-17;-1.341609e-16;2.31386e-17;45;0;3.085147e-17;7.868965e-17;-1.110223e-16;-1.824414e-17;6.452135e-17;-1.110223e-16;8.276548e-17;0.883067;-2.220446e-16;2.220446e-16;0
0.97217;-1.612924;0.890858;8.39567e-13;0;0;8.39567e-13;0;0;1.434569e-17;0;0;0;0;1.434569e-17;-1.434569e-17;1.434569e-17;45;0;1.912759e-17;1.656498e-17;0;2.869138e-17;0;0;-2.869138e-17;0.890858;0;0;0
1.039336;-1.612924;0.843211;8.39567e-13;0;0;8.39567e-13;0;2.220446e-16;-2.724935e-17;0;0;0;0;2.253397e-16;-3.295144e-18;1.143174e-16;45;0;1.524233e-16;1.513368e-16;0;-2.227924e-17;-3.221946e-17;2.220446e-16;-9.940218e-18;0.843211;2.220446e-16;-2.220446e-16;0
1.106501;-1.612924;0.827806;8.39567e-13;0;0;8.39567e-13;0;2.220446e-16;2.288465e-18;0;0;0;0;2.220682e-16;-2.358318e-20;1.110459e-16;45;0;1.480612e-16;1.480533e-16;0;-4.215709e-18;8.79264e-18;2.220446e-16;1.300835e-17;0.827806;2.220446e-16;-2.220446e-16;0
1.173667;-1.612924;0.777874;8.39567e-13;0;0;8.39567e-13;4.440892e-16;2.220446e-16;1.610665e-17;0;0;0;0;4.452514e-16;2.208823e-16;1.121846e-16;45;0;1.495794e-16;2.570687e-16;4.440892e-16;1.914282e-17;1.307048e-17;2.220446e-16;-6.072347e-18;0.777874;6.661338e-16;-6.661338e-16;0
1.240832;-1.612924;0.750157;8.39567e-13;0;0;8.39567e-13;2.220446e-16;2.220446e-16;3.393539e-17;0;0;0;0;2.5598e-16;1.881092e-16;3.393539e-17;45;0;4.524719e-17;1.531283e-16;2.220446e-16;5.122124e-17;1.664955e-17;2.220446e-16;-3.457169e-17;0.750157;4.440892e-16;-4.440892e-16;0
1.307997;-1.612924;0.680857;8.39567e-13;0;0;8.39567e-13;-1.110223e-16;2.220446e-16;5.174931e-17;0;0;0;0;2.298998e-16;-1.188774e-16;1.743886e-16;45;0;2.325181e-16;2.04739e-16;-1.110223e-16;9.605949e-17;7.439143e-18;2.220446e-16;-8.862034e-17;0.680857;1.110223e-16;-1.110223e-16;0
1.375163;-1.612924;0.617205;8.39567e-13;0;0;8.39567e-13;2.220446e-16;-1.110223e-16;-5.493714e-17;0;0;0;0;2.308721e-16;-1.198499e-16;1.75361e-16;45;0;2.338147e-16;2.058434e-16;2.220446e-16;-1.240264e-16;1.415216e-17;-1.110223e-16;1.381786e-16;0.617205;1.110223e-16;-1.110223e-16;0
1.442328;-1.612924;0.550372;8.39567e-13;0;0;8.39567e-13;-1.110223e-16;-1.110223e-16;4.144675e-17;0;0;0;0;-6.957555e-17;-1.524691e-16;4.144675e-17;45;0;5.526233e-17;8.813992e-17;-1.110223e-16;5.75122e-17;2.53813e-17;-1.110223e-16;-3.213089e-17;0.550372;-2.220446e-16;2.220446e-16;0
1.509493;-1.612924;0.405646;8.39567e-13;0;0;8.39567e-13;-2.220446e-16;0;1.249191e-17;0;0;0;0;7.005661e-19;-2.227452e-16;1.117229e-16;45;0;1.489638e-16;1.487309e-16;-2.220446e-16;-4.073809e-18;2.905762e-17;0;3.313143e-17;0.405646;-2.220446e-16;2.220446e-16;0
-0.371137;-1.680089;0.263795;8.39567e-13;0;0;8.39567e-13;-4.440892e-16;0;-8.519581e-18;0;0;0;0;1.633828e-19;-4.442526e-16;2.22208e-16;45;0;2.962773e-16;2.962229e-16;-4.440892e-16;3.353041e-17;-5.056957e-17;0;-8.409998e-17;0.263795;-4.440892e-16;4.440892e-16;0
-0.303971;-1.680089;0.345129;8.39567e-13;0;0;8.39567e-13;-2.220446e-16;0;3.475516e-18;0;0;0;0;5.43866e-20;-2.22099e-16;1.110767e-16;45;0;1.481023e-16;1.480841e-16;-2.220446e-16;-7.33457e-18;1.42856e-17;0;2.162017e-17;0.345129;-2.220446e-16;2.220446e-16;0
-0.236806;-1.680089;0.462511;8.39567e-13;0;0;8.39567e-13;-2.220446e-16;2.220446e-16;-2.639211e-17;0;0;0;0;2.236076e-16;-2.236076e-16;2.236076e-16;45;0;2.981434e-16;2.581998e-16;-2.220446e-16;-6.436075e-17;1.157653e-17;2.220446e-16;7.593728e-17;0.462511;0;0;0
-0.169641;-1.680089;0.53935;8.39567e-13;0;0;8.39567e-13;2.220446e-16;-1.110223e-16;7.589182e-19;0;0;0;0;2.220463e-16;-1.11024e-16;1.665352e-16;45;0;2.220469e-16;1.958269e-16;2.220446e-16;1.505582e-17;-1.353798e-17;-1.110223e-16;-2.85938e-17;0.53935;1.110223e-16;-1.110223e-16;0
-0.102475;-1.680089;0.611934;8.39567e-13;0;0;8.39567e-13;-1.110223e-16;0;1.326684e-18;0;0;0;0;1.585122e-20;-1.110382e-16;5.5527e-17;45;0;7.4036e-17;7.403072e-17;-1.110223e-16;-7.769901e-18;1.042327e-17;0;1.819317e-17;0.611934;-1.110223e-16;1.110223e-16;0
-0.03531;-1.680089;0.683923;8.39567e-13;0;0;8.39567e-13;2.220446e-16;-1.110223e-16;-1.402829e-17;0;0;0;0;2.226344e-16;-1.116121e-16;1.671233e-16;45;0;2.22831e-16;1.964938e-16;2.220446e-16;-9.454337e-18;-1.860223e-17;-1.110223e-16;-9.147895e-18;0.683923;1.110223e-16;-1.110223e-16;0
0.031855;-1.680089;0.736316;8.39567e-13;0;0;8.39567e-13;0;2.220446e-16;-2.728717e-17;0;0;0;0;2.253488e-16;-3.304165e-18;1.143265e-16;45;0;1.524353e-16;1.513459e-16;0;-2.952844e-17;-2.50459e-17;2.220446e-16;4.482536e-18;0.736316;2.220446e-16;-2.220446e-16;0
0.099021;-1.680089;0.779632;8.39567e-13;0;0;8.39567e-13;0;-1.110223e-16;3.855622e-17;0;0;0;0;1.207635e-17;-1.230986e-16;6.75875e-17;45;0;9.011667e-17;8.637309e-17;0;2.266771e-17;5.444474e-17;-1.110223e-16;3.177703e-17;0.779632;-1.110223e-16;1.110223e-16;0
0.166186;-1.680089;0.820471;8.39567e-13;0;0;8.39567e-13;2.220446e-16;0;3.944271e-17;0;0;0;0;2.288428e-16;-6.798235e-18;1.178205e-16;45;0;1.570941e-16;1.548777e-16;2.220446e-16;5.12573e-17;2.762813e-17;0;-2.362917e-17;0.820471;2.220446e-16;-2.220446e-16;0
0.233352;-1.680089;0.852669;8.39567e-13;0;0;8.39567e-13;0;2.220446e-16;-2.522327e-18;0;0;0;0;2.220732e-16;-2.864881e-20;1.11051e-16;45;0;1.480679e-16;1.480584e-16;0;-7.404932e-18;2.360279e-18;2.220446e-16;9.765211e-18;0.852669;2.220446e-16;-2.220446e-16;0
0.300517;-1.680089;0.874032;8.39567e-13;0;0;8.39567e-13;-1.110223e-16;0;-1.277391e-17;0;0;0;0;1.450773e-18;-1.124731e-16;5.696193e-17;45;0;7.594923e-17;7.547029e-17;-1.110223e-16;5.35582e-18;-3.090365e-17;0;-3.625947e-17;0.874032;-1.110223e-16;1.110223e-16;0
0.367682;-1.680089;0.908265;8.39567e-13;0;0;8.39567e-13;2.220446e-16;2.220446e-16;-2.673337e-18;0;0;0;0;2.247179e-16;2.193713e-16;2.673337e-18;45;0;3.56445e-18;1.480619e-16;2.220446e-16;-2.983912e-17;2.449244e-17;2.220446e-16;5.433156e-17;0.908265;4.440892e-16;-4.440892e-16;0
0.434848;-1.680089;0.916463;8.39567e-13;0;0;8.39567e-13;2.220446e-16;-1.110223e-16;1.276643e-17;0;0;0;0;2.225332e-16;-1.115109e-16;1.670221e-16;45;0;2.226961e-16;1.96379e-16;2.220446e-16;-2.737358e-17;5.290644e-17;-1.110223e-16;8.028001e-17;0.916463;1.110223e-16;-1.110223e-16;0
0.502013;-1.680089;0.916557;8.39567e-13;0;0;8.39567e-13;-1.110223e-16;-1.110223e-16;1.193489e-18;0;0;0;0;-1.098288e-16;-1.122158e-16;1.193489e-18;45;0;1.591318e-18;7.40277e-17;-1.110223e-16;1.253412e-17;-1.014714e-17;-1.110223e-16;-2.268127e-17;0.916557;-2.220446e-16;2.220446e-16;0
0.569178;-1.680089;0.964288;8.39567e-13;0;0;8.39567e-13;2.220446e-16;0;-4.907424e-18;0;0;0;0;2.22153e-16;-1.084064e-19;1.111307e-16;45;0;1.481743e-16;1.481382e-16;2.220446e-16;9.197458e-18;-1.90123e-17;0;-2.820976e-17;0.964288;2.220446e-16;-2.220446e-16;0
0.636344;-1.680089;0.985439;8.39567e-13;0;0;8.39567e-13;-1.110223e-16;-1.110223e-16;1.337684e-17;0;0;0;0;-9.764547e-17;-1.243991e-16;1.337684e-17;45;0;1.783578e-17;7.560944e-17;-1.110223e-16;2.15851e-17;5.168574e-18;-1.110223e-16;-1.641652e-17;0.985439;-2.220446e-16;2.220446e-16;0
0.703509;-1.680089;0.947056;8.39567e-13;0;0;8.39567e-13;0;-1.110223e-16;-2.179615e-17;0;0;0;0;4.125751e-18;-1.151481e-16;5.96369e-17;45;0;7.951587e-17;7.817692e-17;0;1.575285e-17;-5.934515e-17;-1.110223e-16;-7.509801e-17;0.947056;-1.110223e-16;1.110223e-16;0
0.770674;-1.680089;0.918804;8.39567e-13;0;0;8.39567e-13;-3.330669e-16;2.220446e-16;2.292312e-17;0;0;0;0;2.229896e-16;-3.340119e-16;2.785008e-16;45;0;3.713343e-16;3.237073e-16;-3.330669e-16;5.294152e-18;4.055208e-17;2.220446e-16;3.525793e-17;0.918804;-1.110223e-16;1.110223e-16;0
0.83784;-1.680089;0.88572;8.39567e-13;0;0;8.39567e-13;2.220446e-16;0;1.420591e-18;0;0;0;0;2.220537e-16;-9.088246e-21;1.110314e-16;45;0;1.480419e-16;1.480388e-16;2.220446e-16;-7.014812e-18;9.855993e-18;0;1.687081e-17;0.88572;2.220446e-16;-2.220446e-16;0
0.905005;-1.680089;0.878139;8.39567e-13;0;0;8.39567e-13;0;0;-8.201793e-18;0;0;0;0;8.201793e-18;-8.201793e-18;8.201793e-18;45;0;1.093572e-17;9.470614e-18;0;-6.113631e-17;4.473273e-17;0;1.05869e-16;0.878139;0;0;0
0.97217;-1.680089;0.864747;8.39567e-13;0;0;8.39567e-13;0;0;1.553124e-17;0;0;0;0;1.553124e-17;-1.553124e-17;1.553124e-17;45;0;2.070832e-17;1.793393e-17;0;3.106248e-17;0;0;-3.106248e-17;0.864747;0;0;0
1.039336;-1.680089;0.842306;8.39567e-13;0;0;8.39567e-13;0;2.220446e-16;7.438513e-18;0;0;0;0;2.222935e-16;-2.489118e-19;1.112712e-16;45;0;1.483616e-16;1.482787e-16;0;7.446167e-18;7.43086e-18;2.220446e-16;-1.53065e-20;0.842306;2.220446e-16;-2.220446e-16;0
1.106501;-1.680089;0.836466;8.39567e-13;0;0;8.39567e-13;-1.110223e-16;0;-2.983196e-17;0;0;0;0;7.50816e-18;-1.185305e-16;6.301931e-17;45;0;8.402575e-17;8.163819e-17;-1.110223e-16;-5.338651e-17;-6.277398e-18;0;4.710912e-17;0.836466;-1.110223e-16;1.110223e-16;0
1.173667;-1.680089;0.741677;8.39567e-13;0;0;8.39567e-13;-1.110223e-16;0;-5.619656e-17;0;0;0;0;2.347961e-17;-1.345019e-16;7.899077e-17;45;0;1.05321e-16;9.84324e-17;-1.110223e-16;-9.703105e-17;-1.536207e-17;0;8.166898e-17;0.741677;-1.110223e-16;1.110223e-16;0
1.240832;-1.680089;0.722652;8.39567e-13;0;0;8.39567e-13;4.440892e-16;-1.110223e-16;3.812408e-17;0;0;0;0;4.466953e-16;-1.136284e-16;2.801618e-16;45;0;3.735491e-16;3.420236e-16;4.440892e-16;7.624817e-17;0;-1.110223e-16;-7.624817e-17;0.722652;3.330669e-16;-3.330669e-16;0
1.307997;-1.680089;0.681433;8.39567e-13;0;0;8.39567e-13;2.220446e-16;2.220446e-16;3.211097e-17;0;0;0;0;2.541556e-16;1.899336e-16;3.211097e-17;45;0;4.281463e-17;1.526028e-16;2.220446e-16;3.942858e-17;2.479336e-17;2.220446e-16;-1.463522e-17;0.681433;4.440892e-16;-4.440892e-16;0
1.375163;-1.680089;0.637632;8.39567e-13;0;0;8.39567e-13;0;-1.110223e-16;3.493261e-17;0;0;0;0;1.007677e-17;-1.210991e-16;6.558792e-17;45;0;8.745056e-17;8.429265e-17;0;7.653733e-17;-6.672119e-18;-1.110223e-16;-8.320945e-17;0.637632;-1.110223e-16;1.110223e-16;0
1.442328;-1.680089;0.534041;8.39567e-13;0;0;8.39567e-13;2.220446e-16;0;9.342508e-17;0;0;0;0;2.561229e-16;-3.407834e-17;1.451006e-16;45;0;1.934675e-16;1.831679e-16;2.220446e-16;1.679703e-16;1.887983e-17;0;-1.490905e-16;0.534041;2.220446e-16;-2.220446e-16;0
1.509493;-1.680089;0.372691;8.39567e-13;0;0;8.39567e-13;4.440892e-16;-2.220446e-16;1.129785e-16;0;0;0;0;4.627292e-16;-2.406845e-16;3.517068e-16;45;0;4.689425e-16;4.128056e-16;4.440892e-16;1.920209e-16;3.393615e-17;-2.220446e-16;-1.580848e-16;0.372691;2.220446e-16;-2.220446e-16;0
-0.371137;-1.747254;0.270006;8.39567e-13;0;0;8.39567e-13;0;2.220446e-16;7.551325e-19;0;0;0;0;2.220472e-16;-2.568036e-21;1.110249e-16;45;0;1.480332e-16;1.480323e-16;0;-1.72454e-17;1.875567e-17;2.220446e-16;3.600107e-17;0.270006;2.220446e-16;-2.220446e-16;0
-0.303971;-1.747254;0.351278;8.39567e-13;0;0;8.39567e-13;0;0;-2.147357e-17;0;0;0;0;2.147357e-17;-2.147357e-17;2.147357e-17;45;0;2.863142e-17;2.479554e-17;0;-3.464553e-17;-8.301601e-18;0;2.634393e-17;0.351278;0;0;0
-0.236806;-1.747254;0.482561;8.39567e-13;0;0;8.39567e-13;0;0;-4.159606e-17;0;0;0;0;4.159606e-17;-4.159606e-17;4.159606e-17;45;0;5.546142e-17;4.8031e-17;0;-6.113916e-17;-2.205297e-17;0;3.908618e-17;0.482561;0;0;0
-0.169641;-1.747254;0.563977;8.39567e-13;0;0;8.39567e-13;0;2.220446e-16;-2.532066e-17;0;0;0;0;2.248954e-16;-2.850817e-18;1.138731e-16;45;0;1.518308e-16;1.508895e-16;0;-1.53211e-17;-3.532022e-17;2.220446e-16;-1.999912e-17;0.563977;2.220446e-16;-2.220446e-16;0
-0.102475;-1.747254;0.62367;8.39567e-13;0;0;8.39567e-13;0;0;2.336388e-19;0;0;0;0;2.336388e-19;-2.336388e-19;2.336388e-19;45;0;3.115184e-19;2.697829e-19;0;2.761599e-18;-2.294322e-18;0;-5.055921e-18;0.62367;0;0;0
-0.03531;-1.747254;0.691026;8.39567e-13;0;0;8.39567e-13;-2.220446e-16;-1.110223e-16;1.122565e-17;0;0;0;0;-1.098986e-16;-2.231683e-16;5.663482e-17;45;0;7.55131e-17;1.288512e-16;-2.220446e-16;-7.333774e-18;2.978508e-17;-1.110223e-16;3.711885e-17;0.691026;-3.330669e-16;3.330669e-16;0
0.031855;-1.747254;0.74541;8.39567e-13;0;0;8.39567e-13;-2.220446e-16;-1.110223e-16;-3.628638e-17;0;0;0;0;-1.002146e-16;-2.328523e-16;6.631884e-17;45;0;8.842512e-17;1.348711e-16;-2.220446e-16;-5.533963e-17;-1.723312e-17;-1.110223e-16;3.810652e-17;0.74541;-3.330669e-16;3.330669e-16;0
0.099021;-1.747254;0.771665;8.39567e-13;0;0;8.39567e-13;2.220446e-16;2.220446e-16;8.354794e-18;0;0;0;0;2.303994e-16;2.136898e-16;8.354794e-18;45;0;1.113972e-17;1.483438e-16;2.220446e-16;-6.240474e-18;2.295006e-17;2.220446e-16;2.919054e-17;0.771665;4.440892e-16;-4.440892e-16;0
0.166186;-1.747254;0.802702;8.39567e-13;0;0;8.39567e-13;-1.110223e-16;0;4.175151e-17;0;0;0;0;1.394874e-17;-1.24971e-16;6.945989e-17;45;0;9.261319e-17;8.833149e-17;-1.110223e-16;6.085672e-17;2.264631e-17;0;-3.821041e-17;0.802702;-1.110223e-16;1.110223e-16;0
0.233352;-1.747254;0.848021;8.39567e-13;0;0;8.39567e-13;2.220446e-16;0;-1.235428e-17;0;0;0;0;2.227299e-16;-6.852613e-19;1.117076e-16;45;0;1.489434e-16;1.487155e-16;2.220446e-16;-1.087075e-17;-1.383781e-17;0;-2.96706e-18;0.848021;2.220446e-16;-2.220446e-16;0
0.300517;-1.747254;0.882667;8.39567e-13;0;0;8.39567e-13;0;2.220446e-16;-2.606807e-17;0;0;0;0;2.250639e-16;-3.019339e-18;1.140416e-16;45;0;1.520555e-16;1.510591e-16;0;-2.622975e-17;-2.590639e-17;2.220446e-16;3.233568e-19;0.882667;2.220446e-16;-2.220446e-16;0
0.367682;-1.747254;0.903123;8.39567e-13;0;0;8.39567e-13;2.220446e-16;0;-1.031767e-17;0;0;0;0;2.22523e-16;-4.783971e-19;1.115007e-16;45;0;1.486676e-16;1.485084e-16;2.220446e-16;-3.440747e-17;1.377213e-17;0;4.81796e-17;0.903123;2.220446e-16;-2.220446e-16;0
0.434848;-1.747254;0.903327;8.39567e-13;0;0;8.39567e-13;0;0;4.175334e-17;0;0;0;0;4.175334e-17;-4.175334e-17;4.175334e-17;45;0;5.567111e-17;4.82126e-17;0;5.043011e-17;3.307657e-17;0;-1.735354e-17;0.903327;0;0;0
0.502013;-1.747254;0.90361;8.39567e-13;0;0;8.39567e-13;-1.110223e-16;-3.330669e-16;-1.547185e-17;0;0;0;0;-1.099494e-16;-3.341398e-16;1.120952e-16;45;0;1.494602e-16;1.966382e-16;-1.110223e-16;-2.15902e-17;-9.353488e-18;-3.330669e-16;1.223672e-17;0.90361;-4.440892e-16;4.440892e-16;0
0.569178;-1.747254;0.897362;8.39567e-13;0;0;8.39567e-13;2.220446e-16;0;-2.660093e-17;0;0;0;0;2.251869e-16;-3.14232e-18;1.141646e-16;45;0;1.522195e-16;1.511829e-16;2.220446e-16;-1.373746e-17;-3.94644e-17;0;-2.572694e-17;0.897362;2.220446e-16;-2.220446e-16;0
0.636344;-1.747254;0.928483;8.39567e-13;0;0;8.39567e-13;2.220446e-16;-1.110223e-16;4.142453e-17;0;0;0;0;2.271194e-16;-1.160971e-16;1.716082e-16;45;0;2.28811e-16;2.015822e-16;2.220446e-16;3.203188e-17;5.081718e-17;-1.110223e-16;1.87853e-17;0.928483;1.110223e-16;-1.110223e-16;0
0.703509;-1.747254;0.949842;8.39567e-13;0;0;8.39567e-13;-1.110223e-16;-3.330669e-16;2.739576e-18;0;0;0;0;-1.109885e-16;-3.331007e-16;1.110561e-16;45;0;1.480748e-16;1.958505e-16;-1.110223e-16;-4.767675e-18;1.024683e-17;-3.330669e-16;1.50145e-17;0.949842;-4.440892e-16;4.440892e-16;0
0.770674;-1.747254;0.926378;8.39567e-13;0;0;8.39567e-13;0;2.220446e-16;-1.253666e-17;0;0;0;0;2.227502e-16;-7.055785e-19;1.117279e-16;45;0;1.489705e-16;1.487359e-16;0;-2.499896e-19;-2.482332e-17;2.220446e-16;-2.457333e-17;0.926378;2.220446e-16;-2.220446e-16;0
0.83784;-1.747254;0.905774;8.39567e-13;0;0;8.39567e-13;-1.110223e-16;2.220446e-16;2.068054e-17;0;0;0;0;2.233238e-16;-1.123015e-16;1.678126e-16;45;0;2.237502e-16;1.972756e-16;-1.110223e-16;5.143145e-17;-1.007036e-17;2.220446e-16;-6.150181e-17;0.905774;1.110223e-16;-1.110223e-16;0
0.905005;-1.747254;0.897513;8.39567e-13;0;0;8.39567e-13;2.220446e-16;2.220446e-16;9.870415e-18;0;0;0;0;2.31915e-16;2.121742e-16;9.870415e-18;45;0;1.316055e-17;1.484679e-16;2.220446e-16;-2.090263e-19;1.994986e-17;2.220446e-16;2.015888e-17;0.897513;4.440892e-16;-4.440892e-16;0
0.97217;-1.747254;0.870927;8.39567e-13;0;0;8.39567e-13;-3.330669e-16;-1.110223e-16;-1.266611e-17;0;0;0;0;-1.103021e-16;-3.337871e-16;1.117425e-16;45;0;1.4899e-16;1.963703e-16;-3.330669e-16;-2.055105e-17;-4.781165e-18;-1.110223e-16;1.576989e-17;0.870927;-4.440892e-16;4.440892e-16;0
1.039336;-1.747254;0.839025;8.39567e-13;0;0;8.39567e-13;2.220446e-16;0;-5.000736e-17;0;0;0;0;2.327872e-16;-1.074259e-17;1.217649e-16;45;0;1.623532e-16;1.588934e-16;2.220446e-16;-2.981739e-17;-7.019733e-17;0;-4.037994e-17;0.839025;2.220446e-16;-2.220446e-16;0
1.106501;-1.747254;0.829109;8.39567e-13;0;0;8.39567e-13;-3.330669e-16;-1.110223e-16;-1.067625e-17;0;0;0;0;-1.105102e-16;-3.33579e-16;1.115345e-16;45;0;1.487126e-16;1.962126e-16;-3.330669e-16;-2.340788e-17;2.05538e-18;-1.110223e-16;2.546326e-17;0.829109;-4.440892e-16;4.440892e-16;0
1.173667;-1.747254;0.763599;8.39567e-13;0;0;8.39567e-13;0;2.220446e-16;4.385124e-18;0;0;0;0;2.221312e-16;-8.656737e-20;1.111089e-16;45;0;1.481452e-16;1.481163e-16;0;2.453713e-17;-1.576688e-17;2.220446e-16;-4.030402e-17;0.763599;2.220446e-16;-2.220446e-16;0
1.240832;-1.747254;0.709864;8.39567e-13;0;0;8.39567e-13;2.220446e-16;2.220446e-16;5.629892e-18;0;0;0;0;2.276745e-16;2.164147e-16;5.629892e-18;45;0;7.506523e-18;1.481724e-16;2.220446e-16;2.935399e-18;8.324384e-18;2.220446e-16;5.388985e-18;0.709864;4.440892e-16;-4.440892e-16;0
1.307997;-1.747254;0.659348;8.39567e-13;0;0;8.39567e-13;2.220446e-16;0;3.675387e-17;0;0;0;0;2.279702e-16;-5.925545e-18;1.169479e-16;45;0;1.559305e-16;1.539933e-16;2.220446e-16;4.891202e-17;2.459573e-17;0;-2.431628e-17;0.659348;2.220446e-16;-2.220446e-16;0
1.375163;-1.747254;0.613147;8.39567e-13;0;0;8.39567e-13;-2.220446e-16;-1.110223e-16;2.025472e-17;0;0;0;0;-1.074425e-16;-2.256244e-16;5.909096e-17;45;0;7.878795e-17;1.303135e-16;-2.220446e-16;4.710538e-17;-6.595946e-18;-1.110223e-16;-5.370132e-17;0.613147;-3.330669e-16;3.330669e-16;0
1.442328;-1.747254;0.498873;8.39567e-13;0;0;8.39567e-13;2.220446e-16;2.220446e-16;4.025923e-18;0;0;0;0;2.260705e-16;2.180187e-16;4.025923e-18;45;0;5.367897e-18;1.481027e-16;2.220446e-16;1.285678e-17;-4.804939e-18;2.220446e-16;-1.766172e-17;0.498873;4.440892e-16;-4.440892e-16;0
1.509493;-1.747254;0.354832;8.39567e-13;0;0;8.39567e-13;-2.220446e-16;0;-5.51121e-17;0;0;0;0;1.292646e-17;-2.349711e-16;1.239488e-16;45;0;1.65265e-16;1.611291e-16;-2.220446e-16;-1.421839e-16;3.195972e-17;0;1.741436e-16;0.354832;-2.220446e-16;2.220446e-16;0
-0.371137;-1.81442;0.277796;8.39567e-13;0;0;8.39567e-13;2.220446e-16;-2.220446e-16;2.6918e-17;0;0;0;0;2.236702e-16;-2.236702e-16;2.236702e-16;45;0;2.98227e-16;2.582722e-16;2.220446e-16;3.377739e-17;2.005861e-17;-2.220446e-16;-1.371878e-17;0.277796;0;0;0
-0.303971;-1.81442;0.351815;8.39567e-13;0;0;8.39567e-13;2.220446e-16;0;-2.33029e-17;0;0;0;0;2.244638e-16;-2.419211e-18;1.134415e-16;45;0;1.512553e-16;1.504554e-16;2.220446e-16;-5.772116e-17;1.111535e-17;0;6.883651e-17;0.351815;2.220446e-16;-2.220446e-16;0
-0.236806;-1.81442;0.482972;8.39567e-13;0;0;8.39567e-13;-2.220446e-16;-3.330669e-16;4.235782e-18;0;0;0;0;-2.218832e-16;-3.332283e-16;5.567252e-17;45;0;7.423003e-17;1.95886e-16;-2.220446e-16;2.990971e-18;5.480594e-18;-3.330669e-16;2.489623e-18;0.482972;-5.551115e-16;5.551115e-16;0
-0.169641;-1.81442;0.552679;8.39567e-13;0;0;8.39567e-13;0;2.220446e-16;5.164429e-18;0;0;0;0;2.221646e-16;-1.200521e-19;1.111424e-16;45;0;1.481898e-16;1.481498e-16;0;1.758e-17;-7.251137e-18;2.220446e-16;-2.483113e-17;0.552679;2.220446e-16;-2.220446e-16;0
-0.102475;-1.81442;0.608614;8.39567e-13;0;0;8.39567e-13;0;-1.110223e-16;4.2203e-17;0;0;0;0;1.422106e-17;-1.252434e-16;6.973221e-17;45;0;9.297629e-17;8.861711e-17;0;1.308893e-17;7.131708e-17;-1.110223e-16;5.822814e-17;0.608614;-1.110223e-16;1.110223e-16;0
-0.03531;-1.81442;0.683064;8.39567e-13;0;0;8.39567e-13;2.220446e-16;0;5.317316e-18;0;0;0;0;2.221719e-16;-1.272612e-19;1.111496e-16;45;0;1.481994e-16;1.48157e-16;2.220446e-16;1.252418e-17;-1.889552e-18;0;-1.441374e-17;0.683064;2.220446e-16;-2.220446e-16;0
0.031855;-1.81442;0.73512;8.39567e-13;0;0;8.39567e-13;0;0;3.934708e-18;0;0;0;0;3.934708e-18;-3.934708e-18;3.934708e-18;45;0;5.246277e-18;4.543409e-18;0;-8.831756e-18;1.670117e-17;0;2.553293e-17;0.73512;0;0;0
0.099021;-1.81442;0.776655;8.39567e-13;0;0;8.39567e-13;-3.330669e-16;-1.110223e-16;-2.679587e-17;0;0;0;0;-1.078344e-16;-3.362548e-16;1.142102e-16;45;0;1.522803e-16;1.982543e-16;-3.330669e-16;-3.105132e-17;-2.254041e-17;-1.110223e-16;8.510911e-18;0.776655;-4.440892e-16;4.440892e-16;0
0.166186;-1.81442;0.817179;8.39567e-13;0;0;8.39567e-13;-1.110223e-16;0;5.02515e-18;0;0;0;0;2.269869e-19;-1.112493e-16;5.573814e-17;45;0;7.431752e-17;7.424197e-17;-1.110223e-16;-1.763549e-17;2.768579e-17;0;4.532129e-17;0.817179;-1.110223e-16;1.110223e-16;0
0.233352;-1.81442;0.838275;8.39567e-13;0;0;8.39567e-13;0;0;-2.940083e-17;0;0;0;0;2.940083e-17;-2.940083e-17;2.940083e-17;45;0;3.920111e-17;3.394915e-17;0;-3.190013e-17;-2.690153e-17;0;4.998599e-18;0.838275;0;0;0
0.300517;-1.81442;0.8675;8.39567e-13;0;0;8.39567e-13;2.220446e-16;2.220446e-16;-2.18602e-17;0;0;0;0;2.439048e-16;2.001844e-16;2.18602e-17;45;0;2.914693e-17;1.501664e-16;2.220446e-16;-2.658786e-17;-1.713254e-17;2.220446e-16;9.45532e-18;0.8675;4.440892e-16;-4.440892e-16;0
0.367682;-1.81442;0.913057;8.39567e-13;0;0;8.39567e-13;0;2.220446e-16;1.78663e-17;0;0;0;0;2.23473e-16;-1.428381e-18;1.124507e-16;45;0;1.499342e-16;1.494604e-16;0;-4.083614e-17;7.656873e-17;2.220446e-16;1.174049e-16;0.913057;2.220446e-16;-2.220446e-16;0
0.434848;-1.81442;0.924303;8.39567e-13;0;0;8.39567e-13;-1.110223e-16;-1.110223e-16;2.639591e-19;0;0;0;0;-1.107583e-16;-1.112863e-16;2.639591e-19;45;0;3.519454e-19;7.40155e-17;-1.110223e-16;-7.193517e-18;7.721435e-18;-1.110223e-16;1.491495e-17;0.924303;-2.220446e-16;2.220446e-16;0
0.502013;-1.81442;0.919914;8.39567e-13;0;0;8.39567e-13;0;2.220446e-16;-3.367077e-17;0;0;0;0;2.270381e-16;-4.993526e-18;1.160158e-16;45;0;1.546878e-16;1.530504e-16;0;-5.185509e-17;-1.548645e-17;2.220446e-16;3.636863e-17;0.919914;2.220446e-16;-2.220446e-16;0
0.569178;-1.81442;0.92514;8.39567e-13;0;0;8.39567e-13;-1.110223e-16;-1.110223e-16;-7.934931e-18;0;0;0;0;-1.030874e-16;-1.189572e-16;7.934931e-18;45;0;1.057991e-17;7.457983e-17;-1.110223e-16;4.744727e-18;-2.061459e-17;-1.110223e-16;-2.535932e-17;0.92514;-2.220446e-16;2.220446e-16;0
0.636344;-1.81442;0.930441;8.39567e-13;0;0;8.39567e-13;0;2.220446e-16;1.613426e-17;0;0;0;0;2.232108e-16;-1.166226e-18;1.121885e-16;45;0;1.495847e-16;1.491975e-16;0;2.338987e-17;8.878646e-18;2.220446e-16;-1.451123e-17;0.930441;2.220446e-16;-2.220446e-16;0
0.703509;-1.81442;0.928989;8.39567e-13;0;0;8.39567e-13;2.220446e-16;-3.330669e-16;3.753037e-17;0;0;0;0;2.245705e-16;-3.355928e-16;2.800816e-16;45;0;3.734422e-16;3.255209e-16;2.220446e-16;3.893131e-17;3.612944e-17;-3.330669e-16;-2.80187e-18;0.928989;-1.110223e-16;1.110223e-16;0
0.770674;-1.81442;0.928965;8.39567e-13;0;0;8.39567e-13;0;-1.110223e-16;2.916323e-17;0;0;0;0;7.194365e-18;-1.182167e-16;6.270552e-17;45;0;8.360735e-17;8.131539e-17;0;4.026014e-17;1.806632e-17;-1.110223e-16;-2.219382e-17;0.928965;-1.110223e-16;1.110223e-16;0
0.83784;-1.81442;0.929101;8.39567e-13;0;0;8.39567e-13;2.220446e-16;2.220446e-16;-2.47781e-18;0;0;0;0;2.245224e-16;2.195668e-16;2.47781e-18;45;0;3.303747e-18;1.480574e-16;2.220446e-16;7.794531e-18;-1.275015e-17;2.220446e-16;-2.054468e-17;0.929101;4.440892e-16;-4.440892e-16;0
0.905005;-1.81442;0.908636;8.39567e-13;0;0;8.39567e-13;2.220446e-16;0;-2.081622e-17;0;0;0;0;2.239792e-16;-1.934621e-18;1.129569e-16;45;0;1.506092e-16;1.499685e-16;2.220446e-16;-2.693959e-17;-1.469284e-17;0;1.224675e-17;0.908636;2.220446e-16;-2.220446e-16;0
0.97217;-1.81442;0.879877;8.39567e-13;0;0;8.39567e-13;-1.110223e-16;0;3.270319e-17;0;0;0;0;8.916999e-18;-1.199393e-16;6.442815e-17;45;0;8.59042e-17;8.309151e-17;-1.110223e-16;5.598636e-17;9.420018e-18;0;-4.656634e-17;0.879877;-1.110223e-16;1.110223e-16;0
1.039336;-1.81442;0.845455;8.39567e-13;0;0;8.39567e-13;-1.110223e-16;2.220446e-16;1.251438e-17;0;0;0;0;2.225142e-16;-1.114918e-16;1.67003e-16;45;0;2.226707e-16;1.963574e-16;-1.110223e-16;-1.784449e-17;4.287326e-17;2.220446e-16;6.071774e-17;0.845455;1.110223e-16;-1.110223e-16;0
1.106501;-1.81442;0.816602;8.39567e-13;0;0;8.39567e-13;-1.110223e-16;0;1.786217e-17;0;0;0;0;2.803041e-18;-1.138253e-16;5.83142e-17;45;0;7.775226e-17;7.683495e-17;-1.110223e-16;4.041123e-17;-4.686895e-18;0;-4.509813e-17;0.816602;-1.110223e-16;1.110223e-16;0
1.173667;-1.81442;0.78536;8.39567e-13;0;0;8.39567e-13;-1.110223e-16;0;1.721133e-17;0;0;0;0;2.606986e-18;-1.136293e-16;5.811814e-17;45;0;7.749085e-17;7.663664e-17;-1.110223e-16;3.442266e-17;0;0;-3.442266e-17;0.78536;-1.110223e-16;1.110223e-16;0
1.240832;-1.81442;0.728969;8.39567e-13;0;0;8.39567e-13;0;0;1.26677e-17;0;0;0;0;1.26677e-17;-1.26677e-17;1.26677e-17;45;0;1.689026e-17;1.462739e-17;0;2.533539e-17;0;0;-2.533539e-17;0.728969;0;0;0
1.307997;-1.81442;0.671569;8.39567e-13;0;0;8.39567e-13;0;2.220446e-16;2.106512e-17;0;0;0;0;2.240254e-16;-1.980754e-18;1.130031e-16;45;0;1.506707e-16;1.500149e-16;0;4.213023e-17;0;2.220446e-16;-4.213023e-17;0.671569;2.220446e-16;-2.220446e-16;0
1.375163;-1.81442;0.603688;8.39567e-13;0;0;8.39567e-13;0;2.220446e-16;2.941979e-17;0;0;0;0;2.258764e-16;-3.831846e-18;1.148541e-16;45;0;1.531389e-16;1.518777e-16;0;4.10201e-18;5.473757e-17;2.220446e-16;5.063556e-17;0.603688;2.220446e-16;-2.220446e-16;0
1.442328;-1.81442;0.520963;8.39567e-13;0;0;8.39567e-13;0;2.220446e-16;1.83913e-17;0;0;0;0;2.235576e-16;-1.512988e-18;1.125353e-16;45;0;1.500471e-16;1.495453e-16;0;5.737497e-17;-2.059236e-17;2.220446e-16;-7.796733e-17;0.520963;2.220446e-16;-2.220446e-16;0
1.509493;-1.81442;0.382361;8.39567e-13;0;0;8.39567e-13;2.220446e-16;0;-6.214398e-17;0;0;0;0;2.382537e-16;-1.620908e-17;1.272314e-16;45;0;1.696419e-16;1.645052e-16;2.220446e-16;-1.24288e-16;0;0;1.24288e-16;0.382361;2.220446e-16;-2.220446e-16;0
-0.371137;-1.881585;0.263311;8.39567e-13;0;0;8.39567e-13;0;0;-8.053341e-17;0;0;0;0;8.053341e-17;-8.053341e-17;8.053341e-17;45;0;1.073779e-16;9.299198e-17;0;-8.436754e-17;-7.669929e-17;0;7.668249e-18;0.263311;0;0;0
-0.303971;-1.881585;0.336806;8.39567e-13;0;0;8.39567e-13;2.220446e-16;0;7.926731e-18;0;0;0;0;2.223272e-16;-2.826153e-19;1.113049e-16;45;0;1.484066e-16;1.483124e-16;2.220446e-16;1.585346e-17;0;0;-1.585346e-17;0.336806;2.220446e-16;-2.220446e-16;0
-0.236806;-1.881585;0.464018;8.39567e-13;0;0;8.39567e-13;-2.220446e-16;0;-1.215775e-17;0;0;0;0;6.636972e-19;-2.227083e-16;1.11686e-16;45;0;1.489147e-16;1.486939e-16;-2.220446e-16;-2.43155e-17;0;0;2.43155e-17;0.464018;-2.220446e-16;2.220446e-16;0
-0.169641;-1.881585;0.554003;8.39567e-13;0;0;8.39567e-13;-2.220446e-16;2.220446e-16;9.979205e-18;0;0;0;0;2.222687e-16;-2.222687e-16;2.222687e-16;45;0;2.963583e-16;2.566538e-16;-2.220446e-16;1.15493e-17;8.409113e-18;2.220446e-16;-3.140184e-18;0.554003;0;0;0
-0.102475;-1.881585;0.617315;8.39567e-13;0;0;8.39567e-13;0;-1.110223e-16;-4.373994e-17;0;0;0;0;1.516183e-17;-1.261841e-16;7.067298e-17;45;0;9.423064e-17;8.960531e-17;0;-7.329962e-17;-1.418027e-17;-1.110223e-16;5.911935e-17;0.617315;-1.110223e-16;1.110223e-16;0
-0.03531;-1.881585;0.694563;8.39567e-13;0;0;8.39567e-13;0;-3.330669e-16;1.168849e-17;0;0;0;0;4.096863e-19;-3.334766e-16;1.669431e-16;45;0;2.225909e-16;2.224544e-16;0;3.845721e-18;1.953126e-17;-3.330669e-16;1.568554e-17;0.694563;-3.330669e-16;3.330669e-16;0
0.031855;-1.881585;0.738257;8.39567e-13;0;0;8.39567e-13;-1.110223e-16;-1.110223e-16;-1.130712e-18;0;0;0;0;-1.098916e-16;-1.12153e-16;1.130712e-18;45;0;1.507616e-18;7.402638e-17;-1.110223e-16;-1.112536e-17;8.86394e-18;-1.110223e-16;1.99893e-17;0.738257;-2.220446e-16;2.220446e-16;0
0.099021;-1.881585;0.777802;8.39567e-13;0;0;8.39567e-13;2.220446e-16;-1.110223e-16;-2.507157e-17;0;0;0;0;2.239213e-16;-1.12899e-16;1.684101e-16;45;0;2.245468e-16;1.979533e-16;2.220446e-16;-2.342898e-17;-2.671416e-17;-1.110223e-16;-3.285171e-18;0.777802;1.110223e-16;-1.110223e-16;0
0.166186;-1.881585;0.813614;8.39567e-13;0;0;8.39567e-13;0;0;-2.29748e-17;0;0;0;0;2.29748e-17;-2.29748e-17;2.29748e-17;45;0;3.063307e-17;2.652902e-17;0;-1.875177e-17;-2.719783e-17;0;-8.446058e-18;0.813614;0;0;0
0.233352;-1.881585;0.847321;8.39567e-13;0;0;8.39567e-13;-1.110223e-16;0;-2.077645e-17;0;0;0;0;3.76067e-18;-1.14783e-16;5.927182e-17;45;0;7.902909e-17;7.780584e-17;-1.110223e-16;-2.508294e-17;-1.646997e-17;0;8.61297e-18;0.847321;-1.110223e-16;1.110223e-16;0
0.300517;-1.881585;0.870304;8.39567e-13;0;0;8.39567e-13;0;2.220446e-16;3.046313e-18;0;0;0;0;2.220864e-16;-4.178564e-20;1.110641e-16;45;0;1.480854e-16;1.480715e-16;0;-1.695563e-17;2.304826e-17;2.220446e-16;4.000389e-17;0.870304;2.220446e-16;-2.220446e-16;0
0.367682;-1.881585;0.919469;8.39567e-13;0;0;8.39567e-13;-3.330669e-16;0;7.976734e-17;0;0;0;0;1.811817e-17;-3.511851e-16;1.846516e-16;45;0;2.462022e-16;2.403905e-16;-3.330669e-16;1.13366e-16;4.616873e-17;0;-6.719723e-17;0.919469;-3.330669e-16;3.330669e-16;0
0.434848;-1.881585;0.944787;8.39567e-13;0;0;8.39567e-13;-1.110223e-16;2.220446e-16;2.897119e-17;0;0;0;0;2.245458e-16;-1.135235e-16;1.690347e-16;45;0;2.253796e-16;1.986618e-16;-1.110223e-16;1.771623e-17;4.022614e-17;2.220446e-16;2.250991e-17;0.944787;1.110223e-16;-1.110223e-16;0
0.502013;-1.881585;0.94901;8.39567e-13;0;0;8.39567e-13;-4.440892e-16;2.220446e-16;7.970264e-18;0;0;0;0;2.221399e-16;-4.441846e-16;3.331623e-16;45;0;4.442163e-16;3.91758e-16;-4.440892e-16;1.338416e-17;2.556364e-18;2.220446e-16;-1.08278e-17;0.94901;-2.220446e-16;2.220446e-16;0
0.569178;-1.881585;0.966953;8.39567e-13;0;0;8.39567e-13;0;0;2.514703e-17;0;0;0;0;2.514703e-17;-2.514703e-17;2.514703e-17;45;0;3.352937e-17;2.903729e-17;0;1.221586e-17;3.807819e-17;0;2.586233e-17;0.966953;0;0;0
0.636344;-1.881585;0.935476;8.39567e-13;0;0;8.39567e-13;-4.440892e-16;2.220446e-16;-2.152026e-18;0;0;0;0;2.220516e-16;-4.440961e-16;3.330739e-16;45;0;4.440985e-16;3.916578e-16;-4.440892e-16;-6.78895e-18;2.484899e-18;2.220446e-16;9.273849e-18;0.935476;-2.220446e-16;2.220446e-16;0
0.703509;-1.881585;0.900034;8.39567e-13;0;0;8.39567e-13;0;0;1.446889e-19;0;0;0;0;1.446889e-19;-1.446889e-19;1.446889e-19;45;0;1.929186e-19;1.670724e-19;0;-2.740381e-17;2.769319e-17;0;5.5097e-17;0.900034;0;0;0
0.770674;-1.881585;0.919;8.39567e-13;0;0;8.39567e-13;0;0;-1.935032e-17;0;0;0;0;1.935032e-17;-1.935032e-17;1.935032e-17;45;0;2.580043e-17;2.234383e-17;0;-3.927996e-18;-3.477264e-17;0;-3.084465e-17;0.919;0;0;0
0.83784;-1.881585;0.920766;8.39567e-13;0;0;8.39567e-13;-1.110223e-16;0;8.703072e-18;0;0;0;0;6.780949e-19;-1.117004e-16;5.618925e-17;45;0;7.491899e-17;7.469399e-17;-1.110223e-16;-1.209642e-17;2.950256e-17;0;4.159898e-17;0.920766;-1.110223e-16;1.110223e-16;0
0.905005;-1.881585;0.905698;8.39567e-13;0;0;8.39567e-13;0;0;-1.835882e-17;0;0;0;0;1.835882e-17;-1.835882e-17;1.835882e-17;45;0;2.447842e-17;2.119894e-17;0;-4.846621e-17;1.174858e-17;0;6.021478e-17;0.905698;0;0;0
0.97217;-1.881585;0.878768;8.39567e-13;0;0;8.39567e-13;0;0;-6.459994e-18;0;0;0;0;6.459994e-18;-6.459994e-18;6.459994e-18;45;0;8.613325e-18;7.459358e-18;0;-5.807366e-18;-7.112622e-18;0;-1.305255e-18;0.878768;0;0;0
1.039336;-1.881585;0.851312;8.39567e-13;0;0;8.39567e-13;2.220446e-16;0;2.978716e-17;0;0;0;0;2.259711e-16;-3.926497e-18;1.149488e-16;45;0;1.532651e-16;1.519731e-16;2.220446e-16;1.1107e-17;4.846732e-17;0;3.736033e-17;0.851312;2.220446e-16;-2.220446e-16;0
1.106501;-1.881585;0.825965;8.39567e-13;0;0;8.39567e-13;2.220446e-16;2.220446e-16;9.098605e-18;0;0;0;0;2.311432e-16;2.12946e-16;9.098605e-18;45;0;1.213147e-17;1.484021e-16;2.220446e-16;8.51811e-18;9.679099e-18;2.220446e-16;1.16099e-18;0.825965;4.440892e-16;-4.440892e-16;0
1.173667;-1.881585;0.801284;8.39567e-13;0;0;8.39567e-13;2.220446e-16;0;3.443958e-17;0;0;0;0;2.272636e-16;-5.218982e-18;1.162413e-16;45;0;1.549884e-16;1.532783e-16;2.220446e-16;1.854599e-17;5.033317e-17;0;3.178718e-17;0.801284;2.220446e-16;-2.220446e-16;0
1.240832;-1.881585;0.744703;8.39567e-13;0;0;8.39567e-13;-1.110223e-16;-4.440892e-16;4.933311e-17;0;0;0;0;-1.038688e-16;-4.512427e-16;1.736869e-16;45;0;2.315826e-16;2.728766e-16;-1.110223e-16;5.231334e-17;4.635289e-17;-4.440892e-16;-5.960458e-18;0.744703;-5.551115e-16;5.551115e-16;0
1.307997;-1.881585;0.690926;8.39567e-13;0;0;8.39567e-13;0;0;1.005094e-17;0;0;0;0;1.005094e-17;-1.005094e-17;1.005094e-17;45;0;1.340126e-17;1.160583e-17;0;1.280676e-18;1.882121e-17;0;1.754054e-17;0.690926;0;0;0
1.375163;-1.881585;0.624025;8.39567e-13;0;0;8.39567e-13;-4.440892e-16;-1.110223e-16;4.322475e-17;0;0;0;0;-1.055041e-16;-4.496074e-16;1.720516e-16;45;0;2.294022e-16;2.714918e-16;-4.440892e-16;1.228008e-16;-3.635126e-17;-1.110223e-16;-1.59152e-16;0.624025;-5.551115e-16;5.551115e-16;0
1.442328;-1.881585;0.558265;8.39567e-13;0;0;8.39567e-13;2.220446e-16;2.220446e-16;4.204279e-17;0;0;0;0;2.640874e-16;1.800018e-16;4.204279e-17;45;0;5.605705e-17;1.55787e-16;2.220446e-16;8.343263e-17;6.529423e-19;2.220446e-16;-8.277969e-17;0.558265;4.440892e-16;-4.440892e-16;0
1.509493;-1.881585;0.424004;8.39567e-13;0;0;8.39567e-13;-1.110223e-16;2.220446e-16;-2.094741e-17;0;0;0;0;2.233569e-16;-1.123346e-16;1.678457e-16;45;0;2.237943e-16;1.973131e-16;-1.110223e-16;-3.482404e-17;-7.070778e-18;2.220446e-16;2.775326e-17;0.424004;1.110223e-16;-1.110223e-16;0
-0.371137;-1.94875;0.249982;8.39567e-13;0;0;8.39567e-13;2.220446e-16;2.220446e-16;3.75701e-17;0;0;0;0;2.596147e-16;1.844745e-16;3.75701e-17;45;0;5.009346e-17;1.542557e-16;2.220446e-16;-1.559931e-17;9.07395e-17;2.220446e-16;1.063388e-16;0.249982;4.440892e-16;-4.440892e-16;0
-0.303971;-1.94875;0.334078;8.39567e-13;0;0;8.39567e-13;-3.330669e-16;2.220446e-16;-6.790835e-17;0;0;0;0;2.302313e-16;-3.412536e-16;2.857424e-16;45;0;3.809899e-16;3.320159e-16;-3.330669e-16;-1.358167e-16;0;2.220446e-16;1.358167e-16;0.334078;-1.110223e-16;1.110223e-16;0
-0.236806;-1.94875;0.449399;8.39567e-13;0;0;8.39567e-13;0;-1.110223e-16;-1.517552e-17;0;0;0;0;2.036953e-18;-1.130593e-16;5.754811e-17;45;0;7.673081e-17;7.606091e-17;0;-2.476708e-17;-5.583957e-18;-1.110223e-16;1.918313e-17;0.449399;-1.110223e-16;1.110223e-16;0
-0.169641;-1.94875;0.544294;8.39567e-13;0;0;8.39567e-13;2.220446e-16;2.220446e-16;1.75339e-18;0;0;0;0;2.23798e-16;2.202912e-16;1.75339e-18;45;0;2.337854e-18;1.480436e-16;2.220446e-16;-2.6464e-17;2.997079e-17;2.220446e-16;5.643479e-17;0.544294;4.440892e-16;-4.440892e-16;0
-0.102475;-1.94875;0.635724;8.39567e-13;0;0;8.39567e-13;0;2.220446e-16;-3.824109e-19;0;0;0;0;2.220453e-16;-6.585958e-22;1.11023e-16;45;0;1.480306e-16;1.480304e-16;0;1.38404e-17;-1.460522e-17;2.220446e-16;-2.844562e-17;0.635724;2.220446e-16;-2.220446e-16;0
-0.03531;-1.94875;0.697649;8.39567e-13;0;0;8.39567e-13;0;0;-3.378201e-17;0;0;0;0;3.378201e-17;-3.378201e-17;3.378201e-17;45;0;4.504267e-17;3.90081e-17;0;-4.445137e-17;-2.311264e-17;0;2.133874e-17;0.697649;0;0;0
0.031855;-1.94875;0.714953;8.39567e-13;0;0;8.39567e-13;0;2.220446e-16;-9.738163e-18;0;0;0;0;2.224709e-16;-4.262663e-19;1.114486e-16;45;0;1.485981e-16;1.484562e-16;0;7.736312e-18;-2.721264e-17;2.220446e-16;-3.494895e-17;0.714953;2.220446e-16;-2.220446e-16;0
0.099021;-1.94875;0.750311;8.39567e-13;0;0;8.39567e-13;0;0;1.715945e-17;0;0;0;0;1.715945e-17;-1.715945e-17;1.715945e-17;45;0;2.287927e-17;1.981403e-17;0;5.811021e-17;-2.37913e-17;0;-8.190151e-17;0.750311;0;0;0
0.166186;-1.94875;0.78935;8.39567e-13;0;0;8.39567e-13;-1.110223e-16;-3.330669e-16;4.145935e-18;0;0;0;0;-1.109449e-16;-3.331443e-16;1.110997e-16;45;0;1.481329e-16;1.958834e-16;-1.110223e-16;-3.578574e-19;8.649728e-18;-3.330669e-16;9.007585e-18;0.78935;-4.440892e-16;4.440892e-16;0
0.233352;-1.94875;0.836863;8.39567e-13;0;0;8.39567e-13;-1.110223e-16;0;-9.118083e-18;0;0;0;0;7.438694e-19;-1.117662e-16;5.625502e-17;45;0;7.500669e-17;7.475997e-17;-1.110223e-16;1.823402e-17;-3.647018e-17;0;-5.47042e-17;0.836863;-1.110223e-16;1.110223e-16;0
0.300517;-1.94875;0.865943;8.39567e-13;0;0;8.39567e-13;-3.330669e-16;2.220446e-16;-2.143945e-17;0;0;0;0;2.228714e-16;-3.338937e-16;2.783826e-16;45;0;3.711767e-16;3.235717e-16;-3.330669e-16;-2.372141e-17;-1.91575e-17;2.220446e-16;4.563904e-18;0.865943;-1.110223e-16;1.110223e-16;0
0.367682;-1.94875;0.883423;8.39567e-13;0;0;8.39567e-13;-1.110223e-16;-1.110223e-16;3.711982e-17;0;0;0;0;-7.390249e-17;-1.481421e-16;3.711982e-17;45;0;4.949308e-17;8.552997e-17;-1.110223e-16;5.04436e-18;6.919527e-17;-1.110223e-16;6.415091e-17;0.883423;-2.220446e-16;2.220446e-16;0
0.434848;-1.94875;0.907536;8.39567e-13;0;0;8.39567e-13;0;0;5.253925e-18;0;0;0;0;5.253925e-18;-5.253925e-18;5.253925e-18;45;0;7.005233e-18;6.066709e-18;0;1.295712e-17;-2.449269e-18;0;-1.540639e-17;0.907536;0;0;0
0.502013;-1.94875;0.92957;8.39567e-13;0;0;8.39567e-13;2.220446e-16;0;-2.061946e-17;0;0;0;0;2.239431e-16;-1.898527e-18;1.129208e-16;45;0;1.505611e-16;1.499323e-16;2.220446e-16;-3.201716e-17;-9.221757e-18;0;2.279541e-17;0.92957;2.220446e-16;-2.220446e-16;0
0.569178;-1.94875;0.932617;8.39567e-13;0;0;8.39567e-13;2.220446e-16;2.220446e-16;4.15862e-17;0;0;0;0;2.636308e-16;1.804584e-16;4.15862e-17;45;0;5.544827e-17;1.556235e-16;2.220446e-16;3.79201e-17;4.52523e-17;2.220446e-16;7.332203e-18;0.932617;4.440892e-16;-4.440892e-16;0
0.636344;-1.94875;0.928887;8.39567e-13;0;0;8.39567e-13;0;2.220446e-16;1.660427e-17;0;0;0;0;2.232794e-16;-1.234784e-18;1.122571e-16;45;0;1.496761e-16;1.492662e-16;0;2.815645e-17;5.052098e-18;2.220446e-16;-2.310435e-17;0.928887;2.220446e-16;-2.220446e-16;0
0.703509;-1.94875;0.918079;8.39567e-13;0;0;8.39567e-13;2.220446e-16;0;-4.888802e-18;0;0;0;0;2.221522e-16;-1.075856e-19;1.111299e-16;45;0;1.481732e-16;1.481373e-16;2.220446e-16;-4.624128e-18;-5.153476e-18;0;-5.293484e-19;0.918079;2.220446e-16;-2.220446e-16;0
0.770674;-1.94875;0.928533;8.39567e-13;0;0;8.39567e-13;2.220446e-16;2.220446e-16;2.016582e-17;0;0;0;0;2.422104e-16;2.018788e-16;2.016582e-17;45;0;2.688777e-17;1.4985e-16;2.220446e-16;6.150255e-18;3.41814e-17;2.220446e-16;2.803114e-17;0.928533;4.440892e-16;-4.440892e-16;0
0.83784;-1.94875;0.91502;8.39567e-13;0;0;8.39567e-13;-1.110223e-16;0;1.78572e-18;0;0;0;0;2.871471e-20;-1.11051e-16;5.553986e-17;45;0;7.405315e-17;7.404358e-17;-1.110223e-16;1.123156e-17;-7.660115e-18;0;-1.889167e-17;0.91502;-1.110223e-16;1.110223e-16;0
0.905005;-1.94875;0.912908;8.39567e-13;0;0;8.39567e-13;0;2.220446e-16;-3.228963e-17;0;0;0;0;2.266448e-16;-4.600238e-18;1.156225e-16;45;0;1.541634e-16;1.526531e-16;0;-4.181065e-17;-2.276861e-17;2.220446e-16;1.904204e-17;0.912908;2.220446e-16;-2.220446e-16;0
0.97217;-1.94875;0.888584;8.39567e-13;0;0;8.39567e-13;-1.110223e-16;-1.110223e-16;2.483251e-17;0;0;0;0;-8.618979e-17;-1.358548e-16;2.483251e-17;45;0;3.311001e-17;7.937509e-17;-1.110223e-16;3.299034e-17;1.667468e-17;-1.110223e-16;-1.631566e-17;0.888584;-2.220446e-16;2.220446e-16;0
1.039336;-1.94875;0.852034;8.39567e-13;0;0;8.39567e-13;-1.110223e-16;-1.110223e-16;1.094165e-17;0;0;0;0;-1.000807e-16;-1.21964e-16;1.094165e-17;45;0;1.458886e-17;7.508547e-17;-1.110223e-16;-1.075714e-17;3.264044e-17;-1.110223e-16;4.339758e-17;0.852034;-2.220446e-16;2.220446e-16;0
1.106501;-1.94875;0.865322;8.39567e-13;0;0;8.39567e-13;2.220446e-16;0;2.528613e-17;0;0;0;0;2.248878e-16;-2.843144e-18;1.138654e-16;45;0;1.518206e-16;1.508818e-16;2.220446e-16;6.034619e-17;-9.773933e-18;0;-7.012012e-17;0.865322;2.220446e-16;-2.220446e-16;0
1.173667;-1.94875;0.822653;8.39567e-13;0;0;8.39567e-13;0;0;1.99561e-17;0;0;0;0;1.99561e-17;-1.99561e-17;1.99561e-17;45;0;2.660813e-17;2.304332e-17;0;2.064588e-17;1.926632e-17;0;-1.379559e-18;0.822653;0;0;0
1.240832;-1.94875;0.741711;8.39567e-13;0;0;8.39567e-13;0;0;2.53153e-17;0;0;0;0;2.53153e-17;-2.53153e-17;2.53153e-17;45;0;3.375374e-17;2.923159e-17;0;1.170216e-17;3.892844e-17;0;2.722628e-17;0.741711;0;0;0
1.307997;-1.94875;0.682326;8.39567e-13;0;0;8.39567e-13;0;-1.110223e-16;1.070758e-17;0;0;0;0;1.023264e-18;-1.120456e-16;5.653441e-17;45;0;7.537922e-17;7.504046e-17;0;3.629043e-17;-1.487527e-17;-1.110223e-16;-5.11657e-17;0.682326;-1.110223e-16;1.110223e-16;0
1.375163;-1.94875;0.612089;8.39567e-13;0;0;8.39567e-13;2.220446e-16;-1.110223e-16;1.214671e-17;0;0;0;0;2.22487e-16;-1.114647e-16;1.669758e-16;45;0;2.226345e-16;1.963266e-16;2.220446e-16;2.429342e-17;0;-1.110223e-16;-2.429342e-17;0.612089;1.110223e-16;-1.110223e-16;0
1.442328;-1.94875;0.514054;8.39567e-13;0;0;8.39567e-13;-2.220446e-16;-1.110223e-16;-5.983287e-17;0;0;0;0;-8.491569e-17;-2.481512e-16;8.161777e-17;45;0;1.088237e-16;1.456293e-16;-2.220446e-16;-7.545715e-17;-4.420859e-17;-1.110223e-16;3.124857e-17;0.514054;-3.330669e-16;3.330669e-16;0
1.509493;-1.94875;0.397722;8.39567e-13;0;0;8.39567e-13;2.220446e-16;0;1.493331e-17;0;0;0;0;2.230444e-16;-9.998171e-19;1.120221e-16;45;0;1.493628e-16;1.490307e-16;2.220446e-16;5.74205e-17;-2.755389e-17;0;-8.497439e-17;0.397722;2.220446e-16;-2.220446e-16;0
-0.371137;-2.015916;0.264341;8.39567e-13;0;0;8.39567e-13;0;2.220446e-16;4.678473e-17;0;0;0;0;2.314995e-16;-9.454924e-18;1.204772e-16;45;0;1.606363e-16;1.575792e-16;0;2.586561e-17;6.770384e-17;2.220446e-16;4.183823e-17;0.264341;2.220446e-16;-2.220446e-16;0
-0.303971;-2.015916;0.359694;8.39567e-13;0;0;8.39567e-13;0;-1.110223e-16;3.974714e-17;0;0;0;0;1.276273e-17;-1.23785e-16;6.827388e-17;45;0;9.103184e-17;8.708988e-17;0;9.021981e-17;-1.072554e-17;-1.110223e-16;-1.009454e-16;0.359694;-1.110223e-16;1.110223e-16;0
-0.236806;-2.015916;0.485073;8.39567e-13;0;0;8.39567e-13;2.220446e-16;2.220446e-16;6.370882e-17;0;0;0;0;2.857534e-16;1.583358e-16;6.370882e-17;45;0;8.49451e-17;1.653014e-16;2.220446e-16;1.045664e-16;2.285125e-17;2.220446e-16;-8.171515e-17;0.485073;4.440892e-16;-4.440892e-16;0
-0.169641;-2.015916;0.542497;8.39567e-13;0;0;8.39567e-13;0;-1.110223e-16;1.260166e-17;0;0;0;0;1.412391e-18;-1.124347e-16;5.692354e-17;45;0;7.589806e-17;7.543167e-17;0;2.520331e-17;0;-1.110223e-16;-2.520331e-17;0.542497;-1.110223e-16;1.110223e-16;0
-0.102475;-2.015916;0.629361;8.39567e-13;0;0;8.39567e-13;-2.220446e-16;0;4.219492e-17;0;0;0;0;7.747909e-18;-2.297925e-16;1.187702e-16;45;0;1.583603e-16;1.558419e-16;-2.220446e-16;7.543274e-17;8.957105e-18;0;-6.647564e-17;0.629361;-2.220446e-16;2.220446e-16;0
-0.03531;-2.015916;0.685018;8.39567e-13;0;0;8.39567e-13;0;-1.110223e-16;-4.582292e-17;0;0;0;0;1.64696e-17;-1.274919e-16;7.198075e-17;45;0;9.597433e-17;9.098271e-17;0;-5.747783e-17;-3.416802e-17;-1.110223e-16;2.330981e-17;0.685018;-1.110223e-16;1.110223e-16;0
0.031855;-2.015916;0.722516;8.39567e-13;0;0;8.39567e-13;-4.440892e-16;-1.110223e-16;-3.836069e-17;0;0;0;0;-1.066612e-16;-4.484503e-16;1.708945e-16;45;0;2.278594e-16;2.705156e-16;-4.440892e-16;-6.412013e-17;-1.260125e-17;-1.110223e-16;5.151888e-17;0.722516;-5.551115e-16;5.551115e-16;0
0.099021;-2.015916;0.784302;8.39567e-13;0;0;8.39567e-13;-1.110223e-16;0;-7.484056e-17;0;0;0;0;3.766931e-17;-1.486916e-16;9.318046e-17;45;0;1.242406e-16;1.13782e-16;-1.110223e-16;-8.459402e-17;-6.508711e-17;0;1.950691e-17;0.784302;-1.110223e-16;1.110223e-16;0
0.166186;-2.015916;0.828208;8.39567e-13;0;0;8.39567e-13;2.220446e-16;-1.110223e-16;7.26714e-18;0;0;0;0;2.222031e-16;-1.111808e-16;1.666919e-16;45;0;2.222559e-16;1.960046e-16;2.220446e-16;4.995331e-17;-3.541904e-17;-1.110223e-16;-8.537235e-17;0.828208;1.110223e-16;-1.110223e-16;0
0.233352;-2.015916;0.864497;8.39567e-13;0;0;8.39567e-13;-1.110223e-16;-3.330669e-16;-1.797912e-17;0;0;0;0;-1.095759e-16;-3.345133e-16;1.124687e-16;45;0;1.499582e-16;1.969223e-16;-1.110223e-16;1.419678e-18;-3.737793e-17;-3.330669e-16;-3.879761e-17;0.864497;-4.440892e-16;4.440892e-16;0
0.300517;-2.015916;0.891375;8.39567e-13;0;0;8.39567e-13;0;0;-7.015976e-18;0;0;0;0;7.015976e-18;-7.015976e-18;7.015976e-18;45;0;9.354634e-18;8.101351e-18;0;-2.37285e-17;9.696554e-18;0;3.342506e-17;0.891375;0;0;0
0.367682;-2.015916;0.910093;8.39567e-13;0;0;8.39567e-13;2.220446e-16;2.220446e-16;-1.33471e-17;0;0;0;0;2.353917e-16;2.086975e-16;1.33471e-17;45;0;1.779613e-17;1.488299e-16;2.220446e-16;-1.717687e-17;-9.517328e-18;2.220446e-16;7.659538e-18;0.910093;4.440892e-16;-4.440892e-16;0
0.434848;-2.015916;0.944622;8.39567e-13;0;0;8.39567e-13;2.220446e-16;2.220446e-16;5.485938e-18;0;0;0;0;2.275305e-16;2.165587e-16;5.485938e-18;45;0;7.314584e-18;1.481652e-16;2.220446e-16;2.066338e-17;-9.691508e-18;2.220446e-16;-3.035489e-17;0.944622;4.440892e-16;-4.440892e-16;0
0.502013;-2.015916;0.948983;8.39567e-13;0;0;8.39567e-13;2.220446e-16;0;1.368865e-17;0;0;0;0;2.228853e-16;-8.406974e-19;1.11863e-16;45;0;1.491507e-16;1.488712e-16;2.220446e-16;2.73773e-17;0;0;-2.73773e-17;0.948983;2.220446e-16;-2.220446e-16;0
0.569178;-2.015916;0.959931;8.39567e-13;0;0;8.39567e-13;-3.330669e-16;0;3.8525e-18;0;0;0;0;4.455493e-20;-3.331115e-16;1.66578e-16;45;0;2.22104e-16;2.220892e-16;-3.330669e-16;1.028718e-17;-2.582176e-18;0;-1.286935e-17;0.959931;-3.330669e-16;3.330669e-16;0
0.636344;-2.015916;0.959675;8.39567e-13;0;0;8.39567e-13;-3.330669e-16;2.220446e-16;4.034554e-18;0;0;0;0;2.220739e-16;-3.330962e-16;2.775851e-16;45;0;3.701134e-16;3.22657e-16;-3.330669e-16;-1.235176e-17;2.042086e-17;2.220446e-16;3.277262e-17;0.959675;-1.110223e-16;1.110223e-16;0
0.703509;-2.015916;0.94133;8.39567e-13;0;0;8.39567e-13;-1.110223e-16;-1.110223e-16;-1.109688e-17;0;0;0;0;-9.992542e-17;-1.221192e-16;1.109688e-17;45;0;1.479584e-17;7.511583e-17;-1.110223e-16;-4.004877e-17;1.785502e-17;-1.110223e-16;5.790379e-17;0.94133;-2.220446e-16;2.220446e-16;0
0.770674;-2.015916;0.937736;8.39567e-13;0;0;8.39567e-13;-1.110223e-16;0;1.107066e-17;0;0;0;0;1.093154e-18;-1.121155e-16;5.660431e-17;45;0;7.547241e-17;7.511067e-17;-1.110223e-16;-8.123527e-18;3.026484e-17;0;3.838837e-17;0.937736;-1.110223e-16;1.110223e-16;0
0.83784;-2.015916;0.900973;8.39567e-13;0;0;8.39567e-13;2.220446e-16;-4.440892e-16;-3.429901e-17;0;0;0;0;2.23806e-16;-4.458506e-16;3.348283e-16;45;0;4.464377e-16;3.936473e-16;2.220446e-16;4.253162e-18;-7.285119e-17;-4.440892e-16;-7.710435e-17;0.900973;-2.220446e-16;2.220446e-16;0
0.905005;-2.015916;0.899514;8.39567e-13;0;0;8.39567e-13;2.220446e-16;-1.110223e-16;-3.368634e-17;0;0;0;0;2.254175e-16;-1.143952e-16;1.699063e-16;45;0;2.265418e-16;1.996508e-16;2.220446e-16;-3.418254e-17;-3.319015e-17;-1.110223e-16;9.92397e-19;0.899514;1.110223e-16;-1.110223e-16;0
0.97217;-2.015916;0.888658;8.39567e-13;0;0;8.39567e-13;-1.110223e-16;0;-8.624001e-18;0;0;0;0;6.65902e-19;-1.116882e-16;5.617705e-17;45;0;7.490274e-17;7.468176e-17;-1.110223e-16;2.250199e-18;-1.94982e-17;0;-2.17484e-17;0.888658;-1.110223e-16;1.110223e-16;0
1.039336;-2.015916;0.854915;8.39567e-13;0;0;8.39567e-13;-1.110223e-16;2.220446e-16;-1.272895e-17;0;0;0;0;2.225304e-16;-1.115081e-16;1.670192e-16;45;0;2.226923e-16;1.963758e-16;-1.110223e-16;-5.294195e-18;-2.016371e-17;2.220446e-16;-1.486951e-17;0.854915;1.110223e-16;-1.110223e-16;0
1.106501;-2.015916;0.862472;8.39567e-13;0;0;8.39567e-13;0;0;-1.012025e-17;0;0;0;0;1.012025e-17;-1.012025e-17;1.012025e-17;45;0;1.349366e-17;1.168585e-17;0;-1.066064e-17;-9.579853e-18;0;1.080784e-18;0.862472;0;0;0
1.173667;-2.015916;0.803839;8.39567e-13;0;0;8.39567e-13;-1.110223e-16;0;-4.793739e-17;0;0;0;0;1.78338e-17;-1.288561e-16;7.334495e-17;45;0;9.779326e-17;9.242398e-17;-1.110223e-16;-9.587478e-17;0;0;9.587478e-17;0.803839;-1.110223e-16;1.110223e-16;0
1.240832;-2.015916;0.741294;8.39567e-13;0;0;8.39567e-13;0;-1.110223e-16;1.72095e-17;0;0;0;0;2.606443e-18;-1.136287e-16;5.81176e-17;45;0;7.749013e-17;7.663609e-17;0;1.929584e-17;1.512316e-17;-1.110223e-16;-4.172685e-18;0.741294;-1.110223e-16;1.110223e-16;0
1.307997;-2.015916;0.681354;8.39567e-13;0;0;8.39567e-13;2.220446e-16;0;-2.361999e-17;0;0;0;0;2.245294e-16;-2.48477e-18;1.135071e-16;45;0;1.513428e-16;1.505213e-16;2.220446e-16;-3.254608e-17;-1.46939e-17;0;1.785219e-17;0.681354;2.220446e-16;-2.220446e-16;0
1.375163;-2.015916;0.605449;8.39567e-13;0;0;8.39567e-13;-2.220446e-16;-1.110223e-16;-1.412199e-17;0;0;0;0;-1.092541e-16;-2.238128e-16;5.727931e-17;45;0;7.63724e-17;1.292305e-16;-2.220446e-16;-1.888344e-17;-9.36054e-18;-1.110223e-16;9.5229e-18;0.605449;-3.330669e-16;3.330669e-16;0
1.442328;-2.015916;0.499354;8.39567e-13;0;0;8.39567e-13;0;2.220446e-16;-1.147578e-17;0;0;0;0;2.226361e-16;-5.915192e-19;1.116138e-16;45;0;1.488184e-16;1.486216e-16;0;-2.295156e-17;0;2.220446e-16;2.295156e-17;0.499354;2.220446e-16;-2.220446e-16;0
1.509493;-2.015916;0.40712;8.39567e-13;0;0;8.39567e-13;-2.220446e-16;0;-2.798682e-17;0;0;0;0;3.473173e-18;-2.255178e-16;1.144955e-16;45;0;1.526606e-16;1.515162e-16;-2.220446e-16;-1.685705e-17;-3.91166e-17;0;-2.225955e-17;0.40712;-2.220446e-16;2.220446e-16;0
-0.371137;-2.083081;0.282887;8.39567e-13;0;0;8.39567e-13;0;0;-9.0066e-18;0;0;0;0;9.0066e-18;-9.0066e-18;9.0066e-18;45;0;1.20088e-17;1.039993e-17;0;-3.577691e-17;1.776371e-17;0;5.354062e-17;0.282887;0;0;0
-0.303971;-2.083081;0.374116;8.39567e-13;0;0;8.39567e-13;0;0;3.974336e-17;0;0;0;0;3.974336e-17;-3.974336e-17;3.974336e-17;45;0;5.299115e-17;4.589169e-17;0;7.680207e-17;2.684663e-18;0;-7.41174e-17;0.374116;0;0;0
-0.236806;-2.083081;0.506788;8.39567e-13;0;0;8.39567e-13;-2.220446e-16;2.220446e-16;1.497881e-17;0;0;0;0;2.225493e-16;-2.225493e-16;2.225493e-16;45;0;2.967323e-16;2.569778e-16;-2.220446e-16;2.140351e-17;8.554115e-18;2.220446e-16;-1.284939e-17;0.506788;0;0;0
-0.169641;-2.083081;0.564651;8.39567e-13;0;0;8.39567e-13;0;0;-1.429176e-17;0;0;0;0;1.429176e-17;-1.429176e-17;1.429176e-17;45;0;1.905569e-17;1.650271e-17;0;2.242048e-17;-5.100401e-17;0;-7.342449e-17;0.564651;0;0;0
-0.102475;-2.083081;0.633681;8.39567e-13;0;0;8.39567e-13;-2.220446e-16;0;-1.389729e-17;0;0;0;0;8.664208e-19;-2.22911e-16;1.118887e-16;45;0;1.49185e-16;1.48897e-16;-2.220446e-16;-1.289385e-17;-1.490073e-17;0;-2.00688e-18;0.633681;-2.220446e-16;2.220446e-16;0
-0.03531;-2.083081;0.674767;8.39567e-13;0;0;8.39567e-13;0;0;-8.495316e-18;0;0;0;0;8.495316e-18;-8.495316e-18;8.495316e-18;45;0;1.132709e-17;9.809546e-18;0;-3.315917e-17;1.616854e-17;0;4.932771e-17;0.674767;0;0;0
0.031855;-2.083081;0.728153;8.39567e-13;0;0;8.39567e-13;-2.220446e-16;2.220446e-16;1.895093e-17;0;0;0;0;2.228519e-16;-2.228519e-16;2.228519e-16;45;0;2.971358e-16;2.573272e-16;-2.220446e-16;2.200238e-17;1.589948e-17;2.220446e-16;-6.102908e-18;0.728153;0;0;0
0.099021;-2.083081;0.797494;8.39567e-13;0;0;8.39567e-13;2.220446e-16;0;-6.546501e-18;0;0;0;0;2.222374e-16;-1.928418e-19;1.112151e-16;45;0;1.482869e-16;1.482226e-16;2.220446e-16;-8.972097e-18;-4.120905e-18;0;4.851191e-18;0.797494;2.220446e-16;-2.220446e-16;0
0.166186;-2.083081;0.841335;8.39567e-13;0;0;8.39567e-13;2.220446e-16;-3.330669e-16;-2.678828e-18;0;0;0;0;2.220575e-16;-3.330798e-16;2.775687e-16;45;0;3.700916e-16;3.226382e-16;2.220446e-16;-2.409715e-17;1.873949e-17;-3.330669e-16;4.283664e-17;0.841335;-1.110223e-16;1.110223e-16;0
0.233352;-2.083081;0.852421;8.39567e-13;0;0;8.39567e-13;0;-1.110223e-16;4.740909e-18;0;0;0;0;2.0208e-19;-1.112244e-16;5.571323e-17;45;0;7.428431e-17;7.421704e-17;0;1.935702e-17;-9.875205e-18;-1.110223e-16;-2.923223e-17;0.852421;-1.110223e-16;1.110223e-16;0
0.300517;-2.083081;0.876477;8.39567e-13;0;0;8.39567e-13;0;-3.330669e-16;3.547753e-17;0;0;0;0;3.737057e-18;-3.36804e-16;1.702705e-16;45;0;2.270274e-16;2.25792e-16;0;1.289502e-17;5.806005e-17;-3.330669e-16;4.516503e-17;0.876477;-3.330669e-16;3.330669e-16;0
0.367682;-2.083081;0.902823;8.39567e-13;0;0;8.39567e-13;-1.110223e-16;0;8.598528e-18;0;0;0;0;6.61997e-19;-1.116843e-16;5.617315e-17;45;0;7.489753e-17;7.467785e-17;-1.110223e-16;-1.309795e-18;1.850685e-17;0;1.981665e-17;0.902823;-1.110223e-16;1.110223e-16;0
0.434848;-2.083081;0.947271;8.39567e-13;0;0;8.39567e-13;0;2.220446e-16;2.522216e-17;0;0;0;0;2.248736e-16;-2.828956e-18;1.138513e-16;45;0;1.518017e-16;1.508675e-16;0;2.182151e-17;2.862281e-17;2.220446e-16;6.801303e-18;0.947271;2.220446e-16;-2.220446e-16;0
0.502013;-2.083081;0.96278;8.39567e-13;0;0;8.39567e-13;-3.330669e-16;2.220446e-16;-1.032654e-17;0;0;0;0;2.222366e-16;-3.332589e-16;2.777478e-16;45;0;3.703304e-16;3.228436e-16;-3.330669e-16;1.226506e-17;-3.291814e-17;2.220446e-16;-4.518319e-17;0.96278;-1.110223e-16;1.110223e-16;0
0.569178;-2.083081;0.962632;8.39567e-13;0;0;8.39567e-13;0;0;5.54445e-18;0;0;0;0;5.54445e-18;-5.54445e-18;5.54445e-18;45;0;7.3926e-18;6.402179e-18;0;1.689913e-17;-5.810232e-18;0;-2.270936e-17;0.962632;0;0;0
0.636344;-2.083081;0.954496;8.39567e-13;0;0;8.39567e-13;-1.110223e-16;0;-2.395859e-17;0;0;0;0;4.949596e-18;-1.159719e-16;6.046075e-17;45;0;8.061433e-17;7.901616e-17;-1.110223e-16;-1.253151e-17;-3.538567e-17;0;-2.285416e-17;0.954496;-1.110223e-16;1.110223e-16;0
0.703509;-2.083081;0.936846;8.39567e-13;0;0;8.39567e-13;-1.110223e-16;0;-3.986526e-17;0;0;0;0;1.283157e-17;-1.238539e-16;6.834272e-17;45;0;9.112363e-17;8.716184e-17;-1.110223e-16;-3.748514e-17;-4.224539e-17;0;-4.760253e-18;0.936846;-1.110223e-16;1.110223e-16;0
0.770674;-2.083081;0.916606;8.39567e-13;0;0;8.39567e-13;2.220446e-16;2.220446e-16;-3.067846e-17;0;0;0;0;2.527231e-16;1.913661e-16;3.067846e-17;45;0;4.090462e-17;1.522094e-16;2.220446e-16;-2.459113e-17;-3.67658e-17;2.220446e-16;-1.217467e-17;0.916606;4.440892e-16;-4.440892e-16;0
0.83784;-2.083081;0.909975;8.39567e-13;0;0;8.39567e-13;-3.330669e-16;-1.110223e-16;1.194057e-17;0;0;0;0;-1.10382e-16;-3.337072e-16;1.116626e-16;45;0;1.488834e-16;1.963097e-16;-3.330669e-16;-6.305534e-18;3.018668e-17;-1.110223e-16;3.649221e-17;0.909975;-4.440892e-16;4.440892e-16;0
0.905005;-2.083081;0.886937;8.39567e-13;0;0;8.39567e-13;2.220446e-16;2.220446e-16;6.632715e-18;0;0;0;0;2.286773e-16;2.154119e-16;6.632715e-18;45;0;8.84362e-18;1.482277e-16;2.220446e-16;3.054993e-17;-1.72845e-17;2.220446e-16;-4.783443e-17;0.886937;4.440892e-16;-4.440892e-16;0
0.97217;-2.083081;0.875936;8.39567e-13;0;0;8.39567e-13;2.220446e-16;0;-1.944359e-17;0;0;0;0;2.237344e-16;-1.689741e-18;1.12712e-16;45;0;1.502827e-16;1.497227e-16;2.220446e-16;-7.862066e-18;-3.102511e-17;0;-2.316304e-17;0.875936;2.220446e-16;-2.220446e-16;0
1.039336;-2.083081;0.852409;8.39567e-13;0;0;8.39567e-13;0;-3.330669e-16;-9.782109e-18;0;0;0;0;2.870512e-19;-3.333539e-16;1.668205e-16;45;0;2.224273e-16;2.223317e-16;0;1.029243e-17;-2.985664e-17;-3.330669e-16;-4.014907e-17;0.852409;-3.330669e-16;3.330669e-16;0
1.106501;-2.083081;0.835135;8.39567e-13;0;0;8.39567e-13;0;0;3.701551e-17;0;0;0;0;3.701551e-17;-3.701551e-17;3.701551e-17;45;0;4.935401e-17;4.274182e-17;0;4.555785e-17;2.847316e-17;0;-1.708469e-17;0.835135;0;0;0
1.173667;-2.083081;0.793123;8.39567e-13;0;0;8.39567e-13;0;0;2.976446e-18;0;0;0;0;2.976446e-18;-2.976446e-18;2.976446e-18;45;0;3.968595e-18;3.436904e-18;0;1.396556e-17;-8.012668e-18;0;-2.197823e-17;0.793123;0;0;0
1.240832;-2.083081;0.734648;8.39567e-13;0;0;8.39567e-13;-1.110223e-16;0;2.251828e-17;0;0;0;0;4.393448e-18;-1.154158e-16;5.99046e-17;45;0;7.98728e-17;7.844933e-17;-1.110223e-16;4.890098e-17;-3.86441e-18;0;-5.276538e-17;0.734648;-1.110223e-16;1.110223e-16;0
1.307997;-2.083081;0.679475;8.39567e-13;0;0;8.39567e-13;2.220446e-16;2.220446e-16;1.645767e-18;0;0;0;0;2.236904e-16;2.203988e-16;1.645767e-18;45;0;2.194356e-18;1.480419e-16;2.220446e-16;-3.066691e-17;3.395845e-17;2.220446e-16;6.462536e-17;0.679475;4.440892e-16;-4.440892e-16;0
1.375163;-2.083081;0.608374;8.39567e-13;0;0;8.39567e-13;0;2.220446e-16;4.598796e-18;0;0;0;0;2.221398e-16;-9.520547e-20;1.111175e-16;45;0;1.481567e-16;1.48125e-16;0;-6.859499e-18;1.605709e-17;2.220446e-16;2.291659e-17;0.608374;2.220446e-16;-2.220446e-16;0
1.442328;-2.083081;0.510878;8.39567e-13;0;0;8.39567e-13;4.440892e-16;-3.330669e-16;-7.968148e-17;0;0;0;0;4.521748e-16;-3.411525e-16;3.966636e-16;45;0;5.288849e-16;4.595204e-16;4.440892e-16;-1.536848e-16;-5.678214e-18;-3.330669e-16;1.480065e-16;0.510878;1.110223e-16;-1.110223e-16;0
1.509493;-2.083081;0.406294;8.39567e-13;0;0;8.39567e-13;-2.220446e-16;-2.220446e-16;2.384854e-18;0;0;0;0;-2.196598e-16;-2.244295e-16;2.384854e-18;45;0;3.179806e-18;1.480554e-16;-2.220446e-16;8.744924e-19;3.895216e-18;-2.220446e-16;3.020723e-18;0.406294;-4.440892e-16;4.440892e-16;0
-0.371137;-2.150246;0.289792;8.39567e-13;0;0;8.39567e-13;4.440892e-16;0;-5.209232e-17;0;0;0;0;4.501179e-16;-6.028664e-18;2.280733e-16;45;0;3.040977e-16;3.021082e-16;4.440892e-16;-9.459131e-17;-9.593321e-18;0;8.4998e-17;0.289792;4.440892e-16;-4.440892e-16;0
-0.303971;-2.150246;0.368966;8.39567e-13;0;0;8.39567e-13;2.220446e-16;-1.110223e-16;-4.268713e-17;0;0;0;0;2.274285e-16;-1.164062e-16;1.719174e-16;45;0;2.292232e-16;2.019331e-16;2.220446e-16;-1.018531e-16;1.647882e-17;-1.110223e-16;1.183319e-16;0.368966;1.110223e-16;-1.110223e-16;0
-0.236806;-2.150246;0.491831;8.39567e-13;0;0;8.39567e-13;0;0;-2.673745e-17;0;0;0;0;2.673745e-17;-2.673745e-17;2.673745e-17;45;0;3.564993e-17;3.087374e-17;0;-3.637693e-17;-1.709796e-17;0;1.927897e-17;0.491831;0;0;0
-0.169641;-2.150246;0.558437;8.39567e-13;0;0;8.39567e-13;2.220446e-16;2.220446e-16;-2.50403e-17;0;0;0;0;2.470849e-16;1.970043e-16;2.50403e-17;45;0;3.338706e-17;1.508271e-16;2.220446e-16;-5.00806e-17;0;2.220446e-16;5.00806e-17;0.558437;4.440892e-16;-4.440892e-16;0
-0.102475;-2.150246;0.63091;8.39567e-13;0;0;8.39567e-13;2.220446e-16;0;-8.536831e-18;0;0;0;0;2.223723e-16;-3.277273e-19;1.1135e-16;45;0;1.484667e-16;1.483576e-16;2.220446e-16;-2.515298e-17;8.07932e-18;0;3.32323e-17;0.63091;2.220446e-16;-2.220446e-16;0
-0.03531;-2.150246;0.710443;8.39567e-13;0;0;8.39567e-13;0;2.220446e-16;5.412322e-18;0;0;0;0;2.221765e-16;-1.318467e-19;1.111541e-16;45;0;1.482055e-16;1.481616e-16;0;-3.868759e-18;1.46934e-17;2.220446e-16;1.856216e-17;0.710443;2.220446e-16;-2.220446e-16;0
0.031855;-2.150246;0.762869;8.39567e-13;0;0;8.39567e-13;0;0;6.700281e-17;0;0;0;0;6.700281e-17;-6.700281e-17;6.700281e-17;45;0;8.933709e-17;7.736819e-17;0;6.654776e-17;6.745788e-17;0;9.101174e-19;0.762869;0;0;0
0.099021;-2.150246;0.78991;8.39567e-13;0;0;8.39567e-13;0;2.220446e-16;2.346046e-18;0;0;0;0;2.220694e-16;-2.478473e-20;1.110471e-16;45;0;1.480628e-16;1.480545e-16;0;1.627707e-17;-1.158498e-17;2.220446e-16;-2.786205e-17;0.78991;2.220446e-16;-2.220446e-16;0
0.166186;-2.150246;0.820293;8.39567e-13;0;0;8.39567e-13;0;-1.110223e-16;1.427377e-17;0;0;0;0;1.805762e-18;-1.128281e-16;5.731691e-17;45;0;7.642255e-17;7.58278e-17;0;-9.799603e-18;3.834715e-17;-1.110223e-16;4.814675e-17;0.820293;-1.110223e-16;1.110223e-16;0
0.233352;-2.150246;0.837638;8.39567e-13;0;0;8.39567e-13;-1.110223e-16;2.220446e-16;-3.719445e-17;0;0;0;0;2.261477e-16;-1.151254e-16;1.706365e-16;45;0;2.275154e-16;2.004794e-16;-1.110223e-16;5.073681e-18;-7.946259e-17;2.220446e-16;-8.453627e-17;0.837638;1.110223e-16;-1.110223e-16;0
0.300517;-2.150246;0.849898;8.39567e-13;0;0;8.39567e-13;0;-1.110223e-16;9.606671e-18;0;0;0;0;8.251252e-19;-1.118474e-16;5.633627e-17;45;0;7.511503e-17;7.484151e-17;0;2.405463e-17;-4.841289e-18;-1.110223e-16;-2.889592e-17;0.849898;-1.110223e-16;1.110223e-16;0
0.367682;-2.150246;0.885095;8.39567e-13;0;0;8.39567e-13;0;0;4.380283e-17;0;0;0;0;4.380283e-17;-4.380283e-17;4.380283e-17;45;0;5.840377e-17;5.057915e-17;0;4.999754e-17;3.760811e-17;0;-1.238943e-17;0.885095;0;0;0
0.434848;-2.150246;0.91234;8.39567e-13;0;0;8.39567e-13;2.220446e-16;2.220446e-16;-2.633418e-17;0;0;0;0;2.483788e-16;1.957104e-16;2.633418e-17;45;0;3.511224e-17;1.511207e-16;2.220446e-16;-4.00433e-18;-4.866402e-17;2.220446e-16;-4.46597e-17;0.91234;4.440892e-16;-4.440892e-16;0
0.502013;-2.150246;0.930034;8.39567e-13;0;0;8.39567e-13;0;0;4.058656e-17;0;0;0;0;4.058656e-17;-4.058656e-17;4.058656e-17;45;0;5.411541e-17;4.686532e-17;0;9.111524e-17;-9.942133e-18;0;-1.010574e-16;0.930034;0;0;0
0.569178;-2.150246;0.971583;8.39567e-13;0;0;8.39567e-13;2.220446e-16;2.220446e-16;-3.577004e-17;0;0;0;0;2.578146e-16;1.862746e-16;3.577004e-17;45;0;4.769339e-17;1.536841e-16;2.220446e-16;-6.133397e-17;-1.020612e-17;2.220446e-16;5.112785e-17;0.971583;4.440892e-16;-4.440892e-16;0
0.636344;-2.150246;0.973174;8.39567e-13;0;0;8.39567e-13;0;0;-2.171347e-19;0;0;0;0;2.171347e-19;-2.171347e-19;2.171347e-19;45;0;2.895129e-19;2.507255e-19;0;-4.342693e-19;0;0;4.342693e-19;0.973174;0;0;0
0.703509;-2.150246;0.929916;8.39567e-13;0;0;8.39567e-13;2.220446e-16;2.220446e-16;-2.882437e-17;0;0;0;0;2.50869e-16;1.932202e-16;2.882437e-17;45;0;3.84325e-17;1.517254e-16;2.220446e-16;-4.017962e-17;-1.746912e-17;2.220446e-16;2.27105e-17;0.929916;4.440892e-16;-4.440892e-16;0
0.770674;-2.150246;0.92065;8.39567e-13;0;0;8.39567e-13;-1.110223e-16;2.220446e-16;4.320763e-17;0;0;0;0;2.275585e-16;-1.165362e-16;1.720473e-16;45;0;2.293965e-16;2.020807e-16;-1.110223e-16;4.014434e-17;4.627093e-17;2.220446e-16;6.126587e-18;0.92065;1.110223e-16;-1.110223e-16;0
0.83784;-2.150246;0.954098;8.39567e-13;0;0;8.39567e-13;-3.330669e-16;0;4.21432e-18;0;0;0;0;5.331556e-20;-3.331202e-16;1.665868e-16;45;0;2.221157e-16;2.220979e-16;-3.330669e-16;2.840108e-17;-1.997245e-17;0;-4.837353e-17;0.954098;-3.330669e-16;3.330669e-16;0
0.905005;-2.150246;0.901809;8.39567e-13;0;0;8.39567e-13;0;-1.110223e-16;-7.557425e-18;0;0;0;0;5.120813e-19;-1.115344e-16;5.602324e-17;45;0;7.469765e-17;7.452754e-17;0;-3.323795e-17;1.81231e-17;-1.110223e-16;5.136105e-17;0.901809;-1.110223e-16;1.110223e-16;0
0.97217;-2.150246;0.875184;8.39567e-13;0;0;8.39567e-13;0;0;2.283688e-17;0;0;0;0;2.283688e-17;-2.283688e-17;2.283688e-17;45;0;3.044917e-17;2.636975e-17;0;2.094101e-17;2.473274e-17;0;3.791726e-18;0.875184;0;0;0
1.039336;-2.150246;0.860504;8.39567e-13;0;0;8.39567e-13;0;0;1.144461e-17;0;0;0;0;1.144461e-17;-1.144461e-17;1.144461e-17;45;0;1.525948e-17;1.32151e-17;0;2.040047e-17;2.488756e-18;0;-1.791171e-17;0.860504;0;0;0
1.106501;-2.150246;0.837412;8.39567e-13;0;0;8.39567e-13;-1.110223e-16;0;5.7442e-18;0;0;0;0;2.964087e-19;-1.113187e-16;5.580756e-17;45;0;7.441008e-17;7.431147e-17;-1.110223e-16;-1.133782e-18;1.262218e-17;0;1.375596e-17;0.837412;-1.110223e-16;1.110223e-16;0
1.173667;-2.150246;0.807052;8.39567e-13;0;0;8.39567e-13;-1.110223e-16;0;9.421496e-18;0;0;0;0;7.938441e-19;-1.118161e-16;5.630499e-17;45;0;7.507332e-17;7.481012e-17;-1.110223e-16;3.892697e-17;-2.008398e-17;0;-5.901095e-17;0.807052;-1.110223e-16;1.110223e-16;0
1.240832;-2.150246;0.724693;8.39567e-13;0;0;8.39567e-13;0;2.220446e-16;3.357579e-18;0;0;0;0;2.220954e-16;-5.0759e-20;1.110731e-16;45;0;1.480974e-16;1.480805e-16;0;-9.031735e-19;7.618332e-18;2.220446e-16;8.521505e-18;0.724693;2.220446e-16;-2.220446e-16;0
1.307997;-2.150246;0.68064;8.39567e-13;0;0;8.39567e-13;0;0;2.375139e-17;0;0;0;0;2.375139e-17;-2.375139e-17;2.375139e-17;45;0;3.166852e-17;2.742574e-17;0;5.529225e-17;-7.789474e-18;0;-6.308173e-17;0.68064;0;0;0
1.375163;-2.150246;0.613951;8.39567e-13;0;0;8.39567e-13;-2.220446e-16;2.220446e-16;4.397805e-17;0;0;0;0;2.263579e-16;-2.263579e-16;2.263579e-16;45;0;3.018105e-16;2.613755e-16;-2.220446e-16;8.795609e-17;0;2.220446e-16;-8.795609e-17;0.613951;0;0;0
1.442328;-2.150246;0.529478;8.39567e-13;0;0;8.39567e-13;2.220446e-16;0;1.241753e-18;0;0;0;0;2.220515e-16;-6.944113e-21;1.110293e-16;45;0;1.48039e-16;1.480367e-16;2.220446e-16;-8.427077e-18;1.091058e-17;0;1.933766e-17;0.529478;2.220446e-16;-2.220446e-16;0
1.509493;-2.150246;0.403478;8.39567e-13;0;0;8.39567e-13;4.440892e-16;-2.220446e-16;-4.200746e-17;0;0;0;0;4.467278e-16;-2.246832e-16;3.357055e-16;45;0;4.476074e-16;3.946422e-16;4.440892e-16;-3.987133e-17;-4.414359e-17;-2.220446e-16;-4.27226e-18;0.403478;2.220446e-16;-2.220446e-16;0
-0.371137;-2.217412;0.268634;8.39567e-13;0;0;8.39567e-13;-4.440892e-16;-2.220446e-16;-1.748874e-17;0;0;0;0;-2.206756e-16;-4.454582e-16;1.123913e-16;45;0;1.498551e-16;2.571891e-16;-4.440892e-16;-3.497747e-17;0;-2.220446e-16;3.497747e-17;0.268634;-6.661338e-16;6.661338e-16;0
-0.303971;-2.217412;0.349343;8.39567e-13;0;0;8.39567e-13;0;-3.330669e-16;2.777247e-17;0;0;0;0;2.299899e-18;-3.353668e-16;1.688333e-16;45;0;2.251111e-16;2.243484e-16;0;2.834651e-17;2.719843e-17;-3.330669e-16;-1.148078e-18;0.349343;-3.330669e-16;3.330669e-16;0
-0.236806;-2.217412;0.484757;8.39567e-13;0;0;8.39567e-13;2.220446e-16;-1.110223e-16;-2.17261e-18;0;0;0;0;2.220588e-16;-1.110365e-16;1.665476e-16;45;0;2.220635e-16;1.95841e-16;2.220446e-16;-1.665784e-18;-2.679436e-18;-1.110223e-16;-1.013652e-18;0.484757;1.110223e-16;-1.110223e-16;0
-0.169641;-2.217412;0.570395;8.39567e-13;0;0;8.39567e-13;2.220446e-16;0;2.836266e-17;0;0;0;0;2.256102e-16;-3.565621e-18;1.145879e-16;45;0;1.527839e-16;1.516093e-16;2.220446e-16;5.324958e-17;3.475745e-18;0;-4.977383e-17;0.570395;2.220446e-16;-2.220446e-16;0
-0.102475;-2.217412;0.623685;8.39567e-13;0;0;8.39567e-13;-3.330669e-16;0;2.707082e-17;0;0;0;0;2.185901e-18;-3.352528e-16;1.687194e-16;45;0;2.249591e-16;2.242341e-16;-3.330669e-16;3.411026e-17;2.003138e-17;0;-1.407888e-17;0.623685;-3.330669e-16;3.330669e-16;0
-0.03531;-2.217412;0.702164;8.39567e-13;0;0;8.39567e-13;0;0;2.574151e-17;0;0;0;0;2.574151e-17;-2.574151e-17;2.574151e-17;45;0;3.432202e-17;2.972374e-17;0;3.708561e-17;1.439741e-17;0;-2.26882e-17;0.702164;0;0;0
0.031855;-2.217412;0.771164;8.39567e-13;0;0;8.39567e-13;-1.110223e-16;-1.110223e-16;1.482046e-17;0;0;0;0;-9.620184e-17;-1.258428e-16;1.482046e-17;45;0;1.976062e-17;7.596751e-17;-1.110223e-16;4.668638e-17;-1.704545e-17;-1.110223e-16;-6.373183e-17;0.771164;-2.220446e-16;2.220446e-16;0
0.099021;-2.217412;0.782788;8.39567e-13;0;0;8.39567e-13;-1.110223e-16;2.220446e-16;-7.617082e-18;0;0;0;0;2.222187e-16;-1.111964e-16;1.667076e-16;45;0;2.222767e-16;1.960224e-16;-1.110223e-16;-7.935335e-18;-7.298829e-18;2.220446e-16;6.365055e-19;0.782788;1.110223e-16;-1.110223e-16;0
0.166186;-2.217412;0.805852;8.39567e-13;0;0;8.39567e-13;2.220446e-16;0;-4.502178e-17;0;0;0;0;2.30826e-16;-8.781339e-18;1.198036e-16;45;0;1.597382e-16;1.56893e-16;2.220446e-16;-8.058935e-17;-9.454217e-18;0;7.113513e-17;0.805852;2.220446e-16;-2.220446e-16;0
0.233352;-2.217412;0.845533;8.39567e-13;0;0;8.39567e-13;-1.110223e-16;-3.330669e-16;-2.256172e-17;0;0;0;0;-1.08753e-16;-3.353362e-16;1.132916e-16;45;0;1.510554e-16;1.975503e-16;-1.110223e-16;-6.909371e-18;-3.821407e-17;-3.330669e-16;-3.13047e-17;0.845533;-4.440892e-16;4.440892e-16;0
0.300517;-2.217412;0.865279;8.39567e-13;0;0;8.39567e-13;-1.110223e-16;2.220446e-16;-1.807081e-17;0;0;0;0;2.230222e-16;-1.119999e-16;1.67511e-16;45;0;2.23348e-16;1.969335e-16;-1.110223e-16;-5.577288e-17;1.963126e-17;2.220446e-16;7.540414e-17;0.865279;1.110223e-16;-1.110223e-16;0
0.367682;-2.217412;0.889187;8.39567e-13;0;0;8.39567e-13;2.220446e-16;0;-5.847692e-18;0;0;0;0;2.221985e-16;-1.538962e-19;1.111762e-16;45;0;1.482349e-16;1.481837e-16;2.220446e-16;2.050448e-17;-3.219986e-17;0;-5.270434e-17;0.889187;2.220446e-16;-2.220446e-16;0
0.434848;-2.217412;0.906601;8.39567e-13;0;0;8.39567e-13;2.220446e-16;0;-1.314731e-17;0;0;0;0;2.228204e-16;-7.75745e-19;1.117981e-16;45;0;1.490641e-16;1.488062e-16;2.220446e-16;-3.374242e-17;7.447799e-18;0;4.119022e-17;0.906601;2.220446e-16;-2.220446e-16;0
0.502013;-2.217412;0.921794;8.39567e-13;0;0;8.39567e-13;0;0;3.192568e-18;0;0;0;0;3.192568e-18;-3.192568e-18;3.192568e-18;45;0;4.256757e-18;3.68646e-18;0;-6.325216e-18;1.271035e-17;0;1.903557e-17;0.921794;0;0;0
0.569178;-2.217412;0.91266;8.39567e-13;0;0;8.39567e-13;0;-1.110223e-16;-2.734341e-17;0;0;0;0;6.368977e-18;-1.173913e-16;6.188013e-17;45;0;8.250684e-17;8.04679e-17;0;-5.19903e-19;-5.416693e-17;-1.110223e-16;-5.364702e-17;0.91266;-1.110223e-16;1.110223e-16;0
0.636344;-2.217412;0.921031;8.39567e-13;0;0;8.39567e-13;2.220446e-16;2.220446e-16;1.325053e-17;0;0;0;0;2.352951e-16;2.087941e-16;1.325053e-17;45;0;1.766737e-17;1.488184e-16;2.220446e-16;4.198361e-17;-1.548255e-17;2.220446e-16;-5.746616e-17;0.921031;4.440892e-16;-4.440892e-16;0
0.703509;-2.217412;0.923869;8.39567e-13;0;0;8.39567e-13;-3.330669e-16;2.220446e-16;2.228972e-17;0;0;0;0;2.229382e-16;-3.339605e-16;2.784493e-16;45;0;3.712658e-16;3.236484e-16;-3.330669e-16;2.19693e-17;2.261015e-17;2.220446e-16;6.408497e-19;0.923869;-1.110223e-16;1.110223e-16;0
0.770674;-2.217412;0.929313;8.39567e-13;0;0;8.39567e-13;0;0;7.973182e-18;0;0;0;0;7.973182e-18;-7.973182e-18;7.973182e-18;45;0;1.063091e-17;9.206637e-18;0;2.596511e-17;-1.001875e-17;0;-3.598385e-17;0.929313;0;0;0
0.83784;-2.217412;0.951536;8.39567e-13;0;0;8.39567e-13;2.220446e-16;-1.110223e-16;-1.15537e-17;0;0;0;0;2.224449e-16;-1.114226e-16;1.669338e-16;45;0;2.225783e-16;1.962789e-16;2.220446e-16;-8.302533e-18;-1.480486e-17;-1.110223e-16;-6.502327e-18;0.951536;1.110223e-16;-1.110223e-16;0
0.905005;-2.217412;0.887929;8.39567e-13;0;0;8.39567e-13;-2.220446e-16;2.220446e-16;-2.598359e-17;0;0;0;0;2.235597e-16;-2.235597e-16;2.235597e-16;45;0;2.980796e-16;2.581445e-16;-2.220446e-16;-5.501405e-18;-4.646577e-17;2.220446e-16;-4.096437e-17;0.887929;0;0;0
0.97217;-2.217412;0.860658;8.39567e-13;0;0;8.39567e-13;0;2.220446e-16;3.805452e-17;0;0;0;0;2.283854e-16;-6.3408e-18;1.173631e-16;45;0;1.564841e-16;1.544139e-16;0;4.032253e-17;3.578651e-17;2.220446e-16;-4.536021e-18;0.860658;2.220446e-16;-2.220446e-16;0
1.039336;-2.217412;0.845866;8.39567e-13;0;0;8.39567e-13;-1.110223e-16;2.220446e-16;1.001759e-17;0;0;0;0;2.223456e-16;-1.113233e-16;1.668345e-16;45;0;2.22446e-16;1.961663e-16;-1.110223e-16;5.133541e-18;1.490163e-17;2.220446e-16;9.768088e-18;0.845866;1.110223e-16;-1.110223e-16;0
1.106501;-2.217412;0.830776;8.39567e-13;0;0;8.39567e-13;-3.330669e-16;-1.110223e-16;-1.307794e-17;0;0;0;0;-1.102547e-16;-3.338345e-16;1.117899e-16;45;0;1.490532e-16;1.964063e-16;-3.330669e-16;2.496643e-18;-2.865252e-17;-1.110223e-16;-3.114916e-17;0.830776;-4.440892e-16;4.440892e-16;0
1.173667;-2.217412;0.80418;8.39567e-13;0;0;8.39567e-13;-1.110223e-16;-1.110223e-16;-5.668736e-18;0;0;0;0;-1.053536e-16;-1.16691e-16;5.668736e-18;45;0;7.558314e-18;7.430375e-17;-1.110223e-16;-3.669305e-17;2.535558e-17;-1.110223e-16;6.204864e-17;0.80418;-2.220446e-16;2.220446e-16;0
1.240832;-2.217412;0.744004;8.39567e-13;0;0;8.39567e-13;0;-1.110223e-16;2.329326e-17;0;0;0;0;4.689045e-18;-1.157113e-16;6.020019e-17;45;0;8.026693e-17;7.875046e-17;0;4.658651e-17;0;-1.110223e-16;-4.658651e-17;0.744004;-1.110223e-16;1.110223e-16;0
1.307997;-2.217412;0.696643;8.39567e-13;0;0;8.39567e-13;-2.220446e-16;2.220446e-16;7.495682e-18;0;0;0;0;2.221711e-16;-2.221711e-16;2.221711e-16;45;0;2.962281e-16;2.565411e-16;-2.220446e-16;2.281451e-17;-7.823142e-18;2.220446e-16;-3.063765e-17;0.696643;0;0;0
1.375163;-2.217412;0.626783;8.39567e-13;0;0;8.39567e-13;0;2.220446e-16;-3.477815e-17;0;0;0;0;2.273643e-16;-5.319743e-18;1.16342e-16;45;0;1.551227e-16;1.533802e-16;0;-6.955631e-17;0;2.220446e-16;6.955631e-17;0.626783;2.220446e-16;-2.220446e-16;0
1.442328;-2.217412;0.553676;8.39567e-13;0;0;8.39567e-13;-3.330669e-16;0;7.164415e-17;0;0;0;0;1.475713e-17;-3.47824e-16;1.812906e-16;45;0;2.417208e-16;2.36955e-16;-3.330669e-16;1.432883e-16;0;0;-1.432883e-16;0.553676;-3.330669e-16;3.330669e-16;0
1.509493;-2.217412;0.403187;8.39567e-13;0;0;8.39567e-13;-3.330669e-16;0;2.071392e-17;0;0;0;0;1.283285e-18;-3.343502e-16;1.678167e-16;45;0;2.237557e-16;2.233291e-16;-3.330669e-16;8.82324e-17;-4.680456e-17;0;-1.35037e-16;0.403187;-3.330669e-16;3.330669e-16;0
-0.371137;-2.284577;0.270036;8.39567e-13;0;0;8.39567e-13;-1.110223e-16;-1.110223e-16;-7.134832e-17;0;0;0;0;-3.967399e-17;-1.823706e-16;7.134832e-17;45;0;9.513109e-17;1.107504e-16;-1.110223e-16;-7.399938e-17;-6.869725e-17;-1.110223e-16;5.302131e-18;0.270036;-2.220446e-16;2.220446e-16;0
-0.303971;-2.284577;0.342255;8.39567e-13;0;0;8.39567e-13;-3.330669e-16;-2.220446e-16;-4.043751e-17;0;0;0;0;-2.088777e-16;-3.462338e-16;6.867809e-17;45;0;9.157079e-17;2.013148e-16;-3.330669e-16;-8.087501e-17;0;-2.220446e-16;8.087501e-17;0.342255;-5.551115e-16;5.551115e-16;0
-0.236806;-2.284577;0.472821;8.39567e-13;0;0;8.39567e-13;0;2.220446e-16;-1.717304e-18;0;0;0;0;2.220579e-16;-1.328092e-20;1.110356e-16;45;0;1.480474e-16;1.48043e-16;0;1.258468e-17;-1.601929e-17;2.220446e-16;-2.860397e-17;0.472821;2.220446e-16;-2.220446e-16;0
-0.169641;-2.284577;0.575673;8.39567e-13;0;0;8.39567e-13;0;-1.110223e-16;-2.912119e-17;0;0;0;0;7.174827e-18;-1.181971e-16;6.268598e-17;45;0;8.358131e-17;8.12953e-17;0;-6.47102e-17;6.467808e-18;-1.110223e-16;7.1178e-17;0.575673;-1.110223e-16;1.110223e-16;0
-0.102475;-2.284577;0.640769;8.39567e-13;0;0;8.39567e-13;0;0;-1.992902e-18;0;0;0;0;1.992902e-18;-1.992902e-18;1.992902e-18;45;0;2.657203e-18;2.301206e-18;0;-2.990346e-17;2.591766e-17;0;5.582112e-17;0.640769;0;0;0
-0.03531;-2.284577;0.693005;8.39567e-13;0;0;8.39567e-13;-1.110223e-16;2.220446e-16;-1.496157e-18;0;0;0;0;2.220513e-16;-1.11029e-16;1.665402e-16;45;0;2.220536e-16;1.958326e-16;-1.110223e-16;7.216918e-18;-1.020923e-17;2.220446e-16;-1.742615e-17;0.693005;1.110223e-16;-1.110223e-16;0
0.031855;-2.284577;0.759896;8.39567e-13;0;0;8.39567e-13;-2.220446e-16;0;2.292103e-19;0;0;0;0;2.366071e-22;-2.220448e-16;1.110225e-16;45;0;1.480301e-16;1.4803e-16;-2.220446e-16;3.93493e-17;-3.889088e-17;0;-7.824018e-17;0.759896;-2.220446e-16;2.220446e-16;0
0.099021;-2.284577;0.801341;8.39567e-13;0;0;8.39567e-13;2.220446e-16;2.220446e-16;-2.034275e-17;0;0;0;0;2.423873e-16;2.017019e-16;2.034275e-17;45;0;2.712367e-17;1.498819e-16;2.220446e-16;-5.006727e-17;9.381769e-18;2.220446e-16;5.944904e-17;0.801341;4.440892e-16;-4.440892e-16;0
0.166186;-2.284577;0.826252;8.39567e-13;0;0;8.39567e-13;4.440892e-16;-1.110223e-16;-2.128697e-17;0;0;0;0;4.449043e-16;-1.118374e-16;2.783709e-16;45;0;3.711611e-16;3.400682e-16;4.440892e-16;-4.79396e-18;-3.777997e-17;-1.110223e-16;-3.298601e-17;0.826252;3.330669e-16;-3.330669e-16;0
0.233352;-2.284577;0.855523;8.39567e-13;0;0;8.39567e-13;2.220446e-16;-1.110223e-16;3.539617e-17;0;0;0;0;2.257647e-16;-1.147424e-16;1.702536e-16;45;0;2.270048e-16;2.000448e-16;2.220446e-16;5.194926e-17;1.884309e-17;-1.110223e-16;-3.310618e-17;0.855523;1.110223e-16;-1.110223e-16;0
0.300517;-2.284577;0.892449;8.39567e-13;0;0;8.39567e-13;0;-1.110223e-16;-3.206858e-17;0;0;0;0;8.597208e-18;-1.196195e-16;6.410836e-17;45;0;8.547781e-17;8.276105e-17;0;-4.914073e-17;-1.499643e-17;-1.110223e-16;3.414429e-17;0.892449;-1.110223e-16;1.110223e-16;0
0.367682;-2.284577;0.891595;8.39567e-13;0;0;8.39567e-13;2.220446e-16;-1.110223e-16;4.174583e-18;0;0;0;0;2.220969e-16;-1.110746e-16;1.665858e-16;45;0;2.221144e-16;1.958843e-16;2.220446e-16;2.110421e-17;-1.275504e-17;-1.110223e-16;-3.385925e-17;0.891595;1.110223e-16;-1.110223e-16;0
0.434848;-2.284577;0.903054;8.39567e-13;0;0;8.39567e-13;2.220446e-16;0;2.374978e-17;0;0;0;0;2.245565e-16;-2.511849e-18;1.135342e-16;45;0;1.513789e-16;1.505486e-16;2.220446e-16;5.237329e-17;-4.873735e-18;0;-5.724703e-17;0.903054;2.220446e-16;-2.220446e-16;0
0.502013;-2.284577;0.937644;8.39567e-13;0;0;8.39567e-13;0;-1.110223e-16;-1.567318e-17;0;0;0;0;2.170185e-18;-1.131925e-16;5.768134e-17;45;0;7.690845e-17;7.619536e-17;0;-6.119574e-18;-2.522679e-17;-1.110223e-16;-1.910722e-17;0.937644;-1.110223e-16;1.110223e-16;0
0.569178;-2.284577;0.936812;8.39567e-13;0;0;8.39567e-13;-1.110223e-16;0;4.166054e-17;0;0;0;0;1.38941e-17;-1.249164e-16;6.940525e-17;45;0;9.254033e-17;8.82742e-17;-1.110223e-16;2.15685e-17;6.175259e-17;0;4.018409e-17;0.936812;-1.110223e-16;1.110223e-16;0
0.636344;-2.284577;0.919606;8.39567e-13;0;0;8.39567e-13;2.220446e-16;2.220446e-16;2.525712e-19;0;0;0;0;2.222972e-16;2.21792e-16;2.525712e-19;45;0;3.367616e-19;1.4803e-16;2.220446e-16;1.857192e-17;-1.806677e-17;2.220446e-16;-3.663869e-17;0.919606;4.440892e-16;-4.440892e-16;0
0.703509;-2.284577;0.917765;8.39567e-13;0;0;8.39567e-13;0;-1.110223e-16;4.225692e-17;0;0;0;0;1.42537e-17;-1.25276e-16;6.976486e-17;45;0;9.301981e-17;8.865136e-17;0;5.375769e-17;3.075614e-17;-1.110223e-16;-2.300155e-17;0.917765;-1.110223e-16;1.110223e-16;0
0.770674;-2.284577;0.940565;8.39567e-13;0;0;8.39567e-13;0;0;4.042133e-19;0;0;0;0;4.042133e-19;-4.042133e-19;4.042133e-19;45;0;5.389511e-19;4.667453e-19;0;-9.132879e-18;9.941306e-18;0;1.907418e-17;0.940565;0;0;0
0.83784;-2.284577;0.97251;8.39567e-13;0;0;8.39567e-13;0;-3.330669e-16;2.380267e-17;0;0;0;0;1.692461e-18;-3.347594e-16;1.682259e-16;45;0;2.243012e-16;2.237392e-16;0;-7.494016e-19;4.835474e-17;-3.330669e-16;4.910414e-17;0.97251;-3.330669e-16;3.330669e-16;0
0.905005;-2.284577;0.90474;8.39567e-13;0;0;8.39567e-13;-1.110223e-16;2.220446e-16;3.229651e-18;0;0;0;0;2.220759e-16;-1.110536e-16;1.665648e-16;45;0;2.220863e-16;1.958604e-16;-1.110223e-16;6.459303e-18;0;2.220446e-16;-6.459303e-18;0.90474;1.110223e-16;-1.110223e-16;0
0.97217;-2.284577;0.877438;8.39567e-13;0;0;8.39567e-13;0;2.220446e-16;1.848259e-17;0;0;0;0;2.235725e-16;-1.527944e-18;1.125502e-16;45;0;1.50067e-16;1.495603e-16;0;3.696519e-17;0;2.220446e-16;-3.696519e-17;0.877438;2.220446e-16;-2.220446e-16;0
1.039336;-2.284577;0.854163;8.39567e-13;0;0;8.39567e-13;0;0;5.537797e-18;0;0;0;0;5.537797e-18;-5.537797e-18;5.537797e-18;45;0;7.383728e-18;6.394497e-18;0;-1.767647e-17;2.875206e-17;0;4.642854e-17;0.854163;0;0;0
1.106501;-2.284577;0.820042;8.39567e-13;0;0;8.39567e-13;-1.110223e-16;0;3.528181e-17;0;0;0;0;1.026342e-17;-1.212857e-16;6.577457e-17;45;0;8.769943e-17;8.448635e-17;-1.110223e-16;4.767012e-17;2.289351e-17;0;-2.47766e-17;0.820042;-1.110223e-16;1.110223e-16;0
1.173667;-2.284577;0.768332;8.39567e-13;0;0;8.39567e-13;-1.110223e-16;2.220446e-16;3.55189e-17;0;0;0;0;2.257903e-16;-1.14768e-16;1.702791e-16;45;0;2.270388e-16;2.000738e-16;-1.110223e-16;2.672336e-17;4.431445e-17;2.220446e-16;1.759109e-17;0.768332;1.110223e-16;-1.110223e-16;0
1.240832;-2.284577;0.749292;8.39567e-13;0;0;8.39567e-13;2.220446e-16;0;-1.671568e-18;0;0;0;0;2.220572e-16;-1.258297e-20;1.110349e-16;45;0;1.480465e-16;1.480423e-16;2.220446e-16;7.982945e-18;-1.132608e-17;0;-1.930902e-17;0.749292;2.220446e-16;-2.220446e-16;0
1.307997;-2.284577;0.703076;8.39567e-13;0;0;8.39567e-13;-1.110223e-16;0;-1.5036e-17;0;0;0;0;2.000319e-18;-1.130226e-16;5.751147e-17;45;0;7.668196e-17;7.602396e-17;-1.110223e-16;-6.117793e-18;-2.395421e-17;0;-1.783641e-17;0.703076;-1.110223e-16;1.110223e-16;0
1.375163;-2.284577;0.642054;8.39567e-13;0;0;8.39567e-13;0;0;-2.517191e-17;0;0;0;0;2.517191e-17;-2.517191e-17;2.517191e-17;45;0;3.356254e-17;2.906601e-17;0;-2.833915e-17;-2.200467e-17;0;6.334482e-18;0.642054;0;0;0
1.442328;-2.284577;0.583548;8.39567e-13;0;0;8.39567e-13;2.220446e-16;-1.110223e-16;-4.999192e-17;0;0;0;0;2.293863e-16;-1.18364e-16;1.738752e-16;45;0;2.318336e-16;2.04156e-16;2.220446e-16;-1.10262e-16;1.027818e-17;-1.110223e-16;1.205402e-16;0.583548;1.110223e-16;-1.110223e-16;0
1.509493;-2.284577;0.429707;8.39567e-13;0;0;8.39567e-13;0;0;-2.265762e-17;0;0;0;0;2.265762e-17;-2.265762e-17;2.265762e-17;45;0;3.021016e-17;2.616276e-17;0;-6.995999e-17;2.464476e-17;0;9.460475e-17;0.429707;0;0;0
-0.303971;-2.351742;0.363246;8.39567e-13;0;0;8.39567e-13;4.440892e-16;-2.220446e-16;4.678922e-17;0;0;0;0;4.473596e-16;-2.25315e-16;3.363373e-16;45;0;4.484498e-16;3.953588e-16;4.440892e-16;1.223929e-16;-2.881444e-17;-2.220446e-16;-1.512073e-16;0.363246;2.220446e-16;-2.220446e-16;0
-0.236806;-2.351742;0.46174;8.39567e-13;0;0;8.39567e-13;2.220446e-16;2.220446e-16;-1.18963e-17;0;0;0;0;2.339409e-16;2.101483e-16;1.18963e-17;45;0;1.586173e-17;1.486657e-16;2.220446e-16;-3.689225e-17;1.309965e-17;2.220446e-16;4.999189e-17;0.46174;4.440892e-16;-4.440892e-16;0
-0.169641;-2.351742;0.549996;8.39567e-13;0;0;8.39567e-13;2.220446e-16;2.220446e-16;1.501134e-17;0;0;0;0;2.37056e-16;2.070333e-16;1.501134e-17;45;0;2.001512e-17;1.490411e-16;2.220446e-16;6.916405e-17;-3.914136e-17;2.220446e-16;-1.083054e-16;0.549996;4.440892e-16;-4.440892e-16;0
-0.102475;-2.351742;0.633258;8.39567e-13;0;0;8.39567e-13;-1.110223e-16;0;-1.803088e-17;0;0;0;0;2.85494e-18;-1.138772e-16;5.836609e-17;45;0;7.782146e-17;7.688748e-17;-1.110223e-16;-2.911092e-17;-6.950843e-18;0;2.216008e-17;0.633258;-1.110223e-16;1.110223e-16;0
-0.03531;-2.351742;0.704745;8.39567e-13;0;0;8.39567e-13;-2.220446e-16;0;1.652718e-19;0;0;0;0;1.230147e-22;-2.220447e-16;1.110224e-16;45;0;1.480299e-16;1.480299e-16;-2.220446e-16;-6.985158e-18;7.315702e-18;0;1.430086e-17;0.704745;-2.220446e-16;2.220446e-16;0
0.031855;-2.351742;0.767351;8.39567e-13;0;0;8.39567e-13;-2.220446e-16;2.220446e-16;-3.670862e-17;0;0;0;0;2.250585e-16;-2.250585e-16;2.250585e-16;45;0;3.00078e-16;2.598752e-16;-2.220446e-16;-6.426151e-17;-9.155734e-18;2.220446e-16;5.510578e-17;0.767351;0;0;0
0.099021;-2.351742;0.811142;8.39567e-13;0;0;8.39567e-13;-1.110223e-16;2.220446e-16;-1.141819e-17;0;0;0;0;2.224356e-16;-1.114133e-16;1.669244e-16;45;0;2.225659e-16;1.962683e-16;-1.110223e-16;1.801296e-17;-4.084935e-17;2.220446e-16;-5.886231e-17;0.811142;1.110223e-16;-1.110223e-16;0
0.166186;-2.351742;0.839964;8.39567e-13;0;0;8.39567e-13;0;0;1.569088e-17;0;0;0;0;1.569088e-17;-1.569088e-17;1.569088e-17;45;0;2.092117e-17;1.811827e-17;0;-2.076058e-17;5.214234e-17;0;7.290292e-17;0.839964;0;0;0
0.233352;-2.351742;0.87378;8.39567e-13;0;0;8.39567e-13;-1.110223e-16;2.220446e-16;3.229027e-17;0;0;0;0;2.251462e-16;-1.141239e-16;1.696351e-16;45;0;2.261801e-16;1.99343e-16;-1.110223e-16;3.316708e-17;3.141347e-17;2.220446e-16;-1.75361e-18;0.87378;1.110223e-16;-1.110223e-16;0
0.300517;-2.351742;0.881907;8.39567e-13;0;0;8.39567e-13;0;-1.110223e-16;-2.761649e-19;0;0;0;0;6.869486e-22;-1.11023e-16;5.551184e-17;45;0;7.401578e-17;7.401555e-17;0;-1.07667e-17;1.021437e-17;-1.110223e-16;2.098106e-17;0.881907;-1.110223e-16;1.110223e-16;0
0.367682;-2.351742;0.888398;8.39567e-13;0;0;8.39567e-13;-1.110223e-16;2.220446e-16;8.613419e-18;0;0;0;0;2.222672e-16;-1.112449e-16;1.667561e-16;45;0;2.223414e-16;1.960774e-16;-1.110223e-16;1.532803e-17;1.898812e-18;2.220446e-16;-1.342922e-17;0.888398;1.110223e-16;-1.110223e-16;0
0.434848;-2.351742;0.910434;8.39567e-13;0;0;8.39567e-13;0;2.220446e-16;-2.327794e-18;0;0;0;0;2.22069e-16;-2.440064e-20;1.110467e-16;45;0;1.480623e-16;1.480541e-16;0;1.905948e-17;-2.371506e-17;2.220446e-16;-4.277454e-17;0.910434;2.220446e-16;-2.220446e-16;0
0.502013;-2.351742;0.949138;8.39567e-13;0;0;8.39567e-13;0;-3.330669e-16;-4.420335e-17;0;0;0;0;5.766655e-18;-3.388336e-16;1.723001e-16;45;0;2.297335e-16;2.278356e-16;0;-3.863152e-17;-4.977519e-17;-3.330669e-16;-1.114367e-17;0.949138;-3.330669e-16;3.330669e-16;0
0.569178;-2.351742;0.947148;8.39567e-13;0;0;8.39567e-13;2.220446e-16;-3.330669e-16;-2.517605e-17;0;0;0;0;2.231841e-16;-3.342064e-16;2.786952e-16;45;0;3.715936e-16;3.239304e-16;2.220446e-16;-3.106272e-17;-1.928938e-17;-3.330669e-16;1.177333e-17;0.947148;-1.110223e-16;1.110223e-16;0
0.636344;-2.351742;0.942;8.39567e-13;0;0;8.39567e-13;2.220446e-16;-3.330669e-16;-2.342304e-17;0;0;0;0;2.230312e-16;-3.340535e-16;2.785423e-16;45;0;3.713898e-16;3.237551e-16;2.220446e-16;-3.395031e-17;-1.289576e-17;-3.330669e-16;2.105455e-17;0.942;-1.110223e-16;1.110223e-16;0
0.703509;-2.351742;0.9502;8.39567e-13;0;0;8.39567e-13;2.220446e-16;-1.110223e-16;1.105479e-17;0;0;0;0;2.224111e-16;-1.113888e-16;1.669e-16;45;0;2.225333e-16;1.962405e-16;2.220446e-16;-2.102568e-17;4.313527e-17;-1.110223e-16;6.416094e-17;0.9502;1.110223e-16;-1.110223e-16;0
0.770674;-2.351742;0.953483;8.39567e-13;0;0;8.39567e-13;-1.110223e-16;-3.330669e-16;-3.773461e-18;0;0;0;0;-1.109582e-16;-3.33131e-16;1.110864e-16;45;0;1.481152e-16;1.958734e-16;-1.110223e-16;1.39633e-19;-7.686554e-18;-3.330669e-16;-7.826187e-18;0.953483;-4.440892e-16;4.440892e-16;0
0.83784;-2.351742;0.957783;8.39567e-13;0;0;8.39567e-13;-1.110223e-16;0;-1.717018e-17;0;0;0;0;2.594813e-18;-1.136171e-16;5.810596e-17;45;0;7.747462e-17;7.662433e-17;-1.110223e-16;-3.434036e-17;0;0;3.434036e-17;0.957783;-1.110223e-16;1.110223e-16;0
0.905005;-2.351742;0.912397;8.39567e-13;0;0;8.39567e-13;2.220446e-16;2.220446e-16;-7.058357e-18;0;0;0;0;2.29103e-16;2.149863e-16;7.058357e-18;45;0;9.411142e-18;1.482539e-16;2.220446e-16;-3.243743e-17;1.832071e-17;2.220446e-16;5.075814e-17;0.912397;4.440892e-16;-4.440892e-16;0
0.97217;-2.351742;0.895134;8.39567e-13;0;0;8.39567e-13;2.220446e-16;2.220446e-16;2.162409e-17;0;0;0;0;2.436687e-16;2.004205e-16;2.162409e-17;45;0;2.883212e-17;1.501209e-16;2.220446e-16;2.068915e-17;2.255902e-17;2.220446e-16;1.869871e-18;0.895134;4.440892e-16;-4.440892e-16;0
1.039336;-2.351742;0.885317;8.39567e-13;0;0;8.39567e-13;-1.110223e-16;0;2.971203e-17;0;0;0;0;7.45148e-18;-1.184738e-16;6.296263e-17;45;0;8.395018e-17;8.157986e-17;-1.110223e-16;2.121971e-17;3.820436e-17;0;1.698465e-17;0.885317;-1.110223e-16;1.110223e-16;0
1.106501;-2.351742;0.833058;8.39567e-13;0;0;8.39567e-13;0;0;-5.137753e-18;0;0;0;0;5.137753e-18;-5.137753e-18;5.137753e-18;45;0;6.850337e-18;5.932566e-18;0;-2.665673e-17;1.638122e-17;0;4.303795e-17;0.833058;0;0;0
1.173667;-2.351742;0.76697;8.39567e-13;0;0;8.39567e-13;0;0;-3.188457e-17;0;0;0;0;3.188457e-17;-3.188457e-17;3.188457e-17;45;0;4.251276e-17;3.681713e-17;0;-6.376914e-17;0;0;6.376914e-17;0.76697;0;0;0
1.240832;-2.351742;0.757588;8.39567e-13;0;0;8.39567e-13;2.220446e-16;-1.110223e-16;-3.406186e-17;0;0;0;0;2.254923e-16;-1.1447e-16;1.699812e-16;45;0;2.266416e-16;1.997357e-16;2.220446e-16;-7.968827e-18;-6.015489e-17;-1.110223e-16;-5.218606e-17;0.757588;1.110223e-16;-1.110223e-16;0
1.307997;-2.351742;0.713933;8.39567e-13;0;0;8.39567e-13;0;2.220446e-16;-2.529422e-17;0;0;0;0;2.248896e-16;-2.84494e-18;1.138672e-16;45;0;1.51823e-16;1.508836e-16;0;-3.429307e-17;-1.629536e-17;2.220446e-16;1.799771e-17;0.713933;2.220446e-16;-2.220446e-16;0
1.375163;-2.351742;0.651821;8.39567e-13;0;0;8.39567e-13;0;2.220446e-16;-2.101125e-17;0;0;0;0;2.240153e-16;-1.970725e-18;1.12993e-16;45;0;1.506574e-16;1.500048e-16;0;-3.172269e-17;-1.02998e-17;2.220446e-16;2.142288e-17;0.651821;2.220446e-16;-2.220446e-16;0
1.442328;-2.351742;0.563852;8.39567e-13;0;0;8.39567e-13;4.440892e-16;0;-5.971587e-18;0;0;0;0;4.441695e-16;-8.028433e-20;2.221249e-16;45;0;2.961665e-16;2.961398e-16;4.440892e-16;3.078181e-17;-4.272498e-17;0;-7.350679e-17;0.563852;4.440892e-16;-4.440892e-16;0
1.509493;-2.351742;0.439982;8.39567e-13;0;0;8.39567e-13;2.220446e-16;-2.220446e-16;1.428372e-17;0;0;0;0;2.225036e-16;-2.225036e-16;2.225036e-16;45;0;2.966714e-16;2.56925e-16;2.220446e-16;1.810822e-17;1.045922e-17;-2.220446e-16;-7.649001e-18;0.439982;0;0;0
-0.303971;-2.418908;0.368261;8.39567e-13;0;0;8.39567e-13;4.440892e-16;4.440892e-16;-1.259829e-18;0;0;0;0;4.453491e-16;4.428294e-16;1.259829e-18;45;0;1.679772e-18;2.960631e-16;4.440892e-16;-1.820076e-17;1.56811e-17;4.440892e-16;3.388186e-17;0.368261;8.881784e-16;-8.881784e-16;0
-0.236806;-2.418908;0.476059;8.39567e-13;0;0;8.39567e-13;2.220446e-16;2.220446e-16;4.963033e-17;0;0;0;0;2.716749e-16;1.724143e-16;4.963033e-17;45;0;6.617377e-17;1.587357e-16;2.220446e-16;8.118266e-17;1.8078e-17;2.220446e-16;-6.310466e-17;0.476059;4.440892e-16;-4.440892e-16;0
-0.169641;-2.418908;0.546544;8.39567e-13;0;0;8.39567e-13;-1.110223e-16;0;-5.93442e-17;0;0;0;0;2.574906e-17;-1.367714e-16;8.126021e-17;45;0;1.083469e-16;1.008655e-16;-1.110223e-16;-8.159006e-17;-3.709834e-17;0;4.449172e-17;0.546544;-1.110223e-16;1.110223e-16;0
-0.102475;-2.418908;0.613993;8.39567e-13;0;0;8.39567e-13;0;0;3.022271e-17;0;0;0;0;3.022271e-17;-3.022271e-17;3.022271e-17;45;0;4.029694e-17;3.489818e-17;0;3.350484e-17;2.694058e-17;0;-6.564263e-18;0.613993;0;0;0
-0.03531;-2.418908;0.700395;8.39567e-13;0;0;8.39567e-13;0;0;-2.300649e-17;0;0;0;0;2.300649e-17;-2.300649e-17;2.300649e-17;45;0;3.067532e-17;2.656561e-17;0;-2.117759e-17;-2.483539e-17;0;-3.657807e-18;0.700395;0;0;0
0.031855;-2.418908;0.757034;8.39567e-13;0;0;8.39567e-13;2.220446e-16;0;-2.53437e-17;0;0;0;0;2.249005e-16;-2.855942e-18;1.138782e-16;45;0;1.518377e-16;1.508947e-16;2.220446e-16;-1.472419e-17;-3.59632e-17;0;-2.123902e-17;0.757034;2.220446e-16;-2.220446e-16;0
0.099021;-2.418908;0.788718;8.39567e-13;0;0;8.39567e-13;-3.330669e-16;0;3.531773e-18;0;0;0;0;3.744598e-20;-3.331044e-16;1.665709e-16;45;0;2.220945e-16;2.220821e-16;-3.330669e-16;1.619972e-17;-9.136178e-18;0;-2.53359e-17;0.788718;-3.330669e-16;3.330669e-16;0
0.166186;-2.418908;0.828056;8.39567e-13;0;0;8.39567e-13;2.220446e-16;0;1.212516e-17;0;0;0;0;2.227048e-16;-6.601542e-19;1.116825e-16;45;0;1.489099e-16;1.486904e-16;2.220446e-16;6.196098e-18;1.805422e-17;0;1.185812e-17;0.828056;2.220446e-16;-2.220446e-16;0
0.233352;-2.418908;0.87045;8.39567e-13;0;0;8.39567e-13;2.220446e-16;0;-2.536109e-17;0;0;0;0;2.249044e-16;-2.859815e-18;1.138821e-16;45;0;1.518428e-16;1.508986e-16;2.220446e-16;-3.144515e-17;-1.927704e-17;0;1.216811e-17;0.87045;2.220446e-16;-2.220446e-16;0
0.300517;-2.418908;0.876348;8.39567e-13;0;0;8.39567e-13;0;-1.110223e-16;1.064158e-17;0;0;0;0;1.010802e-18;-1.120331e-16;5.652195e-17;45;0;7.536261e-17;7.502794e-17;0;6.914523e-18;1.436865e-17;-1.110223e-16;7.454124e-18;0.876348;-1.110223e-16;1.110223e-16;0
0.367682;-2.418908;0.888637;8.39567e-13;0;0;8.39567e-13;-1.110223e-16;-1.110223e-16;1.310693e-17;0;0;0;0;-9.791537e-17;-1.241292e-16;1.310693e-17;45;0;1.747591e-17;7.554639e-17;-1.110223e-16;1.371027e-17;1.250359e-17;-1.110223e-16;-1.206681e-18;0.888637;-2.220446e-16;2.220446e-16;0
0.434848;-2.418908;0.915059;8.39567e-13;0;0;8.39567e-13;0;0;1.875477e-17;0;0;0;0;1.875477e-17;-1.875477e-17;1.875477e-17;45;0;2.500636e-17;2.165614e-17;0;3.157892e-17;5.930615e-18;0;-2.56483e-17;0.915059;0;0;0
0.502013;-2.418908;0.94951;8.39567e-13;0;0;8.39567e-13;-1.110223e-16;2.220446e-16;8.904873e-18;0;0;0;0;2.222825e-16;-1.112602e-16;1.667714e-16;45;0;2.223618e-16;1.960947e-16;-1.110223e-16;1.27925e-17;5.017245e-18;2.220446e-16;-7.775256e-18;0.94951;1.110223e-16;-1.110223e-16;0
0.569178;-2.418908;0.948544;8.39567e-13;0;0;8.39567e-13;-1.110223e-16;0;-5.747077e-18;0;0;0;0;2.967049e-19;-1.11319e-16;5.580786e-17;45;0;7.441047e-17;7.431177e-17;-1.110223e-16;1.290355e-17;-2.439771e-17;0;-3.730126e-17;0.948544;-1.110223e-16;1.110223e-16;0
0.636344;-2.418908;0.930824;8.39567e-13;0;0;8.39567e-13;-1.110223e-16;0;-1.409987e-17;0;0;0;0;1.762702e-18;-1.12785e-16;5.727385e-17;45;0;7.636514e-17;7.57844e-17;-1.110223e-16;-4.429963e-17;1.609988e-17;0;6.039951e-17;0.930824;-1.110223e-16;1.110223e-16;0
0.703509;-2.418908;0.923763;8.39567e-13;0;0;8.39567e-13;-1.110223e-16;0;5.412418e-18;0;0;0;0;2.632352e-19;-1.112855e-16;5.577439e-17;45;0;7.436585e-17;7.427826e-17;-1.110223e-16;3.560852e-18;7.263983e-18;0;3.703131e-18;0.923763;-1.110223e-16;1.110223e-16;0
0.770674;-2.418908;0.92381;8.39567e-13;0;0;8.39567e-13;2.220446e-16;2.220446e-16;-3.535731e-18;0;0;0;0;2.255803e-16;2.185089e-16;3.535731e-18;45;0;4.714307e-18;1.48086e-16;2.220446e-16;1.035535e-17;-1.742681e-17;2.220446e-16;-2.778216e-17;0.92381;4.440892e-16;-4.440892e-16;0
0.83784;-2.418908;0.921028;8.39567e-13;0;0;8.39567e-13;0;2.220446e-16;4.357156e-17;0;0;0;0;2.302885e-16;-8.243924e-18;1.192662e-16;45;0;1.590216e-16;1.563461e-16;0;4.7167e-17;3.997613e-17;2.220446e-16;-7.190879e-18;0.921028;2.220446e-16;-2.220446e-16;0
0.905005;-2.418908;0.899118;8.39567e-13;0;0;8.39567e-13;0;0;7.219601e-18;0;0;0;0;7.219601e-18;-7.219601e-18;7.219601e-18;45;0;9.626135e-18;8.336477e-18;0;-1.898849e-17;3.34277e-17;0;5.241619e-17;0.899118;0;0;0
0.97217;-2.418908;0.867476;8.39567e-13;0;0;8.39567e-13;2.220446e-16;0;2.313225e-17;0;0;0;0;2.244289e-16;-2.384278e-18;1.134066e-16;45;0;1.512088e-16;1.504203e-16;2.220446e-16;1.968928e-17;2.657521e-17;0;6.885925e-18;0.867476;2.220446e-16;-2.220446e-16;0
1.039336;-2.418908;0.874202;8.39567e-13;0;0;8.39567e-13;0;0;-1.756174e-17;0;0;0;0;1.756174e-17;-1.756174e-17;1.756174e-17;45;0;2.341566e-17;2.027855e-17;0;1.470721e-18;-3.65942e-17;0;-3.806492e-17;0.874202;0;0;0
1.106501;-2.418908;0.850625;8.39567e-13;0;0;8.39567e-13;0;2.220446e-16;-1.486363e-17;0;0;0;0;2.230352e-16;-9.905504e-19;1.120129e-16;45;0;1.493505e-16;1.490214e-16;0;-1.244927e-17;-1.727799e-17;2.220446e-16;-4.828722e-18;0.850625;2.220446e-16;-2.220446e-16;0
1.173667;-2.418908;0.800133;8.39567e-13;0;0;8.39567e-13;0;2.220446e-16;-2.11401e-17;0;0;0;0;2.240394e-16;-1.994755e-18;1.130171e-16;45;0;1.506894e-16;1.500289e-16;0;-3.359358e-17;-8.686607e-18;2.220446e-16;2.490698e-17;0.800133;2.220446e-16;-2.220446e-16;0
1.240832;-2.418908;0.759793;8.39567e-13;0;0;8.39567e-13;0;0;1.850271e-17;0;0;0;0;1.850271e-17;-1.850271e-17;1.850271e-17;45;0;2.467028e-17;2.136509e-17;0;1.562012e-17;2.13853e-17;0;5.76518e-18;0.759793;0;0;0
1.307997;-2.418908;0.708375;8.39567e-13;0;0;8.39567e-13;-1.110223e-16;0;3.70687e-18;0;0;0;0;1.236292e-19;-1.111459e-16;5.563478e-17;45;0;7.41797e-17;7.413853e-17;-1.110223e-16;1.549307e-17;-8.079329e-18;0;-2.35724e-17;0.708375;-1.110223e-16;1.110223e-16;0
1.375163;-2.418908;0.66559;8.39567e-13;0;0;8.39567e-13;2.220446e-16;2.220446e-16;3.879163e-17;0;0;0;0;2.608363e-16;1.83253e-16;3.879163e-17;45;0;5.172218e-17;1.546583e-16;2.220446e-16;6.517142e-17;1.241185e-17;2.220446e-16;-5.275958e-17;0.66559;4.440892e-16;-4.440892e-16;0
1.442328;-2.418908;0.538381;8.39567e-13;0;0;8.39567e-13;2.220446e-16;2.220446e-16;3.898972e-17;0;0;0;0;2.610343e-16;1.830549e-16;3.898972e-17;45;0;5.19863e-17;1.547247e-16;2.220446e-16;7.797945e-17;0;2.220446e-16;-7.797945e-17;0.538381;4.440892e-16;-4.440892e-16;0
1.509493;-2.418908;0.428871;8.39567e-13;0;0;8.39567e-13;-2.220446e-16;0;2.370049e-18;0;0;0;0;2.529444e-20;-2.220699e-16;1.110476e-16;45;0;1.480635e-16;1.48055e-16;-2.220446e-16;-2.488151e-17;2.962161e-17;0;5.450312e-17;0.428871;-2.220446e-16;2.220446e-16;0
-0.303971;-2.486073;0.355806;8.39567e-13;0;0;8.39567e-13;-1.110223e-16;2.220446e-16;8.493533e-18;0;0;0;0;2.22261e-16;-1.112388e-16;1.667499e-16;45;0;2.223332e-16;1.960704e-16;-1.110223e-16;3.460376e-17;-1.761669e-17;2.220446e-16;-5.222045e-17;0.355806;1.110223e-16;-1.110223e-16;0
-0.236806;-2.486073;0.478629;8.39567e-13;0;0;8.39567e-13;0;0;-8.214634e-18;0;0;0;0;8.214634e-18;-8.214634e-18;8.214634e-18;45;0;1.095284e-17;9.485442e-18;0;-1.205661e-17;-4.372655e-18;0;7.683959e-18;0.478629;0;0;0
-0.169641;-2.486073;0.549672;8.39567e-13;0;0;8.39567e-13;-2.220446e-16;0;-3.169152e-17;0;0;0;0;4.434634e-18;-2.264792e-16;1.154569e-16;45;0;1.539426e-16;1.524859e-16;-2.220446e-16;-3.160771e-17;-3.177534e-17;0;-1.676335e-19;0.549672;-2.220446e-16;2.220446e-16;0
-0.102475;-2.486073;0.618874;8.39567e-13;0;0;8.39567e-13;0;-1.110223e-16;2.858665e-17;0;0;0;0;6.928296e-18;-1.179506e-16;6.243945e-17;45;0;8.32526e-17;8.104194e-17;0;4.375419e-17;1.341911e-17;-1.110223e-16;-3.033509e-17;0.618874;-1.110223e-16;1.110223e-16;0
-0.03531;-2.486073;0.705287;8.39567e-13;0;0;8.39567e-13;0;2.220446e-16;-1.574778e-17;0;0;0;0;2.231559e-16;-1.111298e-18;1.121336e-16;45;0;1.495115e-16;1.491424e-16;0;-5.992173e-17;2.842617e-17;2.220446e-16;8.83479e-17;0.705287;2.220446e-16;-2.220446e-16;0
0.031855;-2.486073;0.761497;8.39567e-13;0;0;8.39567e-13;2.220446e-16;0;1.398415e-17;0;0;0;0;2.229218e-16;-8.772426e-19;1.118996e-16;45;0;1.491994e-16;1.489078e-16;2.220446e-16;3.875214e-17;-1.078383e-17;0;-4.953597e-17;0.761497;2.220446e-16;-2.220446e-16;0
0.099021;-2.486073;0.796541;8.39567e-13;0;0;8.39567e-13;0;0;-5.071531e-18;0;0;0;0;5.071531e-18;-5.071531e-18;5.071531e-18;45;0;6.762041e-18;5.856099e-18;0;-1.014306e-17;0;0;1.014306e-17;0.796541;0;0;0
0.166186;-2.486073;0.824426;8.39567e-13;0;0;8.39567e-13;-3.330669e-16;0;-4.284941e-17;0;0;0;0;5.424284e-18;-3.384912e-16;1.719577e-16;45;0;2.29277e-16;2.274904e-16;-3.330669e-16;-5.784766e-17;-2.785116e-17;0;2.999649e-17;0.824426;-3.330669e-16;3.330669e-16;0
0.233352;-2.486073;0.863716;8.39567e-13;0;0;8.39567e-13;2.220446e-16;0;-8.037603e-18;0;0;0;0;2.223352e-16;-2.905661e-19;1.113129e-16;45;0;1.484172e-16;1.483204e-16;2.220446e-16;-2.687678e-17;1.080157e-17;0;3.767834e-17;0.863716;2.220446e-16;-2.220446e-16;0
0.300517;-2.486073;0.888331;8.39567e-13;0;0;8.39567e-13;-1.110223e-16;2.220446e-16;-2.555409e-18;0;0;0;0;2.220642e-16;-1.110419e-16;1.665531e-16;45;0;2.220708e-16;1.958472e-16;-1.110223e-16;-5.110818e-18;0;2.220446e-16;5.110818e-18;0.888331;1.110223e-16;-1.110223e-16;0
0.367682;-2.486073;0.892738;8.39567e-13;0;0;8.39567e-13;2.220446e-16;-1.110223e-16;-8.844661e-18;0;0;0;0;2.222793e-16;-1.11257e-16;1.667682e-16;45;0;2.223576e-16;1.960911e-16;2.220446e-16;-1.958248e-17;1.893161e-18;-1.110223e-16;2.147564e-17;0.892738;1.110223e-16;-1.110223e-16;0
0.434848;-2.486073;0.917945;8.39567e-13;0;0;8.39567e-13;-1.110223e-16;-1.110223e-16;-3.151858e-17;0;0;0;0;-7.950372e-17;-1.425409e-16;3.151858e-17;45;0;4.202477e-17;8.247885e-17;-1.110223e-16;-2.401912e-17;-3.901803e-17;-1.110223e-16;-1.499891e-17;0.917945;-2.220446e-16;2.220446e-16;0
0.502013;-2.486073;0.939478;8.39567e-13;0;0;8.39567e-13;0;2.220446e-16;7.708042e-18;0;0;0;0;2.223119e-16;-2.672548e-19;1.112896e-16;45;0;1.483861e-16;1.482971e-16;0;1.035586e-17;5.06022e-18;2.220446e-16;-5.295644e-18;0.939478;2.220446e-16;-2.220446e-16;0
0.569178;-2.486073;0.939618;8.39567e-13;0;0;8.39567e-13;0;-1.110223e-16;-3.886625e-17;0;0;0;0;1.225369e-17;-1.23276e-16;6.776484e-17;45;0;9.035312e-17;8.655816e-17;0;-6.030402e-17;-1.742848e-17;-1.110223e-16;4.287554e-17;0.939618;-1.110223e-16;1.110223e-16;0
0.636344;-2.486073;0.929066;8.39567e-13;0;0;8.39567e-13;2.220446e-16;0;-6.241171e-18;0;0;0;0;2.222199e-16;-1.752868e-19;1.111976e-16;45;0;1.482635e-16;1.482051e-16;2.220446e-16;1.0715e-17;-2.319735e-17;0;-3.391235e-17;0.929066;2.220446e-16;-2.220446e-16;0
0.703509;-2.486073;0.94643;8.39567e-13;0;0;8.39567e-13;-1.110223e-16;2.220446e-16;2.246553e-18;0;0;0;0;2.220597e-16;-1.110375e-16;1.665486e-16;45;0;2.220648e-16;1.958421e-16;-1.110223e-16;-6.294367e-19;5.122543e-18;2.220446e-16;5.75198e-18;0.94643;1.110223e-16;-1.110223e-16;0
0.770674;-2.486073;0.952262;8.39567e-13;0;0;8.39567e-13;0;0;-3.203242e-18;0;0;0;0;3.203242e-18;-3.203242e-18;3.203242e-18;45;0;4.27099e-18;3.698785e-18;0;8.933121e-18;-1.53396e-17;0;-2.427273e-17;0.952262;0;0;0
0.83784;-2.486073;0.932553;8.39567e-13;0;0;8.39567e-13;0;2.220446e-16;-2.25911e-17;0;0;0;0;2.243197e-16;-2.275136e-18;1.132974e-16;45;0;1.510633e-16;1.503106e-16;0;3.468572e-18;-4.865078e-17;2.220446e-16;-5.211935e-17;0.932553;2.220446e-16;-2.220446e-16;0
0.905005;-2.486073;0.906323;8.39567e-13;0;0;8.39567e-13;-1.110223e-16;-1.110223e-16;2.959189e-18;0;0;0;0;-1.080631e-16;-1.139815e-16;2.959189e-18;45;0;3.945586e-18;7.40937e-17;-1.110223e-16;1.005584e-18;4.912794e-18;-1.110223e-16;3.90721e-18;0.906323;-2.220446e-16;2.220446e-16;0
0.97217;-2.486073;0.886587;8.39567e-13;0;0;8.39567e-13;2.220446e-16;-3.330669e-16;3.730018e-17;0;0;0;0;2.245397e-16;-3.35562e-16;2.800509e-16;45;0;3.734012e-16;3.254856e-16;2.220446e-16;2.34763e-17;5.112406e-17;-3.330669e-16;2.764776e-17;0.886587;-1.110223e-16;1.110223e-16;0
1.039336;-2.486073;0.883968;8.39567e-13;0;0;8.39567e-13;-1.110223e-16;0;1.254871e-17;0;0;0;0;1.400693e-18;-1.12423e-16;5.691185e-17;45;0;7.588246e-17;7.54199e-17;-1.110223e-16;3.477312e-17;-9.6757e-18;0;-4.444882e-17;0.883968;-1.110223e-16;1.110223e-16;0
1.106501;-2.486073;0.839902;8.39567e-13;0;0;8.39567e-13;-3.330669e-16;2.220446e-16;-1.824451e-17;0;0;0;0;2.226436e-16;-3.336659e-16;2.781547e-16;45;0;3.70873e-16;3.233104e-16;-3.330669e-16;-6.594424e-18;-2.98946e-17;2.220446e-16;-2.330017e-17;0.839902;-1.110223e-16;1.110223e-16;0
1.173667;-2.486073;0.805688;8.39567e-13;0;0;8.39567e-13;2.220446e-16;-1.110223e-16;7.61035e-18;0;0;0;0;2.222184e-16;-1.111961e-16;1.667073e-16;45;0;2.222763e-16;1.96022e-16;2.220446e-16;4.222367e-17;-2.700297e-17;-1.110223e-16;-6.922665e-17;0.805688;1.110223e-16;-1.110223e-16;0
1.240832;-2.486073;0.762936;8.39567e-13;0;0;8.39567e-13;2.220446e-16;2.220446e-16;-1.04566e-17;0;0;0;0;2.325012e-16;2.11588e-16;1.04566e-17;45;0;1.394214e-17;1.485214e-16;2.220446e-16;-5.156576e-17;3.065255e-17;2.220446e-16;8.221831e-17;0.762936;4.440892e-16;-4.440892e-16;0
1.307997;-2.486073;0.687141;8.39567e-13;0;0;8.39567e-13;2.220446e-16;2.220446e-16;3.475509e-17;0;0;0;0;2.567997e-16;1.872895e-16;3.475509e-17;45;0;4.634012e-17;1.533733e-16;2.220446e-16;1.172449e-17;5.778569e-17;2.220446e-16;4.60612e-17;0.687141;4.440892e-16;-4.440892e-16;0
1.375163;-2.486073;0.630867;8.39567e-13;0;0;8.39567e-13;0;-3.330669e-16;-2.121837e-17;0;0;0;0;1.346296e-18;-3.344132e-16;1.678797e-16;45;0;2.238397e-16;2.233923e-16;0;9.296395e-18;-5.173314e-17;-3.330669e-16;-6.102953e-17;0.630867;-3.330669e-16;3.330669e-16;0
1.442328;-2.486073;0.52928;8.39567e-13;0;0;8.39567e-13;0;2.220446e-16;2.171705e-18;0;0;0;0;2.220658e-16;-2.123831e-20;1.110435e-16;45;0;1.480581e-16;1.48051e-16;0;-6.723265e-18;1.106667e-17;2.220446e-16;1.778994e-17;0.52928;2.220446e-16;-2.220446e-16;0
1.509493;-2.486073;0.416072;8.39567e-13;0;0;8.39567e-13;-2.220446e-16;0;-5.352414e-17;0;0;0;0;1.22286e-17;-2.342732e-16;1.232509e-16;45;0;1.643345e-16;1.604138e-16;-2.220446e-16;-4.764059e-17;-5.940769e-17;0;-1.17671e-17;0.416072;-2.220446e-16;2.220446e-16;0
-0.303971;-2.553239;0.354021;8.39567e-13;0;0;8.39567e-13;2.220446e-16;0;4.343993e-17;0;0;0;0;2.302405e-16;-8.195896e-18;1.192182e-16;45;0;1.589576e-16;1.562973e-16;2.220446e-16;3.642746e-17;5.045239e-17;0;1.402493e-17;0.354021;2.220446e-16;-2.220446e-16;0
-0.236806;-2.553239;0.476277;8.39567e-13;0;0;8.39567e-13;2.220446e-16;0;7.081084e-17;0;0;0;0;2.427042e-16;-2.065961e-17;1.316819e-16;45;0;1.755759e-16;1.691105e-16;2.220446e-16;1.330964e-16;8.525271e-18;0;-1.245711e-16;0.476277;2.220446e-16;-2.220446e-16;0
-0.169641;-2.553239;0.556074;8.39567e-13;0;0;8.39567e-13;0;0;-1.644209e-17;0;0;0;0;1.644209e-17;-1.644209e-17;1.644209e-17;45;0;2.192278e-17;1.898569e-17;0;-1.275071e-17;-2.013346e-17;0;-7.382749e-18;0.556074;0;0;0
-0.102475;-2.553239;0.631821;8.39567e-13;0;0;8.39567e-13;0;0;-1.405228e-17;0;0;0;0;1.405228e-17;-1.405228e-17;1.405228e-17;45;0;1.873638e-17;1.622618e-17;0;-4.510072e-17;1.699615e-17;0;6.209687e-17;0.631821;0;0;0
-0.03531;-2.553239;0.715379;8.39567e-13;0;0;8.39567e-13;-2.220446e-16;-1.110223e-16;1.363052e-17;0;0;0;0;-1.093733e-16;-2.236936e-16;5.716012e-17;45;0;7.621349e-17;1.291601e-16;-2.220446e-16;-1.966166e-18;2.922721e-17;-1.110223e-16;3.119337e-17;0.715379;-3.330669e-16;3.330669e-16;0
0.031855;-2.553239;0.761014;8.39567e-13;0;0;8.39567e-13;2.220446e-16;2.220446e-16;3.401288e-17;0;0;0;0;2.560575e-16;1.880317e-16;3.401288e-17;45;0;4.53505e-17;1.531512e-16;2.220446e-16;7.662552e-17;-8.599763e-18;2.220446e-16;-8.522528e-17;0.761014;4.440892e-16;-4.440892e-16;0
0.099021;-2.553239;0.79277;8.39567e-13;0;0;8.39567e-13;0;2.220446e-16;1.875413e-17;0;0;0;0;2.236175e-16;-1.572852e-18;1.125952e-16;45;0;1.501269e-16;1.496053e-16;0;3.068948e-17;6.818771e-18;2.220446e-16;-2.387071e-17;0.79277;2.220446e-16;-2.220446e-16;0
0.166186;-2.553239;0.824482;8.39567e-13;0;0;8.39567e-13;-1.110223e-16;-1.110223e-16;-3.875902e-17;0;0;0;0;-7.226329e-17;-1.497813e-16;3.875902e-17;45;0;5.167869e-17;8.649402e-17;-1.110223e-16;-5.937114e-17;-1.81469e-17;-1.110223e-16;4.122424e-17;0.824482;-2.220446e-16;2.220446e-16;0
0.233352;-2.553239;0.867284;8.39567e-13;0;0;8.39567e-13;0;2.220446e-16;-5.99978e-18;0;0;0;0;2.222066e-16;-1.619995e-19;1.111843e-16;45;0;1.482457e-16;1.481918e-16;0;-4.05129e-17;2.851334e-17;2.220446e-16;6.902624e-17;0.867284;2.220446e-16;-2.220446e-16;0
0.300517;-2.553239;0.887462;8.39567e-13;0;0;8.39567e-13;-1.110223e-16;2.220446e-16;-3.300803e-17;0;0;0;0;2.252843e-16;-1.14262e-16;1.697731e-16;45;0;2.263642e-16;1.994997e-16;-1.110223e-16;-1.514581e-17;-5.087026e-17;2.220446e-16;-3.572445e-17;0.887462;1.110223e-16;-1.110223e-16;0
0.367682;-2.553239;0.890477;8.39567e-13;0;0;8.39567e-13;-3.330669e-16;2.220446e-16;1.785519e-17;0;0;0;0;2.226183e-16;-3.336406e-16;2.781295e-16;45;0;3.708393e-16;3.232815e-16;-3.330669e-16;2.678688e-17;8.92351e-18;2.220446e-16;-1.786337e-17;0.890477;-1.110223e-16;1.110223e-16;0
0.434848;-2.553239;0.90426;8.39567e-13;0;0;8.39567e-13;2.220446e-16;2.220446e-16;8.531125e-18;0;0;0;0;2.305757e-16;2.135135e-16;8.531125e-18;45;0;1.137483e-17;1.483571e-16;2.220446e-16;2.456316e-17;-7.500915e-18;2.220446e-16;-3.206408e-17;0.90426;4.440892e-16;-4.440892e-16;0
0.502013;-2.553239;0.921068;8.39567e-13;0;0;8.39567e-13;0;2.220446e-16;-1.166759e-17;0;0;0;0;2.22656e-16;-6.114037e-19;1.116337e-16;45;0;1.488449e-16;1.486416e-16;0;9.393772e-18;-3.272896e-17;2.220446e-16;-4.212273e-17;0.921068;2.220446e-16;-2.220446e-16;0
0.569178;-2.553239;0.936096;8.39567e-13;0;0;8.39567e-13;-1.110223e-16;0;3.613275e-17;0;0;0;0;1.072376e-17;-1.217461e-16;6.623491e-17;45;0;8.831322e-17;8.496451e-17;-1.110223e-16;4.059989e-17;3.166561e-17;0;-8.93428e-18;0.936096;-1.110223e-16;1.110223e-16;0
0.636344;-2.553239;0.947399;8.39567e-13;0;0;8.39567e-13;-1.110223e-16;0;-6.236327e-18;0;0;0;0;3.492076e-19;-1.113715e-16;5.586036e-17;45;0;7.448048e-17;7.436435e-17;-1.110223e-16;-2.747657e-17;1.500392e-17;0;4.24805e-17;0.947399;-1.110223e-16;1.110223e-16;0
0.703509;-2.553239;0.979162;8.39567e-13;0;0;8.39567e-13;2.220446e-16;2.220446e-16;1.318364e-18;0;0;0;0;2.23363e-16;2.207262e-16;1.318364e-18;45;0;1.757819e-18;1.480376e-16;2.220446e-16;1.273266e-17;-1.009593e-17;2.220446e-16;-2.282859e-17;0.979162;4.440892e-16;-4.440892e-16;0
0.770674;-2.553239;0.972307;8.39567e-13;0;0;8.39567e-13;2.220446e-16;2.220446e-16;-2.227289e-17;0;0;0;0;2.443175e-16;1.997717e-16;2.227289e-17;45;0;2.969718e-17;1.502473e-16;2.220446e-16;-1.466695e-17;-2.987882e-17;2.220446e-16;-1.521186e-17;0.972307;4.440892e-16;-4.440892e-16;0
0.83784;-2.553239;0.937185;8.39567e-13;0;0;8.39567e-13;0;-1.110223e-16;3.361133e-18;0;0;0;0;1.016632e-19;-1.11124e-16;5.561282e-17;45;0;7.415042e-17;7.411655e-17;0;2.508154e-17;-1.835927e-17;-1.110223e-16;-4.344081e-17;0.937185;-1.110223e-16;1.110223e-16;0
0.905005;-2.553239;0.90099;8.39567e-13;0;0;8.39567e-13;2.220446e-16;0;-2.721215e-17;0;0;0;0;2.253309e-16;-3.286283e-18;1.143086e-16;45;0;1.524114e-16;1.513279e-16;2.220446e-16;-4.289608e-17;-1.152822e-17;0;3.136785e-17;0.90099;2.220446e-16;-2.220446e-16;0
0.97217;-2.553239;0.91236;8.39567e-13;0;0;8.39567e-13;2.220446e-16;0;1.756432e-17;0;0;0;0;2.234254e-16;-1.380797e-18;1.124031e-16;45;0;1.498708e-16;1.494127e-16;2.220446e-16;1.525057e-17;1.987806e-17;0;4.627485e-18;0.91236;2.220446e-16;-2.220446e-16;0
1.039336;-2.553239;0.897332;8.39567e-13;0;0;8.39567e-13;2.220446e-16;-1.110223e-16;2.189594e-17;0;0;0;0;2.234779e-16;-1.124556e-16;1.679667e-16;45;0;2.239556e-16;1.974504e-16;2.220446e-16;1.865771e-17;2.513418e-17;-1.110223e-16;6.476473e-18;0.897332;1.110223e-16;-1.110223e-16;0
1.106501;-2.553239;0.833041;8.39567e-13;0;0;8.39567e-13;-1.110223e-16;-1.110223e-16;1.391885e-17;0;0;0;0;-9.710345e-17;-1.249411e-16;1.391885e-17;45;0;1.855846e-17;7.573977e-17;-1.110223e-16;1.802346e-17;9.814232e-18;-1.110223e-16;-8.209227e-18;0.833041;-2.220446e-16;2.220446e-16;0
1.173667;-2.553239;0.807541;8.39567e-13;0;0;8.39567e-13;-1.110223e-16;0;3.435531e-17;0;0;0;0;9.771121e-18;-1.207934e-16;6.528227e-17;45;0;8.704303e-17;8.397569e-17;-1.110223e-16;7.977332e-17;-1.106271e-17;0;-9.083603e-17;0.807541;-1.110223e-16;1.110223e-16;0
1.240832;-2.553239;0.762846;8.39567e-13;0;0;8.39567e-13;2.220446e-16;-1.110223e-16;-9.915986e-18;0;0;0;0;2.223396e-16;-1.113173e-16;1.668284e-16;45;0;2.224379e-16;1.961594e-16;2.220446e-16;-1.272492e-17;-7.107052e-18;-1.110223e-16;5.617869e-18;0.762846;1.110223e-16;-1.110223e-16;0
1.307997;-2.553239;0.66327;8.39567e-13;0;0;8.39567e-13;0;-1.110223e-16;3.492877e-17;0;0;0;0;1.007472e-17;-1.21097e-16;6.558587e-17;45;0;8.744783e-17;8.429052e-17;0;7.661558e-17;-6.758038e-18;-1.110223e-16;-8.337362e-17;0.66327;-1.110223e-16;1.110223e-16;0
1.375163;-2.553239;0.591766;8.39567e-13;0;0;8.39567e-13;-2.220446e-16;-1.110223e-16;3.418162e-18;0;0;0;0;-1.109172e-16;-2.221497e-16;5.561629e-17;45;0;7.415505e-17;1.282583e-16;-2.220446e-16;-3.602065e-18;1.043839e-17;-1.110223e-16;1.404045e-17;0.591766;-3.330669e-16;3.330669e-16;0
1.442328;-2.553239;0.520763;8.39567e-13;0;0;8.39567e-13;-2.220446e-16;-3.330669e-16;3.822238e-17;0;0;0;0;-2.101581e-16;-3.449534e-16;6.739761e-17;45;0;8.986349e-17;2.00737e-16;-2.220446e-16;3.377606e-17;4.26687e-17;-3.330669e-16;8.892636e-18;0.520763;-5.551115e-16;5.551115e-16;0
1.509493;-2.553239;0.423714;8.39567e-13;0;0;8.39567e-13;-3.330669e-16;-3.330669e-16;-4.316548e-18;0;0;0;0;-3.287503e-16;-3.373835e-16;4.316548e-18;45;0;5.755398e-18;2.221005e-16;-3.330669e-16;-1.644155e-17;7.808454e-18;-3.330669e-16;2.425e-17;0.423714;-6.661338e-16;6.661338e-16;0
-0.303971;-2.620404;0.356983;8.39567e-13;0;0;8.39567e-13;2.220446e-16;0;-3.153379e-17;0;0;0;0;2.26436e-16;-4.391439e-18;1.154137e-16;45;0;1.53885e-16;1.524423e-16;2.220446e-16;-2.354104e-17;-3.952654e-17;0;-1.598551e-17;0.356983;2.220446e-16;-2.220446e-16;0
-0.236806;-2.620404;0.455721;8.39567e-13;0;0;8.39567e-13;2.220446e-16;2.220446e-16;-9.564622e-17;0;0;0;0;3.176908e-16;1.263984e-16;9.564622e-17;45;0;1.275283e-16;1.8469e-16;2.220446e-16;-1.670445e-16;-2.424789e-17;2.220446e-16;1.427967e-16;0.455721;4.440892e-16;-4.440892e-16;0
-0.169641;-2.620404;0.557928;8.39567e-13;0;0;8.39567e-13;0;0;2.166849e-17;0;0;0;0;2.166849e-17;-2.166849e-17;2.166849e-17;45;0;2.889132e-17;2.502062e-17;0;3.150349e-17;1.18335e-17;0;-1.966999e-17;0.557928;0;0;0
-0.102475;-2.620404;0.63062;8.39567e-13;0;0;8.39567e-13;0;0;2.0304e-17;0;0;0;0;2.0304e-17;-2.0304e-17;2.0304e-17;45;0;2.7072e-17;2.344504e-17;0;4.780531e-17;-7.197312e-18;0;-5.500262e-17;0.63062;0;0;0
-0.03531;-2.620404;0.693016;8.39567e-13;0;0;8.39567e-13;-2.220446e-16;2.220446e-16;2.202201e-18;0;0;0;0;2.220555e-16;-2.220555e-16;2.220555e-16;45;0;2.96074e-16;2.564076e-16;-2.220446e-16;-1.144734e-17;1.585174e-17;2.220446e-16;2.729909e-17;0.693016;0;0;0
0.031855;-2.620404;0.746089;8.39567e-13;0;0;8.39567e-13;0;2.220446e-16;2.223859e-18;0;0;0;0;2.220669e-16;-2.227055e-20;1.110446e-16;45;0;1.480594e-16;1.48052e-16;0;2.078507e-17;-1.633735e-17;2.220446e-16;-3.712242e-17;0.746089;2.220446e-16;-2.220446e-16;0
0.099021;-2.620404;0.804058;8.39567e-13;0;0;8.39567e-13;0;0;1.649225e-17;0;0;0;0;1.649225e-17;-1.649225e-17;1.649225e-17;45;0;2.198966e-17;1.904361e-17;0;4.548938e-17;-1.250488e-17;0;-5.799426e-17;0.804058;0;0;0
0.166186;-2.620404;0.847352;8.39567e-13;0;0;8.39567e-13;2.220446e-16;-1.110223e-16;1.063984e-17;0;0;0;0;2.223842e-16;-1.113618e-16;1.66873e-16;45;0;2.224973e-16;1.9621e-16;2.220446e-16;3.930104e-17;-1.802137e-17;-1.110223e-16;-5.732241e-17;0.847352;1.110223e-16;-1.110223e-16;0
0.233352;-2.620404;0.873865;8.39567e-13;0;0;8.39567e-13;2.220446e-16;2.220446e-16;1.298108e-17;0;0;0;0;2.350257e-16;2.090635e-16;1.298108e-17;45;0;1.730811e-17;1.487867e-16;2.220446e-16;2.838629e-17;-2.424125e-18;2.220446e-16;-3.081041e-17;0.873865;4.440892e-16;-4.440892e-16;0
0.300517;-2.620404;0.880521;8.39567e-13;0;0;8.39567e-13;-3.330669e-16;2.220446e-16;1.541941e-17;0;0;0;0;2.224726e-16;-3.334949e-16;2.779837e-16;45;0;3.70645e-16;3.231143e-16;-3.330669e-16;2.578464e-17;5.054186e-18;2.220446e-16;-2.073045e-17;0.880521;-1.110223e-16;1.110223e-16;0
0.367682;-2.620404;0.892131;8.39567e-13;0;0;8.39567e-13;0;2.220446e-16;2.977611e-17;0;0;0;0;2.259682e-16;-3.923634e-18;1.149459e-16;45;0;1.532613e-16;1.519703e-16;0;2.378024e-17;3.577198e-17;2.220446e-16;1.199174e-17;0.892131;2.220446e-16;-2.220446e-16;0
0.434848;-2.620404;0.905781;8.39567e-13;0;0;8.39567e-13;2.220446e-16;0;5.241521e-18;0;0;0;0;2.221683e-16;-1.23661e-19;1.11146e-16;45;0;1.481946e-16;1.481534e-16;2.220446e-16;4.127217e-19;1.007032e-17;0;9.657599e-18;0.905781;2.220446e-16;-2.220446e-16;0
0.502013;-2.620404;0.923388;8.39567e-13;0;0;8.39567e-13;2.220446e-16;-1.110223e-16;6.319183e-17;0;0;0;0;2.336308e-16;-1.226085e-16;1.781196e-16;45;0;2.374928e-16;2.089777e-16;2.220446e-16;9.661182e-17;2.977183e-17;-1.110223e-16;-6.684001e-17;0.923388;1.110223e-16;-1.110223e-16;0
0.569178;-2.620404;0.941128;8.39567e-13;0;0;8.39567e-13;2.220446e-16;0;6.480235e-18;0;0;0;0;2.222336e-16;-1.889608e-19;1.112113e-16;45;0;1.482817e-16;1.482187e-16;2.220446e-16;-1.24454e-17;2.540587e-17;0;3.785127e-17;0.941128;2.220446e-16;-2.220446e-16;0
0.636344;-2.620404;0.951831;8.39567e-13;0;0;8.39567e-13;0;-1.110223e-16;7.228026e-18;0;0;0;0;4.685975e-19;-1.114909e-16;5.597975e-17;45;0;7.463966e-17;7.448395e-17;0;5.396373e-19;1.391641e-17;-1.110223e-16;1.337678e-17;0.951831;-1.110223e-16;1.110223e-16;0
0.703509;-2.620404;0.980636;8.39567e-13;0;0;8.39567e-13;2.220446e-16;2.220446e-16;-2.478281e-17;0;0;0;0;2.468274e-16;1.972618e-16;2.478281e-17;45;0;3.304375e-17;1.507704e-16;2.220446e-16;-1.389325e-17;-3.567238e-17;2.220446e-16;-2.177913e-17;0.980636;4.440892e-16;-4.440892e-16;0
0.770674;-2.620404;0.985777;8.39567e-13;0;0;8.39567e-13;2.220446e-16;2.220446e-16;-9.717842e-18;0;0;0;0;2.317625e-16;2.123268e-16;9.717842e-18;45;0;1.295712e-17;1.484544e-16;2.220446e-16;1.008291e-17;-2.95186e-17;2.220446e-16;-3.96015e-17;0.985777;4.440892e-16;-4.440892e-16;0
0.83784;-2.620404;0.940594;8.39567e-13;0;0;8.39567e-13;2.220446e-16;0;-4.582615e-17;0;0;0;0;2.311305e-16;-9.085931e-18;1.201082e-16;45;0;1.601443e-16;1.572032e-16;2.220446e-16;-6.896765e-17;-2.268466e-17;0;4.628299e-17;0.940594;2.220446e-16;-2.220446e-16;0
0.905005;-2.620404;0.899968;8.39567e-13;0;0;8.39567e-13;-1.110223e-16;-3.330669e-16;4.695973e-18;0;0;0;0;-1.10923e-16;-3.331662e-16;1.111216e-16;45;0;1.481621e-16;1.959e-16;-1.110223e-16;-2.418686e-18;1.181063e-17;-3.330669e-16;1.422932e-17;0.899968;-4.440892e-16;4.440892e-16;0
0.97217;-2.620404;0.892427;8.39567e-13;0;0;8.39567e-13;2.220446e-16;0;6.175418e-18;0;0;0;0;2.222162e-16;-1.716157e-19;1.111939e-16;45;0;1.482586e-16;1.482014e-16;2.220446e-16;1.235084e-17;0;0;-1.235084e-17;0.892427;2.220446e-16;-2.220446e-16;0
1.039336;-2.620404;0.875841;8.39567e-13;0;0;8.39567e-13;2.220446e-16;-1.110223e-16;-1.563985e-18;0;0;0;0;2.220519e-16;-1.110296e-16;1.665408e-16;45;0;2.220544e-16;1.958333e-16;2.220446e-16;-7.829909e-18;4.701939e-18;-1.110223e-16;1.253185e-17;0.875841;1.110223e-16;-1.110223e-16;0
1.106501;-2.620404;0.841366;8.39567e-13;0;0;8.39567e-13;2.220446e-16;0;-2.236237e-17;0;0;0;0;2.242744e-16;-2.229749e-18;1.132521e-16;45;0;1.510027e-16;1.50265e-16;2.220446e-16;-1.351497e-17;-3.120977e-17;0;-1.76948e-17;0.841366;2.220446e-16;-2.220446e-16;0
1.173667;-2.620404;0.803092;8.39567e-13;0;0;8.39567e-13;-2.220446e-16;0;1.560756e-18;0;0;0;0;1.097004e-20;-2.220556e-16;1.110333e-16;45;0;1.480444e-16;1.480407e-16;-2.220446e-16;-9.526824e-18;1.264833e-17;0;2.217516e-17;0.803092;-2.220446e-16;2.220446e-16;0
1.240832;-2.620404;0.736183;8.39567e-13;0;0;8.39567e-13;2.220446e-16;0;2.394841e-17;0;0;0;0;2.245982e-16;-2.553567e-18;1.135759e-16;45;0;1.514345e-16;1.505905e-16;2.220446e-16;4.016431e-17;7.732519e-18;0;-3.243179e-17;0.736183;2.220446e-16;-2.220446e-16;0
1.307997;-2.620404;0.671365;8.39567e-13;0;0;8.39567e-13;-1.110223e-16;-1.110223e-16;3.643465e-17;0;0;0;0;-7.458766e-17;-1.474569e-16;3.643465e-17;45;0;4.857953e-17;8.513623e-17;-1.110223e-16;8.753761e-17;-1.466832e-17;-1.110223e-16;-1.022059e-16;0.671365;-2.220446e-16;2.220446e-16;0
1.375163;-2.620404;0.617917;8.39567e-13;0;0;8.39567e-13;0;0;4.669728e-17;0;0;0;0;4.669728e-17;-4.669728e-17;4.669728e-17;45;0;6.226304e-17;5.392137e-17;0;6.464494e-17;2.874962e-17;0;-3.589532e-17;0.617917;0;0;0
1.442328;-2.620404;0.548263;8.39567e-13;0;0;8.39567e-13;4.440892e-16;2.220446e-16;-7.98601e-17;0;0;0;0;4.698279e-16;1.963058e-16;1.367611e-16;45;0;1.823481e-16;2.724737e-16;4.440892e-16;-1.235735e-16;-3.61467e-17;2.220446e-16;8.74268e-17;0.548263;6.661338e-16;-6.661338e-16;0
1.509493;-2.620404;0.440302;8.39567e-13;0;0;8.39567e-13;0;0;-8.827438e-19;0;0;0;0;8.827438e-19;-8.827438e-19;8.827438e-19;45;0;1.176992e-18;1.019305e-18;0;-9.668897e-18;7.903409e-18;0;1.757231e-17;0.440302;0;0;0
-0.303971;-2.687569;0.359981;8.39567e-13;0;0;8.39567e-13;-1.110223e-16;0;1.841543e-17;0;0;0;0;2.974881e-18;-1.139972e-16;5.848603e-17;45;0;7.798137e-17;7.700891e-17;-1.110223e-16;8.36213e-18;2.846873e-17;0;2.01066e-17;0.359981;-1.110223e-16;1.110223e-16;0
-0.236806;-2.687569;0.459027;8.39567e-13;0;0;8.39567e-13;2.220446e-16;-1.110223e-16;2.180085e-17;0;0;0;0;2.234655e-16;-1.124432e-16;1.679544e-16;45;0;2.239392e-16;1.974363e-16;2.220446e-16;3.50675e-17;8.53419e-18;-1.110223e-16;-2.653332e-17;0.459027;1.110223e-16;-1.110223e-16;0
-0.169641;-2.687569;0.563871;8.39567e-13;0;0;8.39567e-13;2.220446e-16;0;-1.101859e-17;0;0;0;0;2.2259e-16;-5.454391e-19;1.115677e-16;45;0;1.48757e-16;1.485755e-16;2.220446e-16;1.158657e-17;-3.362375e-17;0;-4.521032e-17;0.563871;2.220446e-16;-2.220446e-16;0
-0.102475;-2.687569;0.644179;8.39567e-13;0;0;8.39567e-13;0;0;3.420511e-18;0;0;0;0;3.420511e-18;-3.420511e-18;3.420511e-18;45;0;4.560681e-18;3.949666e-18;0;1.4291e-17;-7.449982e-18;0;-2.174099e-17;0.644179;0;0;0
-0.03531;-2.687569;0.684906;8.39567e-13;0;0;8.39567e-13;2.220446e-16;-1.110223e-16;-3.80809e-17;0;0;0;0;2.263431e-16;-1.153208e-16;1.708319e-16;45;0;2.277759e-16;2.007011e-16;2.220446e-16;-6.857303e-17;-7.588774e-18;-1.110223e-16;6.098426e-17;0.684906;1.110223e-16;-1.110223e-16;0
0.031855;-2.687569;0.723182;8.39567e-13;0;0;8.39567e-13;2.220446e-16;-3.330669e-16;5.497665e-18;0;0;0;0;2.220991e-16;-3.331214e-16;2.776102e-16;45;0;3.701469e-16;3.226858e-16;2.220446e-16;-5.149774e-18;1.61451e-17;-3.330669e-16;2.129488e-17;0.723182;-1.110223e-16;1.110223e-16;0
0.099021;-2.687569;0.789769;8.39567e-13;0;0;8.39567e-13;0;-1.110223e-16;3.770671e-19;0;0;0;0;1.280625e-21;-1.110236e-16;5.551244e-17;45;0;7.401658e-17;7.401615e-17;0;2.427746e-17;-2.352332e-17;-1.110223e-16;-4.780078e-17;0.789769;-1.110223e-16;1.110223e-16;0
0.166186;-2.687569;0.838089;8.39567e-13;0;0;8.39567e-13;0;0;1.103586e-17;0;0;0;0;1.103586e-17;-1.103586e-17;1.103586e-17;45;0;1.471448e-17;1.274311e-17;0;8.67709e-18;1.339463e-17;0;4.717537e-18;0.838089;0;0;0
0.233352;-2.687569;0.869357;8.39567e-13;0;0;8.39567e-13;2.220446e-16;-3.330669e-16;4.01901e-18;0;0;0;0;2.220737e-16;-3.33096e-16;2.775848e-16;45;0;3.701131e-16;3.226567e-16;2.220446e-16;-1.312557e-17;2.116359e-17;-3.330669e-16;3.428915e-17;0.869357;-1.110223e-16;1.110223e-16;0
0.300517;-2.687569;0.909798;8.39567e-13;0;0;8.39567e-13;0;2.220446e-16;1.487884e-17;0;0;0;0;2.230372e-16;-9.925692e-19;1.120149e-16;45;0;1.493532e-16;1.490234e-16;0;5.557094e-18;2.420058e-17;2.220446e-16;1.864349e-17;0.909798;2.220446e-16;-2.220446e-16;0
0.367682;-2.687569;0.922757;8.39567e-13;0;0;8.39567e-13;-1.110223e-16;0;-1.262027e-17;0;0;0;0;1.416515e-18;-1.124388e-16;5.692767e-17;45;0;7.590356e-17;7.543581e-17;-1.110223e-16;-3.546435e-17;1.022381e-17;0;4.568816e-17;0.922757;-1.110223e-16;1.110223e-16;0
0.434848;-2.687569;0.917009;8.39567e-13;0;0;8.39567e-13;0;-3.330669e-16;-1.055994e-17;0;0;0;0;3.34469e-19;-3.334014e-16;1.668679e-16;45;0;2.224906e-16;2.223792e-16;0;4.978369e-17;-7.090358e-17;-3.330669e-16;-1.206873e-16;0.917009;-3.330669e-16;3.330669e-16;0
0.502013;-2.687569;0.948878;8.39567e-13;0;0;8.39567e-13;2.220446e-16;2.220446e-16;2.867183e-17;0;0;0;0;2.507164e-16;1.933728e-16;2.867183e-17;45;0;3.822911e-17;1.516869e-16;2.220446e-16;-3.177027e-17;8.911393e-17;2.220446e-16;1.208842e-16;0.948878;4.440892e-16;-4.440892e-16;0
0.569178;-2.687569;0.966464;8.39567e-13;0;0;8.39567e-13;-1.110223e-16;2.220446e-16;7.452782e-18;0;0;0;0;2.222113e-16;-1.11189e-16;1.667001e-16;45;0;2.222668e-16;1.960139e-16;-1.110223e-16;-4.34572e-18;1.925128e-17;2.220446e-16;2.3597e-17;0.966464;1.110223e-16;-1.110223e-16;0
0.636344;-2.687569;0.959793;8.39567e-13;0;0;8.39567e-13;0;-1.110223e-16;2.057416e-17;0;0;0;0;3.690064e-18;-1.147124e-16;5.920122e-17;45;0;7.893495e-17;7.773413e-17;0;2.337111e-17;1.77772e-17;-1.110223e-16;-5.593906e-18;0.959793;-1.110223e-16;1.110223e-16;0
0.703509;-2.687569;0.948578;8.39567e-13;0;0;8.39567e-13;2.220446e-16;0;-1.349423e-17;0;0;0;0;2.228617e-16;-8.170726e-19;1.118394e-16;45;0;1.491192e-16;1.488476e-16;2.220446e-16;1.501104e-17;-4.199949e-17;0;-5.701053e-17;0.948578;2.220446e-16;-2.220446e-16;0
0.770674;-2.687569;0.94879;8.39567e-13;0;0;8.39567e-13;-1.110223e-16;-1.110223e-16;2.517617e-17;0;0;0;0;-8.584613e-17;-1.361985e-16;2.517617e-17;45;0;3.356823e-17;7.951931e-17;-1.110223e-16;4.52634e-17;5.088944e-18;-1.110223e-16;-4.017445e-17;0.94879;-2.220446e-16;2.220446e-16;0
0.83784;-2.687569;0.922353;8.39567e-13;0;0;8.39567e-13;-3.330669e-16;-1.110223e-16;-1.492772e-17;0;0;0;0;-1.100232e-16;-3.34066e-16;1.120214e-16;45;0;1.493618e-16;1.965821e-16;-3.330669e-16;1.591051e-17;-4.576595e-17;-1.110223e-16;-6.167647e-17;0.922353;-4.440892e-16;4.440892e-16;0
0.905005;-2.687569;0.909576;8.39567e-13;0;0;8.39567e-13;0;-3.330669e-16;6.343761e-18;0;0;0;0;1.207827e-19;-3.331877e-16;1.666542e-16;45;0;2.222056e-16;2.221654e-16;0;-1.731201e-17;2.999953e-17;-3.330669e-16;4.731153e-17;0.909576;-3.330669e-16;3.330669e-16;0
0.97217;-2.687569;0.901136;8.39567e-13;0;0;8.39567e-13;-1.110223e-16;0;2.617552e-17;0;0;0;0;5.861852e-18;-1.168842e-16;6.1373e-17;45;0;8.183067e-17;7.994838e-17;-1.110223e-16;4.232918e-17;1.002185e-17;0;-3.230733e-17;0.901136;-1.110223e-16;1.110223e-16;0
1.039336;-2.687569;0.873614;8.39567e-13;0;0;8.39567e-13;0;2.220446e-16;-1.580264e-17;0;0;0;0;2.231636e-16;-1.119014e-18;1.121413e-16;45;0;1.495217e-16;1.491502e-16;0;-2.211974e-17;-9.485534e-18;2.220446e-16;1.26342e-17;0.873614;2.220446e-16;-2.220446e-16;0
1.106501;-2.687569;0.839075;8.39567e-13;0;0;8.39567e-13;-3.330669e-16;-1.110223e-16;-7.720446e-18;0;0;0;0;-1.107542e-16;-3.33335e-16;1.112904e-16;45;0;1.483872e-16;1.960277e-16;-3.330669e-16;-1.318614e-17;-2.254754e-18;-1.110223e-16;1.093138e-17;0.839075;-4.440892e-16;4.440892e-16;0
1.173667;-2.687569;0.794205;8.39567e-13;0;0;8.39567e-13;-1.110223e-16;0;1.660698e-17;0;0;0;0;2.430887e-18;-1.134532e-16;5.794204e-17;45;0;7.725605e-17;7.645864e-17;-1.110223e-16;2.452864e-17;8.685332e-18;0;-1.58433e-17;0.794205;-1.110223e-16;1.110223e-16;0
1.240832;-2.687569;0.749648;8.39567e-13;0;0;8.39567e-13;-1.110223e-16;-1.110223e-16;-1.770301e-17;0;0;0;0;-9.331929e-17;-1.287253e-16;1.770301e-17;45;0;2.360401e-17;7.678583e-17;-1.110223e-16;1.421964e-17;-4.962566e-17;-1.110223e-16;-6.38453e-17;0.749648;-2.220446e-16;2.220446e-16;0
1.307997;-2.687569;0.70801;8.39567e-13;0;0;8.39567e-13;2.220446e-16;2.220446e-16;-3.080973e-17;0;0;0;0;2.528543e-16;1.912349e-16;3.080973e-17;45;0;4.107964e-17;1.522447e-16;2.220446e-16;-6.161946e-17;0;2.220446e-16;6.161946e-17;0.70801;4.440892e-16;-4.440892e-16;0
1.375163;-2.687569;0.640614;8.39567e-13;0;0;8.39567e-13;-2.220446e-16;2.220446e-16;-1.401936e-17;0;0;0;0;2.224867e-16;-2.224867e-16;2.224867e-16;45;0;2.96649e-16;2.569056e-16;-2.220446e-16;1.237323e-17;-4.041196e-17;2.220446e-16;-5.278518e-17;0.640614;0;0;0
1.442328;-2.687569;0.555335;8.39567e-13;0;0;8.39567e-13;4.440892e-16;0;9.20322e-19;0;0;0;0;4.440911e-16;-1.907249e-21;2.220465e-16;45;0;2.96062e-16;2.960614e-16;4.440892e-16;7.629244e-18;-5.7886e-18;0;-1.341784e-17;0.555335;4.440892e-16;-4.440892e-16;0
1.509493;-2.687569;0.438052;8.39567e-13;0;0;8.39567e-13;-2.220446e-16;0;3.160047e-17;0;0;0;0;4.409676e-18;-2.264543e-16;1.15432e-16;45;0;1.539093e-16;1.524607e-16;-2.220446e-16;5.162312e-18;5.803864e-17;0;5.287633e-17;0.438052;-2.220446e-16;2.220446e-16;0
-0.303971;-2.754735;0.360094;8.39567e-13;0;0;8.39567e-13;-2.220446e-16;0;1.344337e-17;0;0;0;0;8.10948e-19;-2.228556e-16;1.118332e-16;45;0;1.49111e-16;1.488414e-16;-2.220446e-16;1.124199e-17;1.564475e-17;0;4.402761e-18;0.360094;-2.220446e-16;2.220446e-16;0
-0.236806;-2.754735;0.467151;8.39567e-13;0;0;8.39567e-13;2.220446e-16;-1.110223e-16;1.287634e-17;0;0;0;0;2.225417e-16;-1.115194e-16;1.670305e-16;45;0;2.227074e-16;1.963886e-16;2.220446e-16;4.02278e-17;-1.447511e-17;-1.110223e-16;-5.470292e-17;0.467151;1.110223e-16;-1.110223e-16;0
-0.169641;-2.754735;0.56461;8.39567e-13;0;0;8.39567e-13;2.220446e-16;-1.110223e-16;-2.739518e-18;0;0;0;0;2.220671e-16;-1.110448e-16;1.66556e-16;45;0;2.220746e-16;1.958505e-16;2.220446e-16;-2.263755e-17;1.715851e-17;-1.110223e-16;3.979606e-17;0.56461;1.110223e-16;-1.110223e-16;0
-0.102475;-2.754735;0.646437;8.39567e-13;0;0;8.39567e-13;2.220446e-16;2.220446e-16;-3.423126e-17;0;0;0;0;2.562759e-16;1.878133e-16;3.423126e-17;45;0;4.564168e-17;1.532161e-16;2.220446e-16;-4.64155e-17;-2.204702e-17;2.220446e-16;2.436849e-17;0.646437;4.440892e-16;-4.440892e-16;0
-0.03531;-2.754735;0.693521;8.39567e-13;0;0;8.39567e-13;0;0;-1.165806e-17;0;0;0;0;1.165806e-17;-1.165806e-17;1.165806e-17;45;0;1.554407e-17;1.346156e-17;0;-8.096082e-18;-1.522003e-17;0;-7.123946e-18;0.693521;0;0;0
0.031855;-2.754735;0.721058;8.39567e-13;0;0;8.39567e-13;2.220446e-16;0;-1.610321e-17;0;0;0;0;2.232064e-16;-1.161766e-18;1.121841e-16;45;0;1.495788e-16;1.49193e-16;2.220446e-16;9.576961e-18;-4.178339e-17;0;-5.136035e-17;0.721058;2.220446e-16;-2.220446e-16;0
0.099021;-2.754735;0.787647;8.39567e-13;0;0;8.39567e-13;0;0;-4.982431e-18;0;0;0;0;4.982431e-18;-4.982431e-18;4.982431e-18;45;0;6.643241e-18;5.753215e-18;0;-4.078839e-18;-5.886022e-18;0;-1.807184e-18;0.787647;0;0;0
0.166186;-2.754735;0.84642;8.39567e-13;0;0;8.39567e-13;0;0;-2.61281e-17;0;0;0;0;2.61281e-17;-2.61281e-17;2.61281e-17;45;0;3.483747e-17;3.017013e-17;0;-2.342548e-18;-4.991365e-17;0;-4.75711e-17;0.84642;0;0;0
0.233352;-2.754735;0.867316;8.39567e-13;0;0;8.39567e-13;0;-1.110223e-16;7.16716e-18;0;0;0;0;4.607711e-19;-1.114831e-16;5.597192e-17;45;0;7.462923e-17;7.447611e-17;0;1.242493e-17;1.909388e-18;-1.110223e-16;-1.051554e-17;0.867316;-1.110223e-16;1.110223e-16;0
0.300517;-2.754735;0.897151;8.39567e-13;0;0;8.39567e-13;2.220446e-16;-1.110223e-16;-2.96537e-18;0;0;0;0;2.22071e-16;-1.110487e-16;1.665599e-16;45;0;2.220798e-16;1.958549e-16;2.220446e-16;-5.336237e-18;-5.945031e-19;-1.110223e-16;4.741734e-18;0.897151;1.110223e-16;-1.110223e-16;0
0.367682;-2.754735;0.928918;8.39567e-13;0;0;8.39567e-13;-3.330669e-16;0;-1.819892e-17;0;0;0;0;9.914462e-19;-3.340584e-16;1.675249e-16;45;0;2.233665e-16;2.230368e-16;-3.330669e-16;-3.010517e-17;-6.292686e-18;0;2.381248e-17;0.928918;-3.330669e-16;3.330669e-16;0
0.434848;-2.754735;0.935861;8.39567e-13;0;0;8.39567e-13;0;2.220446e-16;-1.864548e-18;0;0;0;0;2.220602e-16;-1.565585e-20;1.11038e-16;45;0;1.480506e-16;1.480454e-16;0;-2.44812e-18;-1.280977e-18;2.220446e-16;1.167143e-18;0.935861;2.220446e-16;-2.220446e-16;0
0.502013;-2.754735;0.947845;8.39567e-13;0;0;8.39567e-13;2.220446e-16;-1.110223e-16;-2.26494e-17;0;0;0;0;2.235778e-16;-1.125555e-16;1.680666e-16;45;0;2.240888e-16;1.975637e-16;2.220446e-16;-2.740399e-17;-1.789482e-17;-1.110223e-16;9.509169e-18;0.947845;1.110223e-16;-1.110223e-16;0
0.569178;-2.754735;0.952724;8.39567e-13;0;0;8.39567e-13;-1.110223e-16;-3.330669e-16;-2.729505e-17;0;0;0;0;-1.077163e-16;-3.36373e-16;1.143284e-16;45;0;1.524378e-16;1.983451e-16;-1.110223e-16;-3.140929e-17;-2.318081e-17;-3.330669e-16;8.228482e-18;0.952724;-4.440892e-16;4.440892e-16;0
0.636344;-2.754735;0.954467;8.39567e-13;0;0;8.39567e-13;0;-1.110223e-16;-1.648019e-17;0;0;0;0;2.394673e-18;-1.13417e-16;5.790583e-17;45;0;7.720777e-17;7.642205e-17;0;-2.630605e-18;-3.032977e-17;-1.110223e-16;-2.769917e-17;0.954467;-1.110223e-16;1.110223e-16;0
0.703509;-2.754735;0.944429;8.39567e-13;0;0;8.39567e-13;2.220446e-16;2.220446e-16;-2.610609e-17;0;0;0;0;2.481507e-16;1.959385e-16;2.610609e-17;45;0;3.480811e-17;1.510679e-16;2.220446e-16;-3.77662e-17;-1.444597e-17;2.220446e-16;2.332024e-17;0.944429;4.440892e-16;-4.440892e-16;0
0.770674;-2.754735;0.952296;8.39567e-13;0;0;8.39567e-13;2.220446e-16;-1.110223e-16;-2.481133e-17;0;0;0;0;2.238827e-16;-1.128604e-16;1.683716e-16;45;0;2.244955e-16;1.979096e-16;2.220446e-16;-3.284115e-17;-1.67815e-17;-1.110223e-16;1.605965e-17;0.952296;1.110223e-16;-1.110223e-16;0
0.83784;-2.754735;0.950517;8.39567e-13;0;0;8.39567e-13;0;0;-1.825925e-17;0;0;0;0;1.825925e-17;-1.825925e-17;1.825925e-17;45;0;2.434566e-17;2.108396e-17;0;-1.667344e-17;-1.984505e-17;0;-3.171603e-18;0.950517;0;0;0
0.905005;-2.754735;0.916036;8.39567e-13;0;0;8.39567e-13;-1.110223e-16;-1.110223e-16;2.094445e-17;0;0;0;0;-9.007785e-17;-1.319668e-16;2.094445e-17;45;0;2.792594e-17;7.786587e-17;-1.110223e-16;1.314427e-17;2.874463e-17;-1.110223e-16;1.560036e-17;0.916036;-2.220446e-16;2.220446e-16;0
0.97217;-2.754735;0.896401;8.39567e-13;0;0;8.39567e-13;2.220446e-16;-1.110223e-16;-4.394659e-19;0;0;0;0;2.220452e-16;-1.110229e-16;1.66534e-16;45;0;2.220454e-16;1.958256e-16;2.220446e-16;1.465504e-17;-1.553397e-17;-1.110223e-16;-3.018901e-17;0.896401;1.110223e-16;-1.110223e-16;0
1.039336;-2.754735;0.880563;8.39567e-13;0;0;8.39567e-13;2.220446e-16;2.220446e-16;3.336718e-17;0;0;0;0;2.554118e-16;1.886774e-16;3.336718e-17;45;0;4.448957e-17;1.529617e-16;2.220446e-16;2.797856e-17;3.87558e-17;2.220446e-16;1.077724e-17;0.880563;4.440892e-16;-4.440892e-16;0
1.106501;-2.754735;0.842502;8.39567e-13;0;0;8.39567e-13;0;2.220446e-16;2.427215e-17;0;0;0;0;2.246669e-16;-2.622271e-18;1.136446e-16;45;0;1.515261e-16;1.506596e-16;0;3.462178e-17;1.392253e-17;2.220446e-16;-2.069925e-17;0.842502;2.220446e-16;-2.220446e-16;0
1.173667;-2.754735;0.815119;8.39567e-13;0;0;8.39567e-13;2.220446e-16;-3.330669e-16;1.098226e-18;0;0;0;0;2.220468e-16;-3.330691e-16;2.775579e-16;45;0;3.700772e-16;3.226258e-16;2.220446e-16;2.196451e-18;0;-3.330669e-16;-2.196451e-18;0.815119;-1.110223e-16;1.110223e-16;0
1.240832;-2.754735;0.792568;8.39567e-13;0;0;8.39567e-13;0;2.220446e-16;2.644035e-17;0;0;0;0;2.251496e-16;-3.10501e-18;1.141273e-16;45;0;1.521697e-16;1.511454e-16;0;6.950738e-17;-1.662669e-17;2.220446e-16;-8.613408e-17;0.792568;2.220446e-16;-2.220446e-16;0
1.307997;-2.754735;0.738753;8.39567e-13;0;0;8.39567e-13;-1.110223e-16;0;4.455558e-17;0;0;0;0;1.566952e-17;-1.266918e-16;7.118067e-17;45;0;9.490756e-17;9.013953e-17;-1.110223e-16;1.174173e-16;-2.830618e-17;0;-1.457235e-16;0.738753;-1.110223e-16;1.110223e-16;0
1.375163;-2.754735;0.657509;8.39567e-13;0;0;8.39567e-13;-2.220446e-16;0;1.916874e-17;0;0;0;0;1.642653e-18;-2.236873e-16;1.12665e-16;45;0;1.502199e-16;1.496754e-16;-2.220446e-16;1.972375e-17;1.861373e-17;0;-1.110021e-18;0.657509;-2.220446e-16;2.220446e-16;0
1.442328;-2.754735;0.559849;8.39567e-13;0;0;8.39567e-13;-2.220446e-16;0;-2.697393e-17;0;0;0;0;3.229807e-18;-2.252744e-16;1.142521e-16;45;0;1.523361e-16;1.51271e-16;-2.220446e-16;-6.546313e-17;1.151527e-17;0;7.697839e-17;0.559849;-2.220446e-16;2.220446e-16;0
1.509493;-2.754735;0.458207;8.39567e-13;0;0;8.39567e-13;-2.220446e-16;0;3.579789e-17;0;0;0;0;5.628633e-18;-2.276732e-16;1.166509e-16;45;0;1.555346e-16;1.536927e-16;-2.220446e-16;4.234146e-17;2.925432e-17;0;-1.308714e-17;0.458207;-2.220446e-16;2.220446e-16;0
-0.303971;-2.8219;0.381416;8.39567e-13;0;0;8.39567e-13;2.220446e-16;0;1.96816e-18;0;0;0;0;2.22062e-16;-1.744402e-20;1.110397e-16;45;0;1.48053e-16;1.480472e-16;2.220446e-16;-3.179749e-17;3.573382e-17;0;6.753131e-17;0.381416;2.220446e-16;-2.220446e-16;0
-0.236806;-2.8219;0.466952;8.39567e-13;0;0;8.39567e-13;2.220446e-16;-3.330669e-16;1.193411e-18;0;0;0;0;2.220472e-16;-3.330695e-16;2.775583e-16;45;0;3.700778e-16;3.226263e-16;2.220446e-16;-2.095377e-17;2.334059e-17;-3.330669e-16;4.429435e-17;0.466952;-1.110223e-16;1.110223e-16;0
-0.169641;-2.8219;0.55757;8.39567e-13;0;0;8.39567e-13;0;2.220446e-16;-1.624295e-17;0;0;0;0;2.232265e-16;-1.181909e-18;1.122042e-16;45;0;1.496056e-16;1.492132e-16;0;-3.248589e-17;0;2.220446e-16;3.248589e-17;0.55757;2.220446e-16;-2.220446e-16;0
-0.102475;-2.8219;0.625443;8.39567e-13;0;0;8.39567e-13;0;-3.330669e-16;-3.387014e-18;0;0;0;0;3.443956e-20;-3.331013e-16;1.665679e-16;45;0;2.220905e-16;2.22079e-16;0;7.701641e-18;-1.447567e-17;-3.330669e-16;-2.217731e-17;0.625443;-3.330669e-16;3.330669e-16;0
-0.03531;-2.8219;0.69476;8.39567e-13;0;0;8.39567e-13;-1.110223e-16;0;5.675602e-17;0;0;0;0;2.38786e-17;-1.349009e-16;7.938976e-17;45;0;1.05853e-16;9.885947e-17;-1.110223e-16;7.804082e-17;3.547121e-17;0;-4.256962e-17;0.69476;-1.110223e-16;1.110223e-16;0
0.031855;-2.8219;0.741063;8.39567e-13;0;0;8.39567e-13;-2.220446e-16;-1.110223e-16;-3.099717e-17;0;0;0;0;-1.029543e-16;-2.301126e-16;6.357918e-17;45;0;8.477224e-17;1.331003e-16;-2.220446e-16;-2.824657e-17;-3.374776e-17;-1.110223e-16;-5.501187e-18;0.741063;-3.330669e-16;3.330669e-16;0
0.099021;-2.8219;0.779613;8.39567e-13;0;0;8.39567e-13;4.440892e-16;0;2.692639e-17;0;0;0;0;4.457159e-16;-1.626665e-18;2.236713e-16;45;0;2.982284e-16;2.976876e-16;4.440892e-16;3.707177e-17;1.6781e-17;0;-2.029077e-17;0.779613;4.440892e-16;-4.440892e-16;0
0.166186;-2.8219;0.827887;8.39567e-13;0;0;8.39567e-13;-1.110223e-16;0;-3.52985e-17;0;0;0;0;1.027237e-17;-1.212947e-16;6.578352e-17;45;0;8.771136e-17;8.449563e-17;-1.110223e-16;-5.558163e-17;-1.501536e-17;0;4.056628e-17;0.827887;-1.110223e-16;1.110223e-16;0
0.233352;-2.8219;0.876337;8.39567e-13;0;0;8.39567e-13;2.220446e-16;2.220446e-16;1.827553e-17;0;0;0;0;2.403201e-16;2.037691e-16;1.827553e-17;45;0;2.436737e-17;1.495264e-16;2.220446e-16;-1.346505e-17;5.001611e-17;2.220446e-16;6.348116e-17;0.876337;4.440892e-16;-4.440892e-16;0
0.300517;-2.8219;0.902744;8.39567e-13;0;0;8.39567e-13;2.220446e-16;0;4.420116e-18;0;0;0;0;2.221326e-16;-8.795391e-20;1.111103e-16;45;0;1.48147e-16;1.481177e-16;2.220446e-16;-7.706842e-19;9.610916e-18;0;1.03816e-17;0.902744;2.220446e-16;-2.220446e-16;0
0.367682;-2.8219;0.92398;8.39567e-13;0;0;8.39567e-13;0;-3.330669e-16;-2.984549e-17;0;0;0;0;2.653262e-18;-3.357202e-16;1.691867e-16;45;0;2.255823e-16;2.247031e-16;0;2.657316e-18;-6.23483e-17;-3.330669e-16;-6.500562e-17;0.92398;-3.330669e-16;3.330669e-16;0
0.434848;-2.8219;0.936405;8.39567e-13;0;0;8.39567e-13;0;-3.330669e-16;-1.141125e-17;0;0;0;0;3.905046e-19;-3.334574e-16;1.66924e-16;45;0;2.225653e-16;2.224352e-16;0;-3.570901e-17;1.288651e-17;-3.330669e-16;4.859552e-17;0.936405;-3.330669e-16;3.330669e-16;0
0.502013;-2.8219;0.926307;8.39567e-13;0;0;8.39567e-13;0;-3.330669e-16;-7.268897e-18;0;0;0;0;1.585619e-19;-3.332255e-16;1.66692e-16;45;0;2.22256e-16;2.222032e-16;0;-2.038525e-17;5.847453e-18;-3.330669e-16;2.62327e-17;0.926307;-3.330669e-16;3.330669e-16;0
0.569178;-2.8219;0.928463;8.39567e-13;0;0;8.39567e-13;0;-1.110223e-16;-4.136494e-17;0;0;0;0;1.371706e-17;-1.247394e-16;6.922821e-17;45;0;9.230429e-17;8.808865e-17;0;-6.852704e-17;-1.420283e-17;-1.110223e-16;5.432421e-17;0.928463;-1.110223e-16;1.110223e-16;0
0.636344;-2.8219;0.941341;8.39567e-13;0;0;8.39567e-13;2.220446e-16;0;-6.022166e-18;0;0;0;0;2.222078e-16;-1.632097e-19;1.111855e-16;45;0;1.482473e-16;1.48193e-16;2.220446e-16;-4.308768e-19;-1.161345e-17;0;-1.118258e-17;0.941341;2.220446e-16;-2.220446e-16;0
0.703509;-2.8219;0.946736;8.39567e-13;0;0;8.39567e-13;2.220446e-16;2.220446e-16;-1.132424e-17;0;0;0;0;2.333689e-16;2.107204e-16;1.132424e-17;45;0;1.509899e-17;1.486061e-16;2.220446e-16;-8.139416e-19;-2.183454e-17;2.220446e-16;-2.10206e-17;0.946736;4.440892e-16;-4.440892e-16;0
0.770674;-2.8219;0.956066;8.39567e-13;0;0;8.39567e-13;0;0;5.57557e-18;0;0;0;0;5.57557e-18;-5.57557e-18;5.57557e-18;45;0;7.434093e-18;6.438114e-18;0;2.005736e-17;-8.906219e-18;0;-2.896358e-17;0.956066;0;0;0
0.83784;-2.8219;0.972998;8.39567e-13;0;0;8.39567e-13;0;2.220446e-16;-1.83303e-19;0;0;0;0;2.220448e-16;-1.513207e-22;1.110224e-16;45;0;1.480299e-16;1.480299e-16;0;1.445759e-17;-1.48242e-17;2.220446e-16;-2.928179e-17;0.972998;2.220446e-16;-2.220446e-16;0
0.905005;-2.8219;0.921994;8.39567e-13;0;0;8.39567e-13;-1.110223e-16;-1.110223e-16;-2.630964e-18;0;0;0;0;-1.083913e-16;-1.136533e-16;2.630964e-18;45;0;3.507951e-18;7.407719e-17;-1.110223e-16;6.067919e-18;-1.132985e-17;-1.110223e-16;-1.739777e-17;0.921994;-2.220446e-16;2.220446e-16;0
0.97217;-2.8219;0.890964;8.39567e-13;0;0;8.39567e-13;0;0;-1.309937e-17;0;0;0;0;1.309937e-17;-1.309937e-17;1.309937e-17;45;0;1.746582e-17;1.512585e-17;0;1.920378e-17;-4.540252e-17;0;-6.460631e-17;0.890964;0;0;0
1.039336;-2.8219;0.876655;8.39567e-13;0;0;8.39567e-13;-3.330669e-16;0;-3.807437e-18;0;0;0;0;4.351885e-20;-3.331104e-16;1.66577e-16;45;0;2.221026e-16;2.220881e-16;-3.330669e-16;-4.225903e-19;-7.192285e-18;0;-6.769695e-18;0.876655;-3.330669e-16;3.330669e-16;0
1.106501;-2.8219;0.840672;8.39567e-13;0;0;8.39567e-13;2.220446e-16;2.220446e-16;7.135653e-18;0;0;0;0;2.291802e-16;2.149089e-16;7.135653e-18;45;0;9.514203e-18;1.482589e-16;2.220446e-16;1.188254e-17;2.388763e-18;2.220446e-16;-9.493779e-18;0.840672;4.440892e-16;-4.440892e-16;0
1.173667;-2.8219;0.826461;8.39567e-13;0;0;8.39567e-13;0;2.220446e-16;2.91608e-17;0;0;0;0;2.258104e-16;-3.76578e-18;1.147881e-16;45;0;1.530508e-16;1.518111e-16;0;3.035882e-17;2.796277e-17;2.220446e-16;-2.396048e-18;0.826461;2.220446e-16;-2.220446e-16;0
1.240832;-2.8219;0.780831;8.39567e-13;0;0;8.39567e-13;-1.110223e-16;0;-4.154919e-17;0;0;0;0;1.382732e-17;-1.248496e-16;6.933847e-17;45;0;9.245129e-17;8.82042e-17;-1.110223e-16;-5.169355e-17;-3.140484e-17;0;2.028871e-17;0.780831;-1.110223e-16;1.110223e-16;0
1.307997;-2.8219;0.702399;8.39567e-13;0;0;8.39567e-13;2.220446e-16;-1.110223e-16;5.991237e-19;0;0;0;0;2.220457e-16;-1.110234e-16;1.665345e-16;45;0;2.22046e-16;1.958262e-16;2.220446e-16;1.499203e-17;-1.379378e-17;-1.110223e-16;-2.878581e-17;0.702399;1.110223e-16;-1.110223e-16;0
1.375163;-2.8219;0.618699;8.39567e-13;0;0;8.39567e-13;-4.440892e-16;2.220446e-16;1.889609e-18;0;0;0;0;2.2205e-16;-4.440946e-16;3.330723e-16;45;0;4.440964e-16;3.916559e-16;-4.440892e-16;1.021892e-17;-6.439704e-18;2.220446e-16;-1.665863e-17;0.618699;-2.220446e-16;2.220446e-16;0
1.442328;-2.8219;0.531515;8.39567e-13;0;0;8.39567e-13;-2.220446e-16;0;-5.641477e-18;0;0;0;0;1.432404e-19;-2.221878e-16;1.111655e-16;45;0;1.482207e-16;1.48173e-16;-2.220446e-16;6.558044e-19;-1.193876e-17;0;-1.259456e-17;0.531515;-2.220446e-16;2.220446e-16;0
1.509493;-2.8219;0.436614;8.39567e-13;0;0;8.39567e-13;4.440892e-16;0;-3.528249e-17;0;0;0;0;4.468749e-16;-2.785689e-18;2.248303e-16;45;0;2.997737e-16;2.988495e-16;4.440892e-16;-2.721037e-17;-4.335462e-17;0;-1.614425e-17;0.436614;4.440892e-16;-4.440892e-16;0
-0.303971;-2.889065;0.39417;8.39567e-13;0;0;8.39567e-13;0;2.220446e-16;1.611627e-17;0;0;0;0;2.232082e-16;-1.163641e-18;1.121859e-16;45;0;1.495813e-16;1.491949e-16;0;1.494208e-17;1.729046e-17;2.220446e-16;2.348381e-18;0.39417;2.220446e-16;-2.220446e-16;0
-0.236806;-2.889065;0.467398;8.39567e-13;0;0;8.39567e-13;-2.220446e-16;2.220446e-16;4.470911e-17;0;0;0;0;2.26501e-16;-2.26501e-16;2.26501e-16;45;0;3.020014e-16;2.615409e-16;-2.220446e-16;9.60533e-17;-6.635085e-18;2.220446e-16;-1.026884e-16;0.467398;0;0;0
-0.169641;-2.889065;0.547061;8.39567e-13;0;0;8.39567e-13;2.220446e-16;-1.110223e-16;5.294052e-17;0;0;0;0;2.302569e-16;-1.192346e-16;1.747458e-16;45;0;2.329944e-16;2.051447e-16;2.220446e-16;7.141987e-17;3.446118e-17;-1.110223e-16;-3.695869e-17;0.547061;1.110223e-16;-1.110223e-16;0
-0.102475;-2.889065;0.610182;8.39567e-13;0;0;8.39567e-13;2.220446e-16;-3.330669e-16;4.616561e-17;0;0;0;0;2.258578e-16;-3.368801e-16;2.813689e-16;45;0;3.751585e-16;3.269977e-16;2.220446e-16;6.766311e-17;2.46681e-17;-3.330669e-16;-4.299501e-17;0.610182;-1.110223e-16;1.110223e-16;0
-0.03531;-2.889065;0.683756;8.39567e-13;0;0;8.39567e-13;-1.110223e-16;2.220446e-16;4.60968e-17;0;0;0;0;2.283067e-16;-1.172844e-16;1.727956e-16;45;0;2.303941e-16;2.029301e-16;-1.110223e-16;5.940861e-17;3.278498e-17;2.220446e-16;-2.662363e-17;0.683756;1.110223e-16;-1.110223e-16;0
0.031855;-2.889065;0.748671;8.39567e-13;0;0;8.39567e-13;2.220446e-16;2.220446e-16;1.915133e-17;0;0;0;0;2.411959e-16;2.028933e-16;1.915133e-17;45;0;2.55351e-17;1.496724e-16;2.220446e-16;2.225748e-17;1.604517e-17;2.220446e-16;-6.212305e-18;0.748671;4.440892e-16;-4.440892e-16;0
0.099021;-2.889065;0.798675;8.39567e-13;0;0;8.39567e-13;0;0;-4.360013e-18;0;0;0;0;4.360013e-18;-4.360013e-18;4.360013e-18;45;0;5.81335e-18;5.034509e-18;0;-8.720026e-18;0;0;8.720026e-18;0.798675;0;0;0
0.166186;-2.889065;0.832525;8.39567e-13;0;0;8.39567e-13;0;-1.110223e-16;1.969833e-17;0;0;0;0;3.391415e-18;-1.144137e-16;5.890257e-17;45;0;7.853676e-17;7.743105e-17;0;2.159715e-17;1.779952e-17;-1.110223e-16;-3.797634e-18;0.832525;-1.110223e-16;1.110223e-16;0
0.233352;-2.889065;0.878818;8.39567e-13;0;0;8.39567e-13;0;0;-7.28668e-18;0;0;0;0;7.28668e-18;-7.28668e-18;7.28668e-18;45;0;9.715573e-18;8.413933e-18;0;2.369911e-18;-1.694327e-17;0;-1.931318e-17;0.878818;0;0;0
0.300517;-2.889065;0.917011;8.39567e-13;0;0;8.39567e-13;2.220446e-16;2.220446e-16;1.389812e-17;0;0;0;0;2.359427e-16;2.081465e-16;1.389812e-17;45;0;1.853083e-17;1.488971e-16;2.220446e-16;1.819191e-17;9.604332e-18;2.220446e-16;-8.587577e-18;0.917011;4.440892e-16;-4.440892e-16;0
0.367682;-2.889065;0.934098;8.39567e-13;0;0;8.39567e-13;0;2.220446e-16;1.549569e-17;0;0;0;0;2.231208e-16;-1.076172e-18;1.120985e-16;45;0;1.494646e-16;1.491072e-16;0;1.364785e-17;1.734352e-17;2.220446e-16;3.695663e-18;0.934098;2.220446e-16;-2.220446e-16;0
0.434848;-2.889065;0.954973;8.39567e-13;0;0;8.39567e-13;2.220446e-16;0;-1.816356e-18;0;0;0;0;2.220595e-16;-1.485705e-20;1.110372e-16;45;0;1.480495e-16;1.480446e-16;2.220446e-16;2.925326e-17;-3.288597e-17;0;-6.213923e-17;0.954973;2.220446e-16;-2.220446e-16;0
0.502013;-2.889065;0.948598;8.39567e-13;0;0;8.39567e-13;-1.110223e-16;0;-2.607306e-18;0;0;0;0;6.119761e-20;-1.110835e-16;5.557235e-17;45;0;7.409646e-17;7.407608e-17;-1.110223e-16;-5.214612e-18;0;0;5.214612e-18;0.948598;-1.110223e-16;1.110223e-16;0
0.569178;-2.889065;0.936501;8.39567e-13;0;0;8.39567e-13;0;2.220446e-16;-2.605284e-17;0;0;0;0;2.250605e-16;-3.015859e-18;1.140382e-16;45;0;1.520509e-16;1.510556e-16;0;-2.691512e-18;-4.941417e-17;2.220446e-16;-4.672266e-17;0.936501;2.220446e-16;-2.220446e-16;0
0.636344;-2.889065;0.927531;8.39567e-13;0;0;8.39567e-13;0;2.220446e-16;-3.010286e-17;0;0;0;0;2.260533e-16;-4.00871e-18;1.15031e-16;45;0;1.533747e-16;1.520561e-16;0;-2.342611e-17;-3.677961e-17;2.220446e-16;-1.33535e-17;0.927531;2.220446e-16;-2.220446e-16;0
0.703509;-2.889065;0.932179;8.39567e-13;0;0;8.39567e-13;0;2.220446e-16;7.320471e-18;0;0;0;0;2.222857e-16;-2.41083e-19;1.112634e-16;45;0;1.483512e-16;1.482709e-16;0;1.464094e-17;0;2.220446e-16;-1.464094e-17;0.932179;2.220446e-16;-2.220446e-16;0
0.770674;-2.889065;0.954824;8.39567e-13;0;0;8.39567e-13;0;0;6.283304e-18;0;0;0;0;6.283304e-18;-6.283304e-18;6.283304e-18;45;0;8.377738e-18;7.255334e-18;0;-2.468279e-18;1.503489e-17;0;1.750316e-17;0.954824;0;0;0
0.83784;-2.889065;0.964762;8.39567e-13;0;0;8.39567e-13;4.440892e-16;0;-2.790141e-18;0;0;0;0;4.441067e-16;-1.752932e-20;2.220621e-16;45;0;2.960829e-16;2.96077e-16;4.440892e-16;1.925627e-17;-2.483655e-17;0;-4.409282e-17;0.964762;4.440892e-16;-4.440892e-16;0
0.905005;-2.889065;0.917323;8.39567e-13;0;0;8.39567e-13;2.220446e-16;0;-8.671279e-18;0;0;0;0;2.223827e-16;-3.381156e-19;1.113604e-16;45;0;1.484806e-16;1.48368e-16;2.220446e-16;-2.368576e-17;6.343206e-18;0;3.002897e-17;0.917323;2.220446e-16;-2.220446e-16;0
0.97217;-2.889065;0.895648;8.39567e-13;0;0;8.39567e-13;0;0;3.67451e-17;0;0;0;0;3.67451e-17;-3.67451e-17;3.67451e-17;45;0;4.899346e-17;4.242958e-17;0;5.878833e-17;1.470187e-17;0;-4.408646e-17;0.895648;0;0;0
1.039336;-2.889065;0.869386;8.39567e-13;0;0;8.39567e-13;4.440892e-16;0;-1.185581e-17;0;0;0;0;4.444055e-16;-3.162882e-19;2.223609e-16;45;0;2.964812e-16;2.963758e-16;4.440892e-16;-4.81118e-18;-1.890044e-17;0;-1.408926e-17;0.869386;4.440892e-16;-4.440892e-16;0
1.106501;-2.889065;0.836303;8.39567e-13;0;0;8.39567e-13;2.220446e-16;0;8.132819e-18;0;0;0;0;2.223421e-16;-2.974819e-19;1.113198e-16;45;0;1.484264e-16;1.483273e-16;2.220446e-16;7.088258e-18;9.177381e-18;0;2.089124e-18;0.836303;2.220446e-16;-2.220446e-16;0
1.173667;-2.889065;0.814395;8.39567e-13;0;0;8.39567e-13;-3.330669e-16;0;1.569283e-17;0;0;0;0;7.377514e-19;-3.338046e-16;1.672712e-16;45;0;2.230283e-16;2.227828e-16;-3.330669e-16;-3.983776e-18;3.536943e-17;0;3.935321e-17;0.814395;-3.330669e-16;3.330669e-16;0
1.240832;-2.889065;0.75864;8.39567e-13;0;0;8.39567e-13;2.220446e-16;2.220446e-16;5.07151e-17;0;0;0;0;2.727597e-16;1.713295e-16;5.07151e-17;45;0;6.762013e-17;1.591922e-16;2.220446e-16;7.08053e-17;3.062489e-17;2.220446e-16;-4.018041e-17;0.75864;4.440892e-16;-4.440892e-16;0
1.307997;-2.889065;0.699845;8.39567e-13;0;0;8.39567e-13;2.220446e-16;0;-2.08703e-17;0;0;0;0;2.239892e-16;-1.944601e-18;1.129669e-16;45;0;1.506225e-16;1.499785e-16;2.220446e-16;-4.943232e-17;7.691713e-18;0;5.712403e-17;0.699845;2.220446e-16;-2.220446e-16;0
1.375163;-2.889065;0.642031;8.39567e-13;0;0;8.39567e-13;-1.110223e-16;-3.330669e-16;5.745148e-17;0;0;0;0;-9.703811e-17;-3.470511e-16;1.250065e-16;45;0;1.666753e-16;2.067566e-16;-1.110223e-16;3.934582e-17;7.555714e-17;-3.330669e-16;3.621132e-17;0.642031;-4.440892e-16;4.440892e-16;0
1.442328;-2.889065;0.57974;8.39567e-13;0;0;8.39567e-13;0;-1.110223e-16;4.182031e-17;0;0;0;0;1.399012e-17;-1.250124e-16;6.950127e-17;45;0;9.266836e-17;8.837487e-17;0;5.862598e-17;2.501463e-17;-1.110223e-16;-3.361135e-17;0.57974;-1.110223e-16;1.110223e-16;0
1.509493;-2.889065;0.484162;8.39567e-13;0;0;8.39567e-13;2.220446e-16;-2.220446e-16;-7.762831e-17;0;0;0;0;2.352232e-16;-2.352232e-16;2.352232e-16;45;0;3.136309e-16;2.716124e-16;2.220446e-16;-1.229749e-16;-3.228173e-17;-2.220446e-16;9.069315e-17;0.484162;0;0;0
-0.303971;-2.956231;0.377312;8.39567e-13;0;0;8.39567e-13;4.440892e-16;-2.220446e-16;-9.487292e-17;0;0;0;0;4.573378e-16;-2.352932e-16;3.463155e-16;45;0;4.61754e-16;4.066826e-16;4.440892e-16;-1.396336e-16;-5.011231e-17;-2.220446e-16;8.952124e-17;0.377312;2.220446e-16;-2.220446e-16;0
-0.236806;-2.956231;0.46424;8.39567e-13;0;0;8.39567e-13;2.220446e-16;0;2.45361e-18;0;0;0;0;2.220717e-16;-2.710927e-20;1.110494e-16;45;0;1.480659e-16;1.480568e-16;2.220446e-16;4.269596e-17;-3.778874e-17;0;-8.048469e-17;0.46424;2.220446e-16;-2.220446e-16;0
-0.169641;-2.956231;0.538078;8.39567e-13;0;0;8.39567e-13;4.440892e-16;2.220446e-16;3.742454e-17;0;0;0;0;4.502272e-16;2.159066e-16;1.171604e-16;45;0;1.562138e-16;2.600113e-16;4.440892e-16;5.457079e-17;2.02783e-17;2.220446e-16;-3.429249e-17;0.538078;6.661338e-16;-6.661338e-16;0
-0.102475;-2.956231;0.619596;8.39567e-13;0;0;8.39567e-13;2.220446e-16;0;4.681625e-17;0;0;0;0;2.315118e-16;-9.467169e-18;1.204895e-16;45;0;1.606526e-16;1.575917e-16;2.220446e-16;9.36325e-17;0;0;-9.36325e-17;0.619596;2.220446e-16;-2.220446e-16;0
-0.03531;-2.956231;0.699607;8.39567e-13;0;0;8.39567e-13;0;-3.330669e-16;3.272051e-17;0;0;0;0;3.184027e-18;-3.362509e-16;1.697175e-16;45;0;2.2629e-16;2.252361e-16;0;8.707233e-17;-2.163131e-17;-3.330669e-16;-1.087036e-16;0.699607;-3.330669e-16;3.330669e-16;0
0.031855;-2.956231;0.760807;8.39567e-13;0;0;8.39567e-13;-2.220446e-16;0;-1.650111e-17;0;0;0;0;1.219572e-18;-2.232642e-16;1.122419e-16;45;0;1.496558e-16;1.49251e-16;-2.220446e-16;-9.430153e-18;-2.357207e-17;0;-1.414191e-17;0.760807;-2.220446e-16;2.220446e-16;0
0.099021;-2.956231;0.813016;8.39567e-13;0;0;8.39567e-13;0;2.220446e-16;-1.88653e-17;0;0;0;0;2.23636e-16;-1.591423e-18;1.126137e-16;45;0;1.501516e-16;1.49624e-16;0;-2.951875e-18;-3.477872e-17;2.220446e-16;-3.182684e-17;0.813016;2.220446e-16;-2.220446e-16;0
0.166186;-2.956231;0.845639;8.39567e-13;0;0;8.39567e-13;0;-3.330669e-16;-1.688425e-17;0;0;0;0;8.537295e-19;-3.339206e-16;1.673872e-16;45;0;2.231829e-16;2.228989e-16;0;-1.501392e-17;-1.875458e-17;-3.330669e-16;-3.740663e-18;0.845639;-3.330669e-16;3.330669e-16;0
0.233352;-2.956231;0.868086;8.39567e-13;0;0;8.39567e-13;2.220446e-16;0;2.74467e-17;0;0;0;0;2.253869e-16;-3.342347e-18;1.143647e-16;45;0;1.524862e-16;1.513844e-16;2.220446e-16;2.828877e-17;2.660463e-17;0;-1.684137e-18;0.868086;2.220446e-16;-2.220446e-16;0
0.300517;-2.956231;0.891157;8.39567e-13;0;0;8.39567e-13;0;0;-1.056568e-18;0;0;0;0;1.056568e-18;-1.056568e-18;1.056568e-18;45;0;1.408757e-18;1.220019e-18;0;9.900481e-18;-1.201362e-17;0;-2.19141e-17;0.891157;0;0;0
0.367682;-2.956231;0.910773;8.39567e-13;0;0;8.39567e-13;-1.110223e-16;-1.110223e-16;1.04928e-17;0;0;0;0;-1.005295e-16;-1.215151e-16;1.04928e-17;45;0;1.39904e-17;7.5e-17;-1.110223e-16;3.074665e-17;-9.761056e-18;-1.110223e-16;-4.050771e-17;0.910773;-2.220446e-16;2.220446e-16;0
0.434848;-2.956231;0.934268;8.39567e-13;0;0;8.39567e-13;0;-1.110223e-16;6.774915e-17;0;0;0;0;3.207558e-17;-1.430979e-16;8.758673e-17;45;0;1.167823e-16;1.076946e-16;0;6.341497e-17;7.208332e-17;-1.110223e-16;8.668352e-18;0.934268;-1.110223e-16;1.110223e-16;0
0.502013;-2.956231;0.945321;8.39567e-13;0;0;8.39567e-13;-3.330669e-16;-1.110223e-16;4.55956e-18;0;0;0;0;-1.109287e-16;-3.331605e-16;1.111159e-16;45;0;1.481545e-16;1.958957e-16;-3.330669e-16;-1.536036e-17;2.447948e-17;-1.110223e-16;3.983983e-17;0.945321;-4.440892e-16;4.440892e-16;0
0.569178;-2.956231;0.939977;8.39567e-13;0;0;8.39567e-13;0;2.220446e-16;9.843216e-18;0;0;0;0;2.224801e-16;-4.354947e-19;1.114578e-16;45;0;1.486104e-16;1.484654e-16;0;-9.456406e-18;2.914284e-17;2.220446e-16;3.859924e-17;0.939977;2.220446e-16;-2.220446e-16;0
0.636344;-2.956231;0.915467;8.39567e-13;0;0;8.39567e-13;-1.110223e-16;2.220446e-16;-2.813542e-17;0;0;0;0;2.244046e-16;-1.133823e-16;1.688934e-16;45;0;2.251913e-16;1.985016e-16;-1.110223e-16;-6.248257e-17;6.211728e-18;2.220446e-16;6.86943e-17;0.915467;1.110223e-16;-1.110223e-16;0
0.703509;-2.956231;0.912706;8.39567e-13;0;0;8.39567e-13;2.220446e-16;0;1.398092e-17;0;0;0;0;2.229214e-16;-8.76838e-19;1.118991e-16;45;0;1.491989e-16;1.489074e-16;2.220446e-16;2.041823e-17;7.543605e-18;0;-1.287462e-17;0.912706;2.220446e-16;-2.220446e-16;0
0.770674;-2.956231;0.949449;8.39567e-13;0;0;8.39567e-13;0;-1.110223e-16;8.014903e-18;0;0;0;0;5.756259e-19;-1.115979e-16;5.608678e-17;45;0;7.478237e-17;7.459124e-17;0;3.582887e-18;1.244692e-17;-1.110223e-16;8.864031e-18;0.949449;-1.110223e-16;1.110223e-16;0
0.83784;-2.956231;0.953275;8.39567e-13;0;0;8.39567e-13;0;2.220446e-16;-3.33402e-17;0;0;0;0;2.269426e-16;-4.898016e-18;1.159203e-16;45;0;1.545604e-16;1.529539e-16;0;-1.88842e-17;-4.779619e-17;2.220446e-16;-2.891198e-17;0.953275;2.220446e-16;-2.220446e-16;0
0.905005;-2.956231;0.919076;8.39567e-13;0;0;8.39567e-13;-3.330669e-16;0;1.352496e-18;0;0;0;0;5.492036e-21;-3.330724e-16;1.665389e-16;45;0;2.220519e-16;2.220501e-16;-3.330669e-16;-1.901751e-17;2.172251e-17;0;4.074002e-17;0.919076;-3.330669e-16;3.330669e-16;0
0.97217;-2.956231;0.909762;8.39567e-13;0;0;8.39567e-13;-1.110223e-16;0;5.235972e-18;0;0;0;0;2.463892e-19;-1.112687e-16;5.575754e-17;45;0;7.434339e-17;7.42614e-17;-1.110223e-16;1.047194e-17;0;0;-1.047194e-17;0.909762;-1.110223e-16;1.110223e-16;0
1.039336;-2.956231;0.884268;8.39567e-13;0;0;8.39567e-13;-1.110223e-16;0;-3.208202e-17;0;0;0;0;8.603932e-18;-1.196262e-16;6.411509e-17;45;0;8.548678e-17;8.2768e-17;-1.110223e-16;-1.768902e-17;-4.647502e-17;0;-2.878601e-17;0.884268;-1.110223e-16;1.110223e-16;0
1.106501;-2.956231;0.844117;8.39567e-13;0;0;8.39567e-13;-1.110223e-16;2.220446e-16;8.105717e-18;0;0;0;0;2.222418e-16;-1.112194e-16;1.667306e-16;45;0;2.223075e-16;1.960485e-16;-1.110223e-16;1.621143e-17;0;2.220446e-16;-1.621143e-17;0.844117;1.110223e-16;-1.110223e-16;0
1.173667;-2.956231;0.812783;8.39567e-13;0;0;8.39567e-13;2.220446e-16;0;-2.55715e-17;0;0;0;0;2.249515e-16;-2.906856e-18;1.139292e-16;45;0;1.519055e-16;1.509459e-16;2.220446e-16;-2.573734e-17;-2.540565e-17;0;3.316856e-19;0.812783;2.220446e-16;-2.220446e-16;0
1.240832;-2.956231;0.743411;8.39567e-13;0;0;8.39567e-13;0;0;2.933247e-17;0;0;0;0;2.933247e-17;-2.933247e-17;2.933247e-17;45;0;3.910995e-17;3.387021e-17;0;3.052905e-17;2.813589e-17;0;-2.393159e-18;0.743411;0;0;0
1.307997;-2.956231;0.684129;8.39567e-13;0;0;8.39567e-13;-2.220446e-16;2.220446e-16;-4.676772e-18;0;0;0;0;2.220938e-16;-2.220938e-16;2.220938e-16;45;0;2.961251e-16;2.564519e-16;-2.220446e-16;-1.356046e-17;4.206914e-18;2.220446e-16;1.776737e-17;0.684129;0;0;0
1.375163;-2.956231;0.664279;8.39567e-13;0;0;8.39567e-13;0;-1.110223e-16;-6.085596e-17;0;0;0;0;2.685957e-17;-1.378819e-16;8.237072e-17;45;0;1.098276e-16;1.020594e-16;0;-8.364214e-17;-3.806977e-17;-1.110223e-16;4.557237e-17;0.664279;-1.110223e-16;1.110223e-16;0
1.442328;-2.956231;0.617162;8.39567e-13;0;0;8.39567e-13;-2.220446e-16;2.220446e-16;1.729374e-17;0;0;0;0;2.22717e-16;-2.22717e-16;2.22717e-16;45;0;2.969561e-16;2.571715e-16;-2.220446e-16;2.532669e-17;9.260798e-18;2.220446e-16;-1.606589e-17;0.617162;0;0;0
1.509493;-2.956231;0.505433;8.39567e-13;0;0;8.39567e-13;0;0;4.052776e-17;0;0;0;0;4.052776e-17;-4.052776e-17;4.052776e-17;45;0;5.403701e-17;4.679743e-17;0;4.804393e-17;3.301159e-17;0;-1.503234e-17;0.505433;0;0;0
-0.303971;-3.023396;0.347265;8.39567e-13;0;0;8.39567e-13;4.440892e-16;0;1.082361e-16;0;0;0;0;4.690646e-16;-2.497537e-17;2.4702e-16;45;0;3.2936e-16;3.213585e-16;4.440892e-16;2.074679e-16;9.004356e-18;0;-1.984636e-16;0.347265;4.440892e-16;-4.440892e-16;0
-0.236806;-3.023396;0.491342;8.39567e-13;0;0;8.39567e-13;-3.330669e-16;-1.110223e-16;-7.355391e-17;0;0;0;0;-8.886755e-17;-3.552217e-16;1.331771e-16;45;0;1.775694e-16;2.134502e-16;-3.330669e-16;-1.578534e-16;1.074562e-17;-1.110223e-16;1.685991e-16;0.491342;-4.440892e-16;4.440892e-16;0
-0.169641;-3.023396;0.564426;8.39567e-13;0;0;8.39567e-13;0;-1.110223e-16;3.216985e-17;0;0;0;0;8.647924e-18;-1.196702e-16;6.415907e-17;45;0;8.554544e-17;8.281345e-17;0;9.166709e-17;-2.73274e-17;-1.110223e-16;-1.189945e-16;0.564426;-1.110223e-16;1.110223e-16;0
-0.102475;-3.023396;0.644818;8.39567e-13;0;0;8.39567e-13;-1.110223e-16;-1.110223e-16;1.307946e-17;0;0;0;0;-9.794284e-17;-1.241018e-16;1.307946e-17;45;0;1.743928e-17;7.554004e-17;-1.110223e-16;4.059973e-17;-1.444081e-17;-1.110223e-16;-5.504054e-17;0.644818;-2.220446e-16;2.220446e-16;0
-0.03531;-3.023396;0.706665;8.39567e-13;0;0;8.39567e-13;2.220446e-16;-1.110223e-16;-2.943079e-17;0;0;0;0;2.246252e-16;-1.136029e-16;1.691141e-16;45;0;2.254854e-16;1.987519e-16;2.220446e-16;-5.504223e-17;-3.819358e-18;-1.110223e-16;5.122287e-17;0.706665;1.110223e-16;-1.110223e-16;0
0.031855;-3.023396;0.765714;8.39567e-13;0;0;8.39567e-13;2.220446e-16;2.220446e-16;-5.850827e-17;0;0;0;0;2.805529e-16;1.635363e-16;5.850827e-17;45;0;7.801103e-17;1.627178e-16;2.220446e-16;-7.790623e-17;-3.911032e-17;2.220446e-16;3.879591e-17;0.765714;4.440892e-16;-4.440892e-16;0
0.099021;-3.023396;0.819304;8.39567e-13;0;0;8.39567e-13;0;0;2.091779e-17;0;0;0;0;2.091779e-17;-2.091779e-17;2.091779e-17;45;0;2.789038e-17;2.415378e-17;0;4.183558e-17;0;0;-4.183558e-17;0.819304;0;0;0
0.166186;-3.023396;0.85038;8.39567e-13;0;0;8.39567e-13;2.220446e-16;2.220446e-16;-2.994591e-17;0;0;0;0;2.519905e-16;1.920987e-16;2.994591e-17;45;0;3.992789e-17;1.520147e-16;2.220446e-16;-4.589224e-17;-1.399959e-17;2.220446e-16;3.189264e-17;0.85038;4.440892e-16;-4.440892e-16;0
0.233352;-3.023396;0.87779;8.39567e-13;0;0;8.39567e-13;0;2.220446e-16;-1.09273e-17;0;0;0;0;2.225811e-16;-5.364605e-19;1.115588e-16;45;0;1.48745e-16;1.485665e-16;0;2.542992e-17;-4.728452e-17;2.220446e-16;-7.271444e-17;0.87779;2.220446e-16;-2.220446e-16;0
0.300517;-3.023396;0.901867;8.39567e-13;0;0;8.39567e-13;0;0;1.854454e-17;0;0;0;0;1.854454e-17;-1.854454e-17;1.854454e-17;45;0;2.472605e-17;2.141338e-17;0;4.647935e-17;-9.39028e-18;0;-5.586963e-17;0.901867;0;0;0
0.367682;-3.023396;0.944537;8.39567e-13;0;0;8.39567e-13;0;4.440892e-16;2.143821e-17;0;0;0;0;4.451217e-16;-1.032519e-18;2.230771e-16;45;0;2.974362e-16;2.970926e-16;0;3.598882e-18;3.927753e-17;4.440892e-16;3.567865e-17;0.944537;4.440892e-16;-4.440892e-16;0
0.434848;-3.023396;0.951838;8.39567e-13;0;0;8.39567e-13;2.220446e-16;-1.110223e-16;1.523702e-17;0;0;0;0;2.227402e-16;-1.117179e-16;1.672291e-16;45;0;2.229721e-16;1.966137e-16;2.220446e-16;1.628484e-17;1.418921e-17;-1.110223e-16;-2.095631e-18;0.951838;1.110223e-16;-1.110223e-16;0
0.502013;-3.023396;0.947364;8.39567e-13;0;0;8.39567e-13;0;-1.110223e-16;8.04808e-19;0;0;0;0;5.833799e-21;-1.110281e-16;5.551699e-17;45;0;7.402265e-17;7.40207e-17;0;1.871374e-17;-1.710412e-17;-1.110223e-16;-3.581786e-17;0.947364;-1.110223e-16;1.110223e-16;0
0.569178;-3.023396;0.950484;8.39567e-13;0;0;8.39567e-13;0;2.220446e-16;-1.237333e-17;0;0;0;0;2.22732e-16;-6.873698e-19;1.117097e-16;45;0;1.489462e-16;1.487176e-16;0;-1.186643e-17;-1.288023e-17;2.220446e-16;-1.0138e-18;0.950484;2.220446e-16;-2.220446e-16;0
0.636344;-3.023396;0.925059;8.39567e-13;0;0;8.39567e-13;-1.110223e-16;-4.440892e-16;-5.122588e-18;0;0;0;0;-1.109435e-16;-4.44168e-16;1.666122e-16;45;0;2.221496e-16;2.669299e-16;-1.110223e-16;2.56534e-17;-3.589857e-17;-4.440892e-16;-6.155197e-17;0.925059;-5.551115e-16;5.551115e-16;0
0.703509;-3.023396;0.925739;8.39567e-13;0;0;8.39567e-13;2.220446e-16;2.220446e-16;3.09041e-17;0;0;0;0;2.529487e-16;1.911405e-16;3.09041e-17;45;0;4.120546e-17;1.522702e-16;2.220446e-16;1.574564e-17;4.606255e-17;2.220446e-16;3.031691e-17;0.925739;4.440892e-16;-4.440892e-16;0
0.770674;-3.023396;0.946382;8.39567e-13;0;0;8.39567e-13;0;2.220446e-16;2.938244e-17;0;0;0;0;2.258669e-16;-3.822286e-18;1.148446e-16;45;0;1.531261e-16;1.518681e-16;0;3.578334e-17;2.298155e-17;2.220446e-16;-1.280179e-17;0.946382;2.220446e-16;-2.220446e-16;0
0.83784;-3.023396;0.956174;8.39567e-13;0;0;8.39567e-13;2.220446e-16;0;-2.927372e-18;0;0;0;0;2.220832e-16;-3.858692e-20;1.110609e-16;45;0;1.480812e-16;1.480683e-16;2.220446e-16;-1.15353e-17;5.680561e-18;0;1.721587e-17;0.956174;2.220446e-16;-2.220446e-16;0
0.905005;-3.023396;0.925056;8.39567e-13;0;0;8.39567e-13;2.220446e-16;-1.110223e-16;-2.760369e-17;0;0;0;0;2.243168e-16;-1.132945e-16;1.688057e-16;45;0;2.250742e-16;1.98402e-16;2.220446e-16;-3.559221e-17;-1.961518e-17;-1.110223e-16;1.597703e-17;0.925056;1.110223e-16;-1.110223e-16;0
0.97217;-3.023396;0.908612;8.39567e-13;0;0;8.39567e-13;-3.330669e-16;0;6.836879e-19;0;0;0;0;1.403403e-21;-3.330683e-16;1.665349e-16;45;0;2.220465e-16;2.22046e-16;-3.330669e-16;-2.105639e-17;2.242376e-17;0;4.348015e-17;0.908612;-3.330669e-16;3.330669e-16;0
1.039336;-3.023396;0.891605;8.39567e-13;0;0;8.39567e-13;2.220446e-16;-3.330669e-16;1.721996e-17;0;0;0;0;2.225783e-16;-3.336006e-16;2.780894e-16;45;0;3.707859e-16;3.232355e-16;2.220446e-16;2.514803e-17;9.291895e-18;-3.330669e-16;-1.585613e-17;0.891605;-1.110223e-16;1.110223e-16;0
1.106501;-3.023396;0.843911;8.39567e-13;0;0;8.39567e-13;4.440892e-16;2.220446e-16;-1.554172e-18;0;0;0;0;4.441001e-16;2.220337e-16;1.110332e-16;45;0;1.480442e-16;2.564013e-16;4.440892e-16;2.893278e-17;-3.204113e-17;2.220446e-16;-6.097391e-17;0.843911;6.661338e-16;-6.661338e-16;0
1.173667;-3.023396;0.822525;8.39567e-13;0;0;8.39567e-13;0;-1.110223e-16;-5.775635e-17;0;0;0;0;2.45968e-17;-1.356191e-16;8.010795e-17;45;0;1.068106e-16;9.962895e-17;0;-8.979972e-17;-2.571298e-17;-1.110223e-16;6.408674e-17;0.822525;-1.110223e-16;1.110223e-16;0
1.240832;-3.023396;0.76025;8.39567e-13;0;0;8.39567e-13;4.440892e-16;2.220446e-16;-7.69242e-17;0;0;0;0;4.681346e-16;1.979992e-16;1.350677e-16;45;0;1.800903e-16;2.713452e-16;4.440892e-16;-1.462669e-16;-7.581527e-18;2.220446e-16;1.386854e-16;0.76025;6.661338e-16;-6.661338e-16;0
1.307997;-3.023396;0.694969;8.39567e-13;0;0;8.39567e-13;-1.110223e-16;0;-1.571168e-17;0;0;0;0;2.180658e-18;-1.13203e-16;5.769181e-17;45;0;7.692241e-17;7.620593e-17;-1.110223e-16;-6.360282e-18;-2.506308e-17;0;-1.87028e-17;0.694969;-1.110223e-16;1.110223e-16;0
1.375163;-3.023396;0.66476;8.39567e-13;0;0;8.39567e-13;2.220446e-16;0;-2.742069e-17;0;0;0;0;2.253807e-16;-3.336107e-18;1.143584e-16;45;0;1.524779e-16;1.513781e-16;2.220446e-16;-1.628419e-17;-3.855719e-17;0;-2.227301e-17;0.66476;2.220446e-16;-2.220446e-16;0
1.442328;-3.023396;0.582028;8.39567e-13;0;0;8.39567e-13;0;2.220446e-16;1.600385e-17;0;0;0;0;2.231921e-16;-1.147545e-18;1.121698e-16;45;0;1.495598e-16;1.491788e-16;0;-4.248907e-18;3.62566e-17;2.220446e-16;4.050551e-17;0.582028;2.220446e-16;-2.220446e-16;0
1.509493;-3.023396;0.48556;8.39567e-13;0;0;8.39567e-13;2.220446e-16;2.220446e-16;1.28322e-16;0;0;0;0;3.503666e-16;9.372261e-17;1.28322e-16;45;0;1.71096e-16;2.094473e-16;2.220446e-16;1.925514e-16;6.409256e-17;2.220446e-16;-1.284589e-16;0.48556;4.440892e-16;-4.440892e-16;0
-0.303971;-3.090561;0.362747;8.39567e-13;0;0;8.39567e-13;-2.220446e-16;2.220446e-16;5.837547e-17;0;0;0;0;2.295899e-16;-2.295899e-16;2.295899e-16;45;0;3.061198e-16;2.651075e-16;-2.220446e-16;8.718169e-17;2.956926e-17;2.220446e-16;-5.761243e-17;0.362747;0;0;0
-0.236806;-3.090561;0.527298;8.39567e-13;0;0;8.39567e-13;2.220446e-16;0;2.133139e-17;0;0;0;0;2.240753e-16;-2.030693e-18;1.13053e-16;45;0;1.507373e-16;1.50065e-16;2.220446e-16;3.277107e-17;9.891707e-18;0;-2.287936e-17;0.527298;2.220446e-16;-2.220446e-16;0
-0.169641;-3.090561;0.600828;8.39567e-13;0;0;8.39567e-13;-2.220446e-16;0;-5.914335e-18;0;0;0;0;1.574214e-19;-2.22202e-16;1.111797e-16;45;0;1.482396e-16;1.481872e-16;-2.220446e-16;-1.182867e-17;0;0;1.182867e-17;0.600828;-2.220446e-16;2.220446e-16;0
-0.102475;-3.090561;0.647099;8.39567e-13;0;0;8.39567e-13;-2.220446e-16;-1.110223e-16;6.418067e-18;0;0;0;0;-1.106525e-16;-2.224144e-16;5.588094e-17;45;0;7.450792e-17;1.284115e-16;-2.220446e-16;-1.883528e-17;3.167141e-17;-1.110223e-16;5.050669e-17;0.647099;-3.330669e-16;3.330669e-16;0
-0.03531;-3.090561;0.683741;8.39567e-13;0;0;8.39567e-13;0;2.220446e-16;2.854854e-18;0;0;0;0;2.220813e-16;-3.669914e-20;1.11059e-16;45;0;1.480787e-16;1.480664e-16;0;3.699029e-17;-3.128059e-17;2.220446e-16;-6.827088e-17;0.683741;2.220446e-16;-2.220446e-16;0
0.031855;-3.090561;0.743814;8.39567e-13;0;0;8.39567e-13;0;0;9.757352e-18;0;0;0;0;9.757352e-18;-9.757352e-18;9.757352e-18;45;0;1.30098e-17;1.126682e-17;0;3.83152e-18;1.568318e-17;0;1.185166e-17;0.743814;0;0;0
0.099021;-3.090561;0.800506;8.39567e-13;0;0;8.39567e-13;0;2.220446e-16;-1.163897e-17;0;0;0;0;2.22653e-16;-6.08416e-19;1.116307e-16;45;0;1.48841e-16;1.486386e-16;0;-2.327794e-17;0;2.220446e-16;2.327794e-17;0.800506;2.220446e-16;-2.220446e-16;0
0.166186;-3.090561;0.830281;8.39567e-13;0;0;8.39567e-13;-1.110223e-16;-1.110223e-16;-2.780703e-19;0;0;0;0;-1.107442e-16;-1.113004e-16;2.780703e-19;45;0;3.707603e-19;7.401557e-17;-1.110223e-16;-5.561405e-19;0;-1.110223e-16;5.561405e-19;0.830281;-2.220446e-16;2.220446e-16;0
0.233352;-3.090561;0.880855;8.39567e-13;0;0;8.39567e-13;-1.110223e-16;0;4.868453e-17;0;0;0;0;1.832428e-17;-1.293466e-16;7.383543e-17;45;0;9.844724e-17;9.294323e-17;-1.110223e-16;5.286607e-17;4.450298e-17;0;-8.363084e-18;0.880855;-1.110223e-16;1.110223e-16;0
0.300517;-3.090561;0.918593;8.39567e-13;0;0;8.39567e-13;4.440892e-16;0;2.876737e-17;0;0;0;0;4.45945e-16;-1.855748e-18;2.239003e-16;45;0;2.985338e-16;2.979172e-16;4.440892e-16;2.033105e-17;3.720369e-17;0;1.687263e-17;0.918593;4.440892e-16;-4.440892e-16;0
0.367682;-3.090561;0.943513;8.39567e-13;0;0;8.39567e-13;0;2.220446e-16;-2.412696e-17;0;0;0;0;2.246359e-16;-2.591349e-18;1.136137e-16;45;0;1.514849e-16;1.506285e-16;0;-2.80599e-17;-2.019401e-17;2.220446e-16;7.865891e-18;0.943513;2.220446e-16;-2.220446e-16;0
0.434848;-3.090561;0.936156;8.39567e-13;0;0;8.39567e-13;0;-1.110223e-16;-2.508657e-17;0;0;0;0;5.405382e-18;-1.164277e-16;6.091653e-17;45;0;8.122204e-17;7.948154e-17;0;-3.403157e-17;-1.614157e-17;-1.110223e-16;1.789001e-17;0.936156;-1.110223e-16;1.110223e-16;0
0.502013;-3.090561;0.928017;8.39567e-13;0;0;8.39567e-13;-3.330669e-16;0;6.290304e-19;0;0;0;0;1.187983e-21;-3.330681e-16;1.665346e-16;45;0;2.220462e-16;2.220458e-16;-3.330669e-16;-1.795446e-17;1.921252e-17;0;3.716698e-17;0.928017;-3.330669e-16;3.330669e-16;0
0.569178;-3.090561;0.951301;8.39567e-13;0;0;8.39567e-13;0;-3.330669e-16;-1.484561e-17;0;0;0;0;6.603961e-19;-3.337273e-16;1.671938e-16;45;0;2.229251e-16;2.227053e-16;0;-3.223613e-17;2.544904e-18;-3.330669e-16;3.478103e-17;0.951301;-3.330669e-16;3.330669e-16;0
0.636344;-3.090561;0.964641;8.39567e-13;0;0;8.39567e-13;0;0;2.754642e-18;0;0;0;0;2.754642e-18;-2.754642e-18;2.754642e-18;45;0;3.672856e-18;3.180787e-18;0;1.841531e-17;-1.290603e-17;0;-3.132134e-17;0.964641;0;0;0
0.703509;-3.090561;0.969243;8.39567e-13;0;0;8.39567e-13;0;0;4.38356e-19;0;0;0;0;4.38356e-19;-4.38356e-19;4.38356e-19;45;0;5.844748e-19;5.0617e-19;0;-1.85007e-17;1.937741e-17;0;3.787811e-17;0.969243;0;0;0
0.770674;-3.090561;0.95365;8.39567e-13;0;0;8.39567e-13;-1.110223e-16;-1.110223e-16;-5.530991e-18;0;0;0;0;-1.054913e-16;-1.165533e-16;5.530991e-18;45;0;7.374654e-18;7.42899e-17;-1.110223e-16;6.99306e-18;-1.805504e-17;-1.110223e-16;-2.50481e-17;0.95365;-2.220446e-16;2.220446e-16;0
0.83784;-3.090561;0.944689;8.39567e-13;0;0;8.39567e-13;0;2.220446e-16;1.097298e-17;0;0;0;0;2.225855e-16;-5.409441e-19;1.115633e-16;45;0;1.48751e-16;1.48571e-16;0;2.448361e-17;-2.537651e-18;2.220446e-16;-2.702126e-17;0.944689;2.220446e-16;-2.220446e-16;0
0.905005;-3.090561;0.934448;8.39567e-13;0;0;8.39567e-13;2.220446e-16;-1.110223e-16;4.025426e-17;0;0;0;0;2.268406e-16;-1.158183e-16;1.713295e-16;45;0;2.284393e-16;2.012659e-16;2.220446e-16;4.036664e-17;4.014188e-17;-1.110223e-16;-2.247635e-19;0.934448;1.110223e-16;-1.110223e-16;0
0.97217;-3.090561;0.908372;8.39567e-13;0;0;8.39567e-13;2.220446e-16;-1.110223e-16;1.319693e-17;0;0;0;0;2.225667e-16;-1.115444e-16;1.670555e-16;45;0;2.227407e-16;1.964169e-16;2.220446e-16;3.62019e-17;-9.808047e-18;-1.110223e-16;-4.600995e-17;0.908372;1.110223e-16;-1.110223e-16;0
1.039336;-3.090561;0.888494;8.39567e-13;0;0;8.39567e-13;0;0;7.377569e-19;0;0;0;0;7.377569e-19;-7.377569e-19;7.377569e-19;45;0;9.836758e-19;8.518882e-19;0;-3.30519e-18;4.780703e-18;0;8.085893e-18;0.888494;0;0;0
1.106501;-3.090561;0.848213;8.39567e-13;0;0;8.39567e-13;-3.330669e-16;-1.110223e-16;2.928354e-17;0;0;0;0;-1.072253e-16;-3.368639e-16;1.148193e-16;45;0;1.530924e-16;1.987228e-16;-3.330669e-16;4.936925e-17;9.197827e-18;-1.110223e-16;-4.017142e-17;0.848213;-4.440892e-16;4.440892e-16;0
1.173667;-3.090561;0.820284;8.39567e-13;0;0;8.39567e-13;0;2.220446e-16;-2.995692e-17;0;0;0;0;2.260152e-16;-3.970605e-18;1.149929e-16;45;0;1.533239e-16;1.520176e-16;0;-1.90894e-17;-4.082444e-17;2.220446e-16;-2.173504e-17;0.820284;2.220446e-16;-2.220446e-16;0
1.240832;-3.090561;0.767422;8.39567e-13;0;0;8.39567e-13;-2.220446e-16;0;-2.036801e-17;0;0;0;0;1.852884e-18;-2.238975e-16;1.128752e-16;45;0;1.505002e-16;1.498864e-16;-2.220446e-16;-3.270905e-17;-8.026973e-18;0;2.468208e-17;0.767422;-2.220446e-16;2.220446e-16;0
1.307997;-3.090561;0.713091;8.39567e-13;0;0;8.39567e-13;0;2.220446e-16;-2.523463e-17;0;0;0;0;2.248763e-16;-2.831719e-18;1.13854e-16;45;0;1.518054e-16;1.508703e-16;0;-1.991777e-18;-4.847749e-17;2.220446e-16;-4.648571e-17;0.713091;2.220446e-16;-2.220446e-16;0
1.375163;-3.090561;0.658501;8.39567e-13;0;0;8.39567e-13;0;2.220446e-16;2.895671e-17;0;0;0;0;2.257587e-16;-3.714103e-18;1.147364e-16;45;0;1.529819e-16;1.51759e-16;0;5.877382e-17;-8.60394e-19;2.220446e-16;-5.963421e-17;0.658501;2.220446e-16;-2.220446e-16;0
1.442328;-3.090561;0.553926;8.39567e-13;0;0;8.39567e-13;0;-1.110223e-16;4.678349e-19;0;0;0;0;1.971367e-21;-1.110243e-16;5.551312e-17;45;0;7.40175e-17;7.401684e-17;0;9.707315e-18;-8.771645e-18;-1.110223e-16;-1.847896e-17;0.553926;-1.110223e-16;1.110223e-16;0
1.509493;-3.090561;0.452949;8.39567e-13;0;0;8.39567e-13;0;4.440892e-16;3.026478e-17;0;0;0;0;4.461423e-16;-2.05306e-18;2.240977e-16;45;0;2.987969e-16;2.981149e-16;0;6.052956e-17;0;4.440892e-16;-6.052956e-17;0.452949;4.440892e-16;-4.440892e-16;0
-0.303971;-3.157727;0.368988;8.39567e-13;0;0;8.39567e-13;-6.661338e-16;0;7.430655e-17;0;0;0;0;8.188171e-18;-6.74322e-16;3.412551e-16;45;0;4.550068e-16;4.523021e-16;-6.661338e-16;1.160333e-16;3.257975e-17;0;-8.34536e-17;0.368988;-6.661338e-16;6.661338e-16;0
-0.236806;-3.157727;0.50146;8.39567e-13;0;0;8.39567e-13;-2.220446e-16;0;3.81172e-17;0;0;0;0;6.361142e-18;-2.284057e-16;1.173834e-16;45;0;1.565113e-16;1.544346e-16;-2.220446e-16;5.404768e-17;2.218673e-17;0;-3.186095e-17;0.50146;-2.220446e-16;2.220446e-16;0
-0.169641;-3.157727;0.555991;8.39567e-13;0;0;8.39567e-13;0;0;-1.870348e-18;0;0;0;0;1.870348e-18;-1.870348e-18;1.870348e-18;45;0;2.493798e-18;2.159692e-18;0;-3.529423e-17;3.155353e-17;0;6.684776e-17;0.555991;0;0;0
-0.102475;-3.157727;0.598021;8.39567e-13;0;0;8.39567e-13;2.220446e-16;2.220446e-16;-9.909915e-17;0;0;0;0;3.211438e-16;1.229455e-16;9.909915e-17;45;0;1.321322e-16;1.871016e-16;2.220446e-16;-1.378806e-16;-6.031773e-17;2.220446e-16;7.756285e-17;0.598021;4.440892e-16;-4.440892e-16;0
-0.03531;-3.157727;0.674213;8.39567e-13;0;0;8.39567e-13;2.220446e-16;2.220446e-16;-3.876779e-17;0;0;0;0;2.608124e-16;1.832768e-16;3.876779e-17;45;0;5.169038e-17;1.546503e-16;2.220446e-16;-7.026425e-17;-7.271324e-18;2.220446e-16;6.299293e-17;0.674213;4.440892e-16;-4.440892e-16;0
0.031855;-3.157727;0.739687;8.39567e-13;0;0;8.39567e-13;2.220446e-16;0;1.051839e-17;0;0;0;0;2.225418e-16;-4.971499e-19;1.115195e-16;45;0;1.486926e-16;1.485272e-16;2.220446e-16;2.709642e-17;-6.059626e-18;0;-3.315604e-17;0.739687;2.220446e-16;-2.220446e-16;0
0.099021;-3.157727;0.778789;8.39567e-13;0;0;8.39567e-13;-1.110223e-16;0;2.641696e-17;0;0;0;0;5.965218e-18;-1.169875e-16;6.147637e-17;45;0;8.196849e-17;8.00542e-17;-1.110223e-16;3.102768e-17;2.180625e-17;0;-9.221434e-18;0.778789;-1.110223e-16;1.110223e-16;0
0.166186;-3.157727;0.820004;8.39567e-13;0;0;8.39567e-13;2.220446e-16;0;2.417636e-18;0;0;0;0;2.220709e-16;-2.632026e-20;1.110486e-16;45;0;1.480648e-16;1.480561e-16;2.220446e-16;4.835272e-18;0;0;-4.835272e-18;0.820004;2.220446e-16;-2.220446e-16;0
0.233352;-3.157727;0.864222;8.39567e-13;0;0;8.39567e-13;0;2.220446e-16;2.645402e-18;0;0;0;0;2.220761e-16;-3.151241e-20;1.110538e-16;45;0;1.480717e-16;1.480613e-16;0;1.310495e-17;-7.814149e-18;2.220446e-16;-2.09191e-17;0.864222;2.220446e-16;-2.220446e-16;0
0.300517;-3.157727;0.897729;8.39567e-13;0;0;8.39567e-13;-1.110223e-16;0;-1.788008e-17;0;0;0;0;2.808528e-18;-1.138308e-16;5.831968e-17;45;0;7.775957e-17;7.684051e-17;-1.110223e-16;-1.649757e-17;-1.926258e-17;0;-2.765018e-18;0.897729;-1.110223e-16;1.110223e-16;0
0.367682;-3.157727;0.923333;8.39567e-13;0;0;8.39567e-13;2.220446e-16;-1.110223e-16;-3.571888e-17;0;0;0;0;2.258321e-16;-1.148098e-16;1.70321e-16;45;0;2.270946e-16;2.001213e-16;2.220446e-16;-6.12776e-17;-1.016016e-17;-1.110223e-16;5.111744e-17;0.923333;1.110223e-16;-1.110223e-16;0
0.434848;-3.157727;0.925546;8.39567e-13;0;0;8.39567e-13;-1.110223e-16;0;-2.623046e-17;0;0;0;0;5.885306e-18;-1.169076e-16;6.139646e-17;45;0;8.186194e-17;7.997239e-17;-1.110223e-16;-1.905519e-17;-3.340573e-17;0;-1.435053e-17;0.925546;-1.110223e-16;1.110223e-16;0
0.502013;-3.157727;0.936742;8.39567e-13;0;0;8.39567e-13;0;0;2.088884e-17;0;0;0;0;2.088884e-17;-2.088884e-17;2.088884e-17;45;0;2.785179e-17;2.412036e-17;0;1.807641e-18;3.997004e-17;0;3.81624e-17;0.936742;0;0;0
0.569178;-3.157727;0.962126;8.39567e-13;0;0;8.39567e-13;-3.330669e-16;0;-2.604005e-17;0;0;0;0;2.023586e-18;-3.350905e-16;1.68557e-16;45;0;2.247427e-16;2.240712e-16;-3.330669e-16;-4.202539e-17;-1.005472e-17;0;3.197068e-17;0.962126;-3.330669e-16;3.330669e-16;0
0.636344;-3.157727;0.973724;8.39567e-13;0;0;8.39567e-13;0;0;-3.874787e-17;0;0;0;0;3.874787e-17;-3.874787e-17;3.874787e-17;45;0;5.166383e-17;4.474219e-17;0;-1.695891e-17;-6.053683e-17;0;-4.357792e-17;0.973724;0;0;0
0.703509;-3.157727;0.973135;8.39567e-13;0;0;8.39567e-13;0;0;6.11479e-18;0;0;0;0;6.11479e-18;-6.11479e-18;6.11479e-18;45;0;8.153054e-18;7.060752e-18;0;-8.73286e-18;2.096244e-17;0;2.96953e-17;0.973135;0;0;0
0.770674;-3.157727;0.972114;8.39567e-13;0;0;8.39567e-13;0;-3.330669e-16;1.737992e-17;0;0;0;0;9.044542e-19;-3.339714e-16;1.674379e-16;45;0;2.232505e-16;2.229497e-16;0;9.050743e-18;2.570911e-17;-3.330669e-16;1.665836e-17;0.972114;-3.330669e-16;3.330669e-16;0
0.83784;-3.157727;0.959588;8.39567e-13;0;0;8.39567e-13;2.220446e-16;0;-1.134069e-17;0;0;0;0;2.226223e-16;-5.777103e-19;1.116e-16;45;0;1.488e-16;1.486078e-16;2.220446e-16;-1.778094e-17;-4.900441e-18;0;1.288049e-17;0.959588;2.220446e-16;-2.220446e-16;0
0.905005;-3.157727;0.929021;8.39567e-13;0;0;8.39567e-13;0;0;1.729094e-17;0;0;0;0;1.729094e-17;-1.729094e-17;1.729094e-17;45;0;2.305459e-17;1.996586e-17;0;4.371446e-17;-9.132586e-18;0;-5.284705e-17;0.929021;0;0;0
0.97217;-3.157727;0.885915;8.39567e-13;0;0;8.39567e-13;2.220446e-16;0;1.057086e-17;0;0;0;0;2.225467e-16;-5.021105e-19;1.115244e-16;45;0;1.486992e-16;1.485321e-16;2.220446e-16;2.114172e-17;0;0;-2.114172e-17;0.885915;2.220446e-16;-2.220446e-16;0
1.039336;-3.157727;0.880371;8.39567e-13;0;0;8.39567e-13;2.220446e-16;-1.110223e-16;4.016679e-17;0;0;0;0;2.268201e-16;-1.157978e-16;1.71309e-16;45;0;2.28412e-16;2.012426e-16;2.220446e-16;6.272183e-17;1.761174e-17;-1.110223e-16;-4.511009e-17;0.880371;1.110223e-16;-1.110223e-16;0
1.106501;-3.157727;0.858115;8.39567e-13;0;0;8.39567e-13;-1.110223e-16;2.220446e-16;1.311423e-17;0;0;0;0;2.225602e-16;-1.115379e-16;1.67049e-16;45;0;2.22732e-16;1.964096e-16;-1.110223e-16;2.160616e-17;4.622292e-18;2.220446e-16;-1.698387e-17;0.858115;1.110223e-16;-1.110223e-16;0
1.173667;-3.157727;0.812911;8.39567e-13;0;0;8.39567e-13;0;-3.330669e-16;7.544886e-18;0;0;0;0;1.708249e-19;-3.332377e-16;1.667043e-16;45;0;2.222724e-16;2.222154e-16;0;2.201382e-18;1.288839e-17;-3.330669e-16;1.068701e-17;0.812911;-3.330669e-16;3.330669e-16;0
1.240832;-3.157727;0.76459;8.39567e-13;0;0;8.39567e-13;0;2.220446e-16;1.472296e-18;0;0;0;0;2.220544e-16;-9.761827e-21;1.110321e-16;45;0;1.480428e-16;1.480395e-16;0;2.407616e-17;-2.113157e-17;2.220446e-16;-4.520773e-17;0.76459;2.220446e-16;-2.220446e-16;0
1.307997;-3.157727;0.721191;8.39567e-13;0;0;8.39567e-13;2.220446e-16;0;-1.411286e-18;0;0;0;0;2.220536e-16;-8.969578e-21;1.110313e-16;45;0;1.480417e-16;1.480387e-16;2.220446e-16;-4.977663e-17;4.695405e-17;0;9.673068e-17;0.721191;2.220446e-16;-2.220446e-16;0
1.375163;-3.157727;0.654501;8.39567e-13;0;0;8.39567e-13;-4.440892e-16;2.220446e-16;-7.704421e-18;0;0;0;0;2.221337e-16;-4.441783e-16;3.33156e-16;45;0;4.44208e-16;3.917509e-16;-4.440892e-16;-4.922627e-17;3.381743e-17;2.220446e-16;8.304369e-17;0.654501;-2.220446e-16;2.220446e-16;0
1.442328;-3.157727;0.572978;8.39567e-13;0;0;8.39567e-13;4.440892e-16;2.220446e-16;7.873458e-17;0;0;0;0;4.691738e-16;1.9696e-16;1.361069e-16;45;0;1.814759e-16;2.720366e-16;4.440892e-16;1.268202e-16;3.064895e-17;2.220446e-16;-9.617127e-17;0.572978;6.661338e-16;-6.661338e-16;0
1.509493;-3.157727;0.482503;8.39567e-13;0;0;8.39567e-13;0;-2.220446e-16;2.417874e-17;0;0;0;0;2.602356e-18;-2.24647e-16;1.136247e-16;45;0;1.514995e-16;1.506396e-16;0;-4.820482e-18;5.317796e-17;-2.220446e-16;5.799844e-17;0.482503;-2.220446e-16;2.220446e-16;0
-0.303971;-3.224892;0.361036;8.39567e-13;0;0;8.39567e-13;2.220446e-16;2.220446e-16;-1.273455e-16;0;0;0;0;3.493901e-16;9.469908e-17;1.273455e-16;45;0;1.69794e-16;2.086512e-16;2.220446e-16;-2.128775e-16;-4.181355e-17;2.220446e-16;1.710639e-16;0.361036;4.440892e-16;-4.440892e-16;0
-0.236806;-3.224892;0.482109;8.39567e-13;0;0;8.39567e-13;2.220446e-16;-3.330669e-16;-9.057795e-18;0;0;0;0;2.221924e-16;-3.332147e-16;2.777035e-16;45;0;3.702713e-16;3.227928e-16;2.220446e-16;-4.718661e-17;2.907102e-17;-3.330669e-16;7.625762e-17;0.482109;-1.110223e-16;1.110223e-16;0
-0.169641;-3.224892;0.547853;8.39567e-13;0;0;8.39567e-13;-1.110223e-16;0;-3.1318e-17;0;0;0;0;8.225065e-18;-1.192474e-16;6.373622e-17;45;0;8.498162e-17;8.237693e-17;-1.110223e-16;-2.657508e-17;-3.606093e-17;0;-9.485856e-18;0.547853;-1.110223e-16;1.110223e-16;0
-0.102475;-3.224892;0.601493;8.39567e-13;0;0;8.39567e-13;2.220446e-16;2.220446e-16;5.587054e-17;0;0;0;0;2.779151e-16;1.661741e-16;5.587054e-17;45;0;7.449405e-17;1.61477e-16;2.220446e-16;6.130699e-17;5.043409e-17;2.220446e-16;-1.08729e-17;0.601493;4.440892e-16;-4.440892e-16;0
-0.03531;-3.224892;0.688301;8.39567e-13;0;0;8.39567e-13;0;2.220446e-16;2.039934e-17;0;0;0;0;2.239032e-16;-1.858541e-18;1.128808e-16;45;0;1.505078e-16;1.498921e-16;0;5.496116e-18;3.530257e-17;2.220446e-16;2.980645e-17;0.688301;2.220446e-16;-2.220446e-16;0
0.031855;-3.224892;0.751246;8.39567e-13;0;0;8.39567e-13;-1.110223e-16;0;3.488116e-18;0;0;0;0;1.094822e-19;-1.111318e-16;5.562063e-17;45;0;7.416084e-17;7.412438e-17;-1.110223e-16;-2.616548e-17;3.314171e-17;0;5.930718e-17;0.751246;-1.110223e-16;1.110223e-16;0
0.099021;-3.224892;0.786667;8.39567e-13;0;0;8.39567e-13;2.220446e-16;0;1.371255e-17;0;0;0;0;2.228882e-16;-8.436249e-19;1.118659e-16;45;0;1.491546e-16;1.488742e-16;2.220446e-16;4.062339e-17;-1.319828e-17;0;-5.382167e-17;0.786667;2.220446e-16;-2.220446e-16;0
0.166186;-3.224892;0.840219;8.39567e-13;0;0;8.39567e-13;-1.110223e-16;-1.110223e-16;-5.945517e-17;0;0;0;0;-5.156713e-17;-1.704775e-16;5.945517e-17;45;0;7.927357e-17;1.009526e-16;-1.110223e-16;-7.340661e-17;-4.550374e-17;-1.110223e-16;2.790287e-17;0.840219;-2.220446e-16;2.220446e-16;0
0.233352;-3.224892;0.890944;8.39567e-13;0;0;8.39567e-13;0;0;-7.44418e-18;0;0;0;0;7.44418e-18;-7.44418e-18;7.44418e-18;45;0;9.925574e-18;8.5958e-18;0;-3.018786e-17;1.52995e-17;0;4.548736e-17;0.890944;0;0;0
0.300517;-3.224892;0.899196;8.39567e-13;0;0;8.39567e-13;0;-1.110223e-16;2.27882e-17;0;0;0;0;4.49543e-18;-1.155177e-16;6.000658e-17;45;0;8.000877e-17;7.855319e-17;0;5.369698e-17;-8.12058e-18;-1.110223e-16;-6.181756e-17;0.899196;-1.110223e-16;1.110223e-16;0
0.367682;-3.224892;0.910616;8.39567e-13;0;0;8.39567e-13;0;0;5.704855e-18;0;0;0;0;5.704855e-18;-5.704855e-18;5.704855e-18;45;0;7.606473e-18;6.587399e-18;0;3.174672e-17;-2.033701e-17;0;-5.208373e-17;0.910616;0;0;0
0.434848;-3.224892;0.920659;8.39567e-13;0;0;8.39567e-13;0;0;-2.766299e-17;0;0;0;0;2.766299e-17;-2.766299e-17;2.766299e-17;45;0;3.688398e-17;3.194247e-17;0;-6.064297e-17;5.316995e-18;0;6.595996e-17;0.920659;0;0;0
0.502013;-3.224892;0.951887;8.39567e-13;0;0;8.39567e-13;2.220446e-16;-1.110223e-16;1.409385e-17;0;0;0;0;2.226399e-16;-1.116176e-16;1.671288e-16;45;0;2.228384e-16;1.965e-16;2.220446e-16;2.329222e-17;4.89547e-18;-1.110223e-16;-1.839675e-17;0.951887;1.110223e-16;-1.110223e-16;0
0.569178;-3.224892;0.969884;8.39567e-13;0;0;8.39567e-13;2.220446e-16;2.220446e-16;-9.043367e-18;0;0;0;0;2.31088e-16;2.130012e-16;9.043367e-18;45;0;1.205782e-17;1.483976e-16;2.220446e-16;-1.299209e-17;-5.094643e-18;2.220446e-16;7.897447e-18;0.969884;4.440892e-16;-4.440892e-16;0
0.636344;-3.224892;0.963913;8.39567e-13;0;0;8.39567e-13;-1.110223e-16;2.220446e-16;2.854416e-17;0;0;0;0;2.244732e-16;-1.134509e-16;1.68962e-16;45;0;2.252827e-16;1.985794e-16;-1.110223e-16;1.887848e-18;5.520048e-17;2.220446e-16;5.331263e-17;0.963913;1.110223e-16;-1.110223e-16;0
0.703509;-3.224892;0.966888;8.39567e-13;0;0;8.39567e-13;-1.110223e-16;-1.110223e-16;-9.048916e-18;0;0;0;0;-1.019734e-16;-1.200712e-16;9.048916e-18;45;0;1.206522e-17;7.474877e-17;-1.110223e-16;-1.801714e-17;-8.0697e-20;-1.110223e-16;1.793644e-17;0.966888;-2.220446e-16;2.220446e-16;0
0.770674;-3.224892;0.98517;8.39567e-13;0;0;8.39567e-13;0;-1.110223e-16;7.841884e-19;0;0;0;0;5.538715e-21;-1.110278e-16;5.551669e-17;45;0;7.402226e-17;7.402041e-17;0;-1.601616e-17;1.758454e-17;-1.110223e-16;3.36007e-17;0.98517;-1.110223e-16;1.110223e-16;0
0.83784;-3.224892;0.969174;8.39567e-13;0;0;8.39567e-13;0;-1.110223e-16;-4.609389e-18;0;0;0;0;1.910424e-19;-1.112133e-16;5.57022e-17;45;0;7.426959e-17;7.4206e-17;0;-3.334438e-18;-5.884339e-18;-1.110223e-16;-2.549901e-18;0.969174;-1.110223e-16;1.110223e-16;0
0.905005;-3.224892;0.916366;8.39567e-13;0;0;8.39567e-13;-1.110223e-16;0;-2.084482e-17;0;0;0;0;3.78467e-18;-1.14807e-16;5.929582e-17;45;0;7.90611e-17;7.783022e-17;-1.110223e-16;-3.30342e-17;-8.655439e-18;0;2.437876e-17;0.916366;-1.110223e-16;1.110223e-16;0
0.97217;-3.224892;0.874943;8.39567e-13;0;0;8.39567e-13;2.220446e-16;-1.110223e-16;-3.827653e-18;0;0;0;0;2.220886e-16;-1.110663e-16;1.665774e-16;45;0;2.221032e-16;1.958748e-16;2.220446e-16;-1.258052e-17;4.925214e-18;-1.110223e-16;1.750573e-17;0.874943;1.110223e-16;-1.110223e-16;0
1.039336;-3.224892;0.879947;8.39567e-13;0;0;8.39567e-13;2.220446e-16;2.220446e-16;-4.568401e-18;0;0;0;0;2.26613e-16;2.174762e-16;4.568401e-18;45;0;6.091202e-18;1.481237e-16;2.220446e-16;-5.506632e-17;4.592951e-17;2.220446e-16;1.009958e-16;0.879947;4.440892e-16;-4.440892e-16;0
1.106501;-3.224892;0.867098;8.39567e-13;0;0;8.39567e-13;2.220446e-16;2.220446e-16;3.241964e-17;0;0;0;0;2.544642e-16;1.89625e-16;3.241964e-17;45;0;4.322618e-17;1.526898e-16;2.220446e-16;3.438915e-17;3.045012e-17;2.220446e-16;-3.939036e-18;0.867098;4.440892e-16;-4.440892e-16;0
1.173667;-3.224892;0.819116;8.39567e-13;0;0;8.39567e-13;0;-1.110223e-16;1.841657e-17;0;0;0;0;2.97524e-18;-1.139975e-16;5.848639e-17;45;0;7.798186e-17;7.700927e-17;0;1.535774e-17;2.14754e-17;-1.110223e-16;6.117656e-18;0.819116;-1.110223e-16;1.110223e-16;0
1.240832;-3.224892;0.779902;8.39567e-13;0;0;8.39567e-13;2.220446e-16;2.220446e-16;-3.577302e-18;0;0;0;0;2.256219e-16;2.184673e-16;3.577302e-18;45;0;4.769736e-18;1.480874e-16;2.220446e-16;2.715689e-17;-3.43115e-17;2.220446e-16;-6.146839e-17;0.779902;4.440892e-16;-4.440892e-16;0
1.307997;-3.224892;0.734923;8.39567e-13;0;0;8.39567e-13;2.220446e-16;0;-6.627975e-18;0;0;0;0;2.222423e-16;-1.976674e-19;1.1122e-16;45;0;1.482933e-16;1.482274e-16;2.220446e-16;1.976839e-18;-1.523279e-17;0;-1.720963e-17;0.734923;2.220446e-16;-2.220446e-16;0
1.375163;-3.224892;0.64972;8.39567e-13;0;0;8.39567e-13;2.220446e-16;0;-3.682941e-17;0;0;0;0;2.279939e-16;-5.949307e-18;1.169716e-16;45;0;1.559622e-16;1.540174e-16;2.220446e-16;-4.64229e-17;-2.723593e-17;0;1.918698e-17;0.64972;2.220446e-16;-2.220446e-16;0
1.442328;-3.224892;0.572184;8.39567e-13;0;0;8.39567e-13;0;0;8.871729e-19;0;0;0;0;8.871729e-19;-8.871729e-19;8.871729e-19;45;0;1.182897e-18;1.024419e-18;0;1.38418e-17;-1.206746e-17;0;-2.590926e-17;0.572184;0;0;0
1.509493;-3.224892;0.473994;8.39567e-13;0;0;8.39567e-13;2.220446e-16;0;8.422564e-18;0;0;0;0;2.223636e-16;-3.190251e-19;1.113413e-16;45;0;1.484551e-16;1.483489e-16;2.220446e-16;-4.978654e-17;6.663167e-17;0;1.164182e-16;0.473994;2.220446e-16;-2.220446e-16;0
-0.303971;-3.292058;0.355173;8.39567e-13;0;0;8.39567e-13;2.220446e-16;2.220446e-16;4.545229e-17;0;0;0;0;2.674969e-16;1.765923e-16;4.545229e-17;45;0;6.060305e-17;1.570584e-16;2.220446e-16;1.71764e-17;7.372818e-17;2.220446e-16;5.655178e-17;0.355173;4.440892e-16;-4.440892e-16;0
-0.236806;-3.292058;0.472457;8.39567e-13;0;0;8.39567e-13;2.220446e-16;2.220446e-16;1.330859e-17;0;0;0;0;2.353532e-16;2.08736e-16;1.330859e-17;45;0;1.774479e-17;1.488253e-16;2.220446e-16;9.830259e-18;1.678693e-17;2.220446e-16;6.95667e-18;0.472457;4.440892e-16;-4.440892e-16;0
-0.169641;-3.292058;0.564216;8.39567e-13;0;0;8.39567e-13;0;-3.330669e-16;7.14182e-18;0;0;0;0;1.530688e-19;-3.3322e-16;1.666865e-16;45;0;2.222487e-16;2.221977e-16;0;4.183104e-17;-2.75474e-17;-3.330669e-16;-6.937845e-17;0.564216;-3.330669e-16;3.330669e-16;0
-0.102475;-3.292058;0.627837;8.39567e-13;0;0;8.39567e-13;2.220446e-16;0;1.903843e-17;0;0;0;0;2.236652e-16;-1.620555e-18;1.126429e-16;45;0;1.501905e-16;1.496532e-16;2.220446e-16;9.159099e-18;2.891775e-17;0;1.975865e-17;0.627837;2.220446e-16;-2.220446e-16;0
-0.03531;-3.292058;0.696984;8.39567e-13;0;0;8.39567e-13;-1.110223e-16;-1.110223e-16;-5.120117e-18;0;0;0;0;-1.059022e-16;-1.161424e-16;5.120117e-18;45;0;6.826823e-18;7.425062e-17;-1.110223e-16;-1.024023e-17;0;-1.110223e-16;1.024023e-17;0.696984;-2.220446e-16;2.220446e-16;0
0.031855;-3.292058;0.74916;8.39567e-13;0;0;8.39567e-13;0;-1.110223e-16;2.469015e-18;0;0;0;0;5.488109e-20;-1.110772e-16;5.556603e-17;45;0;7.408805e-17;7.406976e-17;0;-1.48364e-18;6.421671e-18;-1.110223e-16;7.905311e-18;0.74916;-1.110223e-16;1.110223e-16;0
0.099021;-3.292058;0.786903;8.39567e-13;0;0;8.39567e-13;0;2.220446e-16;-2.776467e-17;0;0;0;0;2.254637e-16;-3.419074e-18;1.144414e-16;45;0;1.525885e-16;1.514617e-16;0;-3.543863e-17;-2.009071e-17;2.220446e-16;1.534793e-17;0.786903;2.220446e-16;-2.220446e-16;0
0.166186;-3.292058;0.816048;8.39567e-13;0;0;8.39567e-13;-4.440892e-16;0;1.615146e-18;0;0;0;0;5.874188e-21;-4.440951e-16;2.220505e-16;45;0;2.960673e-16;2.960654e-16;-4.440892e-16;-1.080803e-17;1.403833e-17;0;2.484636e-17;0.816048;-4.440892e-16;4.440892e-16;0
0.233352;-3.292058;0.864304;8.39567e-13;0;0;8.39567e-13;0;-1.110223e-16;-7.750819e-18;0;0;0;0;5.384974e-19;-1.115608e-16;5.604965e-17;45;0;7.473286e-17;7.455401e-17;0;-2.01128e-18;-1.349036e-17;-1.110223e-16;-1.147908e-17;0.864304;-1.110223e-16;1.110223e-16;0
0.300517;-3.292058;0.900216;8.39567e-13;0;0;8.39567e-13;2.220446e-16;0;-3.309629e-17;0;0;0;0;2.268727e-16;-4.828102e-18;1.158504e-16;45;0;1.544672e-16;1.528833e-16;2.220446e-16;-6.129046e-17;-4.902129e-18;0;5.638833e-17;0.900216;2.220446e-16;-2.220446e-16;0
0.367682;-3.292058;0.914239;8.39567e-13;0;0;8.39567e-13;-1.110223e-16;-1.110223e-16;-2.019953e-17;0;0;0;0;-9.082278e-17;-1.312218e-16;2.019953e-17;45;0;2.69327e-17;7.760302e-17;-1.110223e-16;1.055188e-19;-4.050457e-17;-1.110223e-16;-4.061009e-17;0.914239;-2.220446e-16;2.220446e-16;0
0.434848;-3.292058;0.926189;8.39567e-13;0;0;8.39567e-13;0;2.220446e-16;5.411e-19;0;0;0;0;2.220459e-16;-1.318597e-21;1.110236e-16;45;0;1.480315e-16;1.480311e-16;0;-1.885124e-17;1.993344e-17;2.220446e-16;3.878467e-17;0.926189;2.220446e-16;-2.220446e-16;0
0.502013;-3.292058;0.951055;8.39567e-13;0;0;8.39567e-13;-1.110223e-16;-3.330669e-16;3.522674e-17;0;0;0;0;-1.055677e-16;-3.385215e-16;1.164769e-16;45;0;1.553026e-16;2.000049e-16;-1.110223e-16;4.073923e-17;2.971424e-17;-3.330669e-16;-1.102499e-17;0.951055;-4.440892e-16;4.440892e-16;0
0.569178;-3.292058;0.968241;8.39567e-13;0;0;8.39567e-13;2.220446e-16;0;-8.465352e-19;0;0;0;0;2.220478e-16;-3.227331e-21;1.110255e-16;45;0;1.48034e-16;1.48033e-16;2.220446e-16;-1.172409e-17;1.003102e-17;0;2.175511e-17;0.968241;2.220446e-16;-2.220446e-16;0
0.636344;-3.292058;0.98381;8.39567e-13;0;0;8.39567e-13;2.220446e-16;2.220446e-16;6.633807e-18;0;0;0;0;2.286784e-16;2.154108e-16;6.633807e-18;45;0;8.845076e-18;1.482278e-16;2.220446e-16;8.118578e-18;5.149037e-18;2.220446e-16;-2.96954e-18;0.98381;4.440892e-16;-4.440892e-16;0
0.703509;-3.292058;0.975292;8.39567e-13;0;0;8.39567e-13;2.220446e-16;2.220446e-16;1.004616e-17;0;0;0;0;2.320908e-16;2.119985e-16;1.004616e-17;45;0;1.339487e-17;1.484836e-16;2.220446e-16;7.31154e-18;1.278077e-17;2.220446e-16;5.469231e-18;0.975292;4.440892e-16;-4.440892e-16;0
0.770674;-3.292058;0.964671;8.39567e-13;0;0;8.39567e-13;0;2.220446e-16;-3.901247e-17;0;0;0;0;2.286995e-16;-6.654902e-18;1.176772e-16;45;0;1.569029e-16;1.547324e-16;0;-4.469861e-17;-3.332632e-17;2.220446e-16;1.137229e-17;0.964671;2.220446e-16;-2.220446e-16;0
0.83784;-3.292058;0.962272;8.39567e-13;0;0;8.39567e-13;2.220446e-16;2.220446e-16;-7.61178e-19;0;0;0;0;2.228058e-16;2.212834e-16;7.61178e-19;45;0;1.014904e-18;1.480323e-16;2.220446e-16;-1.522356e-18;0;2.220446e-16;1.522356e-18;0.962272;4.440892e-16;-4.440892e-16;0
0.905005;-3.292058;0.916917;8.39567e-13;0;0;8.39567e-13;-4.440892e-16;-1.110223e-16;3.716056e-17;0;0;0;0;-1.069266e-16;-4.481849e-16;1.706291e-16;45;0;2.275055e-16;2.702921e-16;-4.440892e-16;2.143849e-17;5.288262e-17;-1.110223e-16;3.144413e-17;0.916917;-5.551115e-16;5.551115e-16;0
0.97217;-3.292058;0.879808;8.39567e-13;0;0;8.39567e-13;2.220446e-16;0;1.602489e-17;0;0;0;0;2.231952e-16;-1.15055e-18;1.121729e-16;45;0;1.495638e-16;1.491818e-16;2.220446e-16;9.95862e-18;2.209116e-17;0;1.213254e-17;0.879808;2.220446e-16;-2.220446e-16;0
1.039336;-3.292058;0.878645;8.39567e-13;0;0;8.39567e-13;-1.110223e-16;-1.110223e-16;1.576509e-17;0;0;0;0;-9.525721e-17;-1.267874e-16;1.576509e-17;45;0;2.102013e-17;7.622063e-17;-1.110223e-16;1.508758e-17;1.644261e-17;-1.110223e-16;1.355025e-18;0.878645;-2.220446e-16;2.220446e-16;0
1.106501;-3.292058;0.866217;8.39567e-13;0;0;8.39567e-13;2.220446e-16;-1.110223e-16;-1.293861e-17;0;0;0;0;2.225465e-16;-1.115242e-16;1.670353e-16;45;0;2.227138e-16;1.96394e-16;2.220446e-16;-1.149735e-17;-1.437987e-17;-1.110223e-16;-2.882525e-18;0.866217;1.110223e-16;-1.110223e-16;0
1.173667;-3.292058;0.826078;8.39567e-13;0;0;8.39567e-13;2.220446e-16;-1.110223e-16;1.528523e-17;0;0;0;0;2.227446e-16;-1.117223e-16;1.672335e-16;45;0;2.22978e-16;1.966187e-16;2.220446e-16;-1.02118e-17;4.078226e-17;-1.110223e-16;5.099406e-17;0.826078;1.110223e-16;-1.110223e-16;0
1.240832;-3.292058;0.775709;8.39567e-13;0;0;8.39567e-13;-1.110223e-16;2.220446e-16;-5.195425e-18;0;0;0;0;2.221256e-16;-1.111033e-16;1.666145e-16;45;0;2.221526e-16;1.959168e-16;-1.110223e-16;6.237803e-18;-1.662865e-17;2.220446e-16;-2.286646e-17;0.775709;1.110223e-16;-1.110223e-16;0
1.307997;-3.292058;0.72684;8.39567e-13;0;0;8.39567e-13;0;-1.110223e-16;1.673153e-17;0;0;0;0;2.466707e-18;-1.13489e-16;5.797786e-17;45;0;7.730381e-17;7.649483e-17;0;1.373952e-17;1.972355e-17;-1.110223e-16;5.984033e-18;0.72684;-1.110223e-16;1.110223e-16;0
1.375163;-3.292058;0.672354;8.39567e-13;0;0;8.39567e-13;0;-3.330669e-16;2.859565e-17;0;0;0;0;2.437261e-18;-3.355042e-16;1.689707e-16;45;0;2.252943e-16;2.244863e-16;0;3.388254e-17;2.330877e-17;-3.330669e-16;-1.057377e-17;0.672354;-3.330669e-16;3.330669e-16;0
1.442328;-3.292058;0.599359;8.39567e-13;0;0;8.39567e-13;0;0;-4.520528e-17;0;0;0;0;4.520528e-17;-4.520528e-17;4.520528e-17;45;0;6.027371e-17;5.219856e-17;0;-6.992279e-17;-2.048777e-17;0;4.943502e-17;0.599359;0;0;0
1.509493;-3.292058;0.455629;8.39567e-13;0;0;8.39567e-13;0;-2.220446e-16;9.250861e-18;0;0;0;0;3.847443e-19;-2.224293e-16;1.11407e-16;45;0;1.485427e-16;1.484147e-16;0;1.202946e-17;6.472267e-18;-2.220446e-16;-5.557188e-18;0.455629;-2.220446e-16;2.220446e-16;0
-0.303971;-3.359223;0.357732;8.39567e-13;0;0;8.39567e-13;0;4.440892e-16;9.84004e-18;0;0;0;0;4.443072e-16;-2.179267e-19;2.222625e-16;45;0;2.9635e-16;2.962774e-16;0;-5.570285e-19;2.023711e-17;4.440892e-16;2.079414e-17;0.357732;4.440892e-16;-4.440892e-16;0
-0.236806;-3.359223;0.485324;8.39567e-13;0;0;8.39567e-13;0;0;3.011304e-18;0;0;0;0;3.011304e-18;-3.011304e-18;3.011304e-18;45;0;4.015072e-18;3.477155e-18;0;-2.642405e-17;3.244666e-17;0;5.887072e-17;0.485324;0;0;0
-0.169641;-3.359223;0.578176;8.39567e-13;0;0;8.39567e-13;4.440892e-16;2.220446e-16;4.955589e-17;0;0;0;0;4.546471e-16;2.114867e-16;1.215802e-16;45;0;1.621069e-16;2.627028e-16;4.440892e-16;8.541225e-17;1.369953e-17;2.220446e-16;-7.171273e-17;0.578176;6.661338e-16;-6.661338e-16;0
-0.102475;-3.359223;0.640634;8.39567e-13;0;0;8.39567e-13;-1.110223e-16;0;4.916314e-17;0;0;0;0;1.864073e-17;-1.29663e-16;7.415188e-17;45;0;9.886918e-17;9.327854e-17;-1.110223e-16;7.195086e-17;2.637541e-17;0;-4.557545e-17;0.640634;-1.110223e-16;1.110223e-16;0
-0.03531;-3.359223;0.711607;8.39567e-13;0;0;8.39567e-13;0;2.220446e-16;1.948259e-17;0;0;0;0;2.237411e-16;-1.696476e-18;1.127188e-16;45;0;1.502917e-16;1.497294e-16;0;2.352464e-17;1.544054e-17;2.220446e-16;-8.084108e-18;0.711607;2.220446e-16;-2.220446e-16;0
0.031855;-3.359223;0.750005;8.39567e-13;0;0;8.39567e-13;0;2.220446e-16;-1.760296e-17;0;0;0;0;2.234314e-16;-1.386843e-18;1.124091e-16;45;0;1.498789e-16;1.494187e-16;0;-6.088295e-17;2.567703e-17;2.220446e-16;8.655999e-17;0.750005;2.220446e-16;-2.220446e-16;0
0.099021;-3.359223;0.794201;8.39567e-13;0;0;8.39567e-13;0;-1.110223e-16;1.43507e-17;0;0;0;0;1.824967e-18;-1.128473e-16;5.733612e-17;45;0;7.644816e-17;7.584715e-17;0;2.010312e-17;8.598282e-18;-1.110223e-16;-1.150483e-17;0.794201;-1.110223e-16;1.110223e-16;0
0.166186;-3.359223;0.842346;8.39567e-13;0;0;8.39567e-13;-3.330669e-16;0;-3.404854e-17;0;0;0;0;3.445059e-18;-3.36512e-16;1.699785e-16;45;0;2.26638e-16;2.254984e-16;-3.330669e-16;-6.809709e-17;0;0;6.809709e-17;0.842346;-3.330669e-16;3.330669e-16;0
0.233352;-3.359223;0.873074;8.39567e-13;0;0;8.39567e-13;-1.110223e-16;2.220446e-16;4.923758e-18;0;0;0;0;2.221174e-16;-1.110951e-16;1.666062e-16;45;0;2.221416e-16;1.959075e-16;-1.110223e-16;-1.799579e-17;2.784331e-17;2.220446e-16;4.58391e-17;0.873074;1.110223e-16;-1.110223e-16;0
0.300517;-3.359223;0.907424;8.39567e-13;0;0;8.39567e-13;-1.110223e-16;2.220446e-16;-9.04907e-18;0;0;0;0;2.222903e-16;-1.11268e-16;1.667791e-16;45;0;2.223722e-16;1.961035e-16;-1.110223e-16;-2.528747e-17;7.189331e-18;2.220446e-16;3.24768e-17;0.907424;1.110223e-16;-1.110223e-16;0
0.367682;-3.359223;0.927432;8.39567e-13;0;0;8.39567e-13;0;2.220446e-16;3.085276e-18;0;0;0;0;2.220875e-16;-4.286116e-20;1.110652e-16;45;0;1.480869e-16;1.480726e-16;0;2.418312e-18;3.75224e-18;2.220446e-16;1.333928e-18;0.927432;2.220446e-16;-2.220446e-16;0
0.434848;-3.359223;0.941733;8.39567e-13;0;0;8.39567e-13;-1.110223e-16;2.220446e-16;-5.298665e-17;0;0;0;0;2.302709e-16;-1.192486e-16;1.747598e-16;45;0;2.33013e-16;2.051606e-16;-1.110223e-16;-6.578088e-17;-4.019243e-17;2.220446e-16;2.558845e-17;0.941733;1.110223e-16;-1.110223e-16;0
0.502013;-3.359223;0.956162;8.39567e-13;0;0;8.39567e-13;-3.330669e-16;0;-1.183938e-18;0;0;0;0;4.20844e-21;-3.330711e-16;1.665377e-16;45;0;2.220502e-16;2.220488e-16;-3.330669e-16;1.722287e-17;-1.959075e-17;0;-3.681362e-17;0.956162;-3.330669e-16;3.330669e-16;0
0.569178;-3.359223;0.965816;8.39567e-13;0;0;8.39567e-13;0;-1.110223e-16;-4.832784e-18;0;0;0;0;2.099732e-19;-1.112323e-16;5.572112e-17;45;0;7.429483e-17;7.422494e-17;0;-7.829241e-18;-1.836327e-18;-1.110223e-16;5.992914e-18;0.965816;-1.110223e-16;1.110223e-16;0
0.636344;-3.359223;1.009034;8.39567e-13;0;0;8.39567e-13;2.220446e-16;2.220446e-16;-2.973308e-17;0;0;0;0;2.517777e-16;1.923115e-16;2.973308e-17;45;0;3.964411e-17;1.51959e-16;2.220446e-16;-3.439767e-17;-2.50685e-17;2.220446e-16;9.329176e-18;1.009034;4.440892e-16;-4.440892e-16;0
0.703509;-3.359223;0.9962;8.39567e-13;0;0;8.39567e-13;2.220446e-16;2.220446e-16;-8.759433e-18;0;0;0;0;2.30804e-16;2.132852e-16;8.759433e-18;45;0;1.167924e-17;1.483749e-16;2.220446e-16;-1.751887e-17;0;2.220446e-16;1.751887e-17;0.9962;4.440892e-16;-4.440892e-16;0
0.770674;-3.359223;0.951686;8.39567e-13;0;0;8.39567e-13;2.220446e-16;0;-2.549472e-17;0;0;0;0;2.249343e-16;-2.889649e-18;1.13912e-16;45;0;1.518826e-16;1.509286e-16;2.220446e-16;-2.619722e-17;-2.479223e-17;0;1.404989e-18;0.951686;2.220446e-16;-2.220446e-16;0
0.83784;-3.359223;0.955023;8.39567e-13;0;0;8.39567e-13;0;0;2.895891e-17;0;0;0;0;2.895891e-17;-2.895891e-17;2.895891e-17;45;0;3.861189e-17;3.343888e-17;0;1.242495e-17;4.549289e-17;0;3.306794e-17;0.955023;0;0;0
0.905005;-3.359223;0.93121;8.39567e-13;0;0;8.39567e-13;2.220446e-16;0;4.570356e-18;0;0;0;0;2.221386e-16;-9.403204e-20;1.111163e-16;45;0;1.481551e-16;1.481238e-16;2.220446e-16;1.830761e-17;-9.166901e-18;0;-2.747451e-17;0.93121;2.220446e-16;-2.220446e-16;0
0.97217;-3.359223;0.888805;8.39567e-13;0;0;8.39567e-13;2.220446e-16;2.220446e-16;-1.952526e-17;0;0;0;0;2.415699e-16;2.025193e-16;1.952526e-17;45;0;2.603369e-17;1.497368e-16;2.220446e-16;-2.008458e-17;-1.896595e-17;2.220446e-16;1.118635e-18;0.888805;4.440892e-16;-4.440892e-16;0
1.039336;-3.359223;0.874306;8.39567e-13;0;0;8.39567e-13;-3.330669e-16;2.220446e-16;-4.048968e-18;0;0;0;0;2.220741e-16;-3.330964e-16;2.775853e-16;45;0;3.701137e-16;3.226572e-16;-3.330669e-16;-1.824278e-17;1.014484e-17;2.220446e-16;2.838761e-17;0.874306;-1.110223e-16;1.110223e-16;0
1.106501;-3.359223;0.863786;8.39567e-13;0;0;8.39567e-13;0;-1.110223e-16;2.940511e-18;0;0;0;0;7.782715e-20;-1.111001e-16;5.558898e-17;45;0;7.411864e-17;7.409271e-17;0;-2.621292e-18;8.502314e-18;-1.110223e-16;1.112361e-17;0.863786;-1.110223e-16;1.110223e-16;0
1.173667;-3.359223;0.829137;8.39567e-13;0;0;8.39567e-13;0;-3.330669e-16;-3.021401e-17;0;0;0;0;2.718659e-18;-3.357856e-16;1.692521e-16;45;0;2.256695e-16;2.247687e-16;0;-5.175519e-17;-8.672827e-18;-3.330669e-16;4.308237e-17;0.829137;-3.330669e-16;3.330669e-16;0
1.240832;-3.359223;0.774127;8.39567e-13;0;0;8.39567e-13;0;-3.330669e-16;3.123882e-17;0;0;0;0;2.904602e-18;-3.359715e-16;1.694381e-16;45;0;2.259174e-16;2.249555e-16;0;-2.873141e-18;6.535078e-17;-3.330669e-16;6.822391e-17;0.774127;-3.330669e-16;3.330669e-16;0
1.307997;-3.359223;0.716686;8.39567e-13;0;0;8.39567e-13;-1.110223e-16;0;5.723138e-17;0;0;0;0;2.421914e-17;-1.352414e-16;7.973029e-17;45;0;1.06307e-16;9.92242e-17;-1.110223e-16;6.769552e-17;4.676725e-17;0;-2.092826e-17;0.716686;-1.110223e-16;1.110223e-16;0
1.375163;-3.359223;0.656984;8.39567e-13;0;0;8.39567e-13;0;-1.110223e-16;-2.353987e-17;0;0;0;0;4.784896e-18;-1.158072e-16;6.029605e-17;45;0;8.039473e-17;7.884817e-17;0;-5.062856e-17;3.548821e-18;-1.110223e-16;5.417738e-17;0.656984;-1.110223e-16;1.110223e-16;0
1.442328;-3.359223;0.588173;8.39567e-13;0;0;8.39567e-13;-3.330669e-16;0;-5.519494e-18;0;0;0;0;9.144244e-20;-3.331584e-16;1.666249e-16;45;0;2.221665e-16;2.221361e-16;-3.330669e-16;5.349751e-18;-1.638874e-17;0;-2.173849e-17;0.588173;-3.330669e-16;3.330669e-16;0
1.509493;-3.359223;0.455299;8.39567e-13;0;0;8.39567e-13;2.220446e-16;2.220446e-16;-9.908292e-18;0;0;0;0;2.319529e-16;2.121363e-16;9.908292e-18;45;0;1.321106e-17;1.484712e-16;2.220446e-16;-2.9741e-17;9.924415e-18;2.220446e-16;3.966541e-17;0.455299;4.440892e-16;-4.440892e-16;0
-0.303971;-3.426388;0.35722;8.39567e-13;0;0;8.39567e-13;0;0;-4.9824e-17;0;0;0;0;4.9824e-17;-4.9824e-17;4.9824e-17;45;0;6.6432e-17;5.75318e-17;0;-6.196751e-17;-3.768049e-17;0;2.428703e-17;0.35722;0;0;0
-0.236806;-3.426388;0.50303;8.39567e-13;0;0;8.39567e-13;-2.220446e-16;0;-5.257227e-17;0;0;0;0;1.181822e-17;-2.338628e-16;1.228405e-16;45;0;1.637874e-16;1.599935e-16;-2.220446e-16;-9.610943e-17;-9.035101e-18;0;8.707433e-17;0.50303;-2.220446e-16;2.220446e-16;0
-0.169641;-3.426388;0.563427;8.39567e-13;0;0;8.39567e-13;-2.220446e-16;0;-1.05006e-17;0;0;0;0;4.95473e-19;-2.225401e-16;1.115178e-16;45;0;1.486904e-16;1.485255e-16;-2.220446e-16;2.34259e-17;-4.44271e-17;0;-6.7853e-17;0.563427;-2.220446e-16;2.220446e-16;0
-0.102475;-3.426388;0.625729;8.39567e-13;0;0;8.39567e-13;2.220446e-16;0;-1.625215e-17;0;0;0;0;2.232279e-16;-1.18324e-18;1.122055e-16;45;0;1.496074e-16;1.492145e-16;2.220446e-16;-3.960393e-17;7.099637e-18;0;4.670356e-17;0.625729;2.220446e-16;-2.220446e-16;0
-0.03531;-3.426388;0.701001;8.39567e-13;0;0;8.39567e-13;-2.220446e-16;0;1.259319e-17;0;0;0;0;7.119365e-19;-2.227565e-16;1.117342e-16;45;0;1.48979e-16;1.487422e-16;-2.220446e-16;2.518639e-17;0;0;-2.518639e-17;0.701001;-2.220446e-16;2.220446e-16;0
0.031855;-3.426388;0.751541;8.39567e-13;0;0;8.39567e-13;0;0;1.657618e-17;0;0;0;0;1.657618e-17;-1.657618e-17;1.657618e-17;45;0;2.210157e-17;1.914052e-17;0;1.674235e-17;1.641001e-17;0;-3.323402e-19;0.751541;0;0;0
0.099021;-3.426388;0.810938;8.39567e-13;0;0;8.39567e-13;-1.110223e-16;2.220446e-16;3.96281e-17;0;0;0;0;2.266946e-16;-1.156723e-16;1.711835e-16;45;0;2.282446e-16;2.011001e-16;-1.110223e-16;4.553963e-17;3.371656e-17;2.220446e-16;-1.182307e-17;0.810938;1.110223e-16;-1.110223e-16;0
0.166186;-3.426388;0.851432;8.39567e-13;0;0;8.39567e-13;2.220446e-16;-1.110223e-16;1.519344e-17;0;0;0;0;2.227362e-16;-1.117139e-16;1.672251e-16;45;0;2.229668e-16;1.966092e-16;2.220446e-16;3.651122e-17;-6.124341e-18;-1.110223e-16;-4.263556e-17;0.851432;1.110223e-16;-1.110223e-16;0
0.233352;-3.426388;0.867493;8.39567e-13;0;0;8.39567e-13;-1.110223e-16;0;-2.635119e-17;0;0;0;0;5.936982e-18;-1.169593e-16;6.144813e-17;45;0;8.193084e-17;8.002529e-17;-1.110223e-16;-6.47012e-17;1.199883e-17;0;7.670003e-17;0.867493;-1.110223e-16;1.110223e-16;0
0.300517;-3.426388;0.89665;8.39567e-13;0;0;8.39567e-13;2.220446e-16;4.440892e-16;-3.736386e-17;0;0;0;0;4.502079e-16;2.159259e-16;1.17141e-16;45;0;1.56188e-16;2.599996e-16;2.220446e-16;-3.640487e-17;-3.832285e-17;4.440892e-16;-1.917985e-18;0.89665;6.661338e-16;-6.661338e-16;0
0.367682;-3.426388;0.920213;8.39567e-13;0;0;8.39567e-13;2.220446e-16;-1.110223e-16;1.745376e-17;0;0;0;0;2.229567e-16;-1.119344e-16;1.674456e-16;45;0;2.232608e-16;1.968593e-16;2.220446e-16;3.614607e-17;-1.238546e-18;-1.110223e-16;-3.738461e-17;0.920213;1.110223e-16;-1.110223e-16;0
0.434848;-3.426388;0.937717;8.39567e-13;0;0;8.39567e-13;2.220446e-16;0;1.683252e-17;0;0;0;0;2.233134e-16;-1.268772e-18;1.122911e-16;45;0;1.497214e-16;1.493003e-16;2.220446e-16;3.114568e-17;2.519358e-18;0;-2.862633e-17;0.937717;2.220446e-16;-2.220446e-16;0
0.502013;-3.426388;0.954117;8.39567e-13;0;0;8.39567e-13;0;-1.110223e-16;3.321112e-17;0;0;0;0;9.176302e-18;-1.201986e-16;6.468746e-17;45;0;8.624994e-17;8.33597e-17;0;5.876822e-17;7.654025e-18;-1.110223e-16;-5.11142e-17;0.954117;-1.110223e-16;1.110223e-16;0
0.569178;-3.426388;0.961044;8.39567e-13;0;0;8.39567e-13;0;-1.110223e-16;-3.388833e-17;0;0;0;0;9.52658e-18;-1.205489e-16;6.503773e-17;45;0;8.671698e-17;8.372231e-17;0;-3.780966e-17;-2.996699e-17;-1.110223e-16;7.842676e-18;0.961044;-1.110223e-16;1.110223e-16;0
0.636344;-3.426388;0.98965;8.39567e-13;0;0;8.39567e-13;0;0;-1.152103e-19;0;0;0;0;1.152103e-19;-1.152103e-19;1.152103e-19;45;0;1.536137e-19;1.330334e-19;0;2.935605e-17;-2.958647e-17;0;-5.894251e-17;0.98965;0;0;0
0.703509;-3.426388;1.011009;8.39567e-13;0;0;8.39567e-13;-3.330669e-16;-1.110223e-16;1.769223e-17;0;0;0;0;-1.096214e-16;-3.344678e-16;1.124232e-16;45;0;1.498975e-16;1.968877e-16;-3.330669e-16;1.506791e-17;2.031655e-17;-1.110223e-16;5.248649e-18;1.011009;-4.440892e-16;4.440892e-16;0
0.770674;-3.426388;0.97775;8.39567e-13;0;0;8.39567e-13;0;0;-3.040161e-17;0;0;0;0;3.040161e-17;-3.040161e-17;3.040161e-17;45;0;4.053548e-17;3.510476e-17;0;-4.13451e-17;-1.945813e-17;0;2.188697e-17;0.97775;0;0;0
0.83784;-3.426388;0.964399;8.39567e-13;0;0;8.39567e-13;0;-1.110223e-16;1.281708e-17;0;0;0;0;1.460467e-18;-1.124828e-16;5.697162e-17;45;0;7.596216e-17;7.548005e-17;0;2.945816e-17;-3.824011e-18;-1.110223e-16;-3.328217e-17;0.964399;-1.110223e-16;1.110223e-16;0
0.905005;-3.426388;0.952969;8.39567e-13;0;0;8.39567e-13;0;-1.110223e-16;1.829587e-19;0;0;0;0;3.015053e-22;-1.110226e-16;5.551146e-17;45;0;7.401527e-17;7.401517e-17;0;5.156547e-18;-4.790629e-18;-1.110223e-16;-9.947176e-18;0.952969;-1.110223e-16;1.110223e-16;0
0.97217;-3.426388;0.906185;8.39567e-13;0;0;8.39567e-13;2.220446e-16;-1.110223e-16;2.735306e-17;0;0;0;0;2.24276e-16;-1.132537e-16;1.687649e-16;45;0;2.250198e-16;1.983557e-16;2.220446e-16;-9.716455e-19;5.567777e-17;-1.110223e-16;5.664941e-17;0.906185;1.110223e-16;-1.110223e-16;0
1.039336;-3.426388;0.882961;8.39567e-13;0;0;8.39567e-13;0;2.220446e-16;2.303829e-17;0;0;0;0;2.244098e-16;-2.365151e-18;1.133875e-16;45;0;1.511833e-16;1.504011e-16;0;1.079537e-18;4.499705e-17;2.220446e-16;4.391751e-17;0.882961;2.220446e-16;-2.220446e-16;0
1.106501;-3.426388;0.867387;8.39567e-13;0;0;8.39567e-13;0;-1.110223e-16;1.568574e-17;0;0;0;0;2.173598e-18;-1.131959e-16;5.768475e-17;45;0;7.6913e-17;7.61988e-17;0;1.183853e-17;1.953294e-17;-1.110223e-16;7.694408e-18;0.867387;-1.110223e-16;1.110223e-16;0
1.173667;-3.426388;0.833221;8.39567e-13;0;0;8.39567e-13;2.220446e-16;2.220446e-16;-2.870199e-17;0;0;0;0;2.507466e-16;1.933426e-16;2.870199e-17;45;0;3.826933e-17;1.516945e-16;2.220446e-16;-5.740399e-17;0;2.220446e-16;5.740399e-17;0.833221;4.440892e-16;-4.440892e-16;0
1.240832;-3.426388;0.793377;8.39567e-13;0;0;8.39567e-13;2.220446e-16;2.220446e-16;2.028942e-17;0;0;0;0;2.42334e-16;2.017552e-16;2.028942e-17;45;0;2.705256e-17;1.498722e-16;2.220446e-16;2.349422e-17;1.708461e-17;2.220446e-16;-6.40961e-18;0.793377;4.440892e-16;-4.440892e-16;0
1.307997;-3.426388;0.751548;8.39567e-13;0;0;8.39567e-13;-1.110223e-16;-3.330669e-16;-3.180527e-17;0;0;0;0;-1.065564e-16;-3.375328e-16;1.154882e-16;45;0;1.539843e-16;1.99239e-16;-1.110223e-16;-6.361054e-17;0;-3.330669e-16;6.361054e-17;0.751548;-4.440892e-16;4.440892e-16;0
1.375163;-3.426388;0.678873;8.39567e-13;0;0;8.39567e-13;0;2.220446e-16;-2.697362e-17;0;0;0;0;2.252743e-16;-3.229733e-18;1.14252e-16;45;0;1.52336e-16;1.51271e-16;0;-2.88308e-17;-2.511643e-17;2.220446e-16;3.714366e-18;0.678873;2.220446e-16;-2.220446e-16;0
1.442328;-3.426388;0.572987;8.39567e-13;0;0;8.39567e-13;0;-1.110223e-16;-5.379236e-19;0;0;0;0;2.606278e-21;-1.110249e-16;5.551376e-17;45;0;7.401834e-17;7.401748e-17;0;2.908843e-18;-3.98469e-18;-1.110223e-16;-6.893533e-18;0.572987;-1.110223e-16;1.110223e-16;0
1.509493;-3.426388;0.457646;8.39567e-13;0;0;8.39567e-13;2.220446e-16;-2.220446e-16;-1.122993e-17;0;0;0;0;2.223284e-16;-2.223284e-16;2.223284e-16;45;0;2.964379e-16;2.567227e-16;2.220446e-16;-4.601338e-18;-1.785852e-17;-2.220446e-16;-1.325718e-17;0.457646;0;0;0
-0.303971;-3.493554;0.349516;8.39567e-13;0;0;8.39567e-13;-2.220446e-16;2.220446e-16;7.466293e-17;0;0;0;0;2.342613e-16;-2.342613e-16;2.342613e-16;45;0;3.123484e-16;2.705017e-16;-2.220446e-16;1.804799e-16;-3.1154e-17;2.220446e-16;-2.116339e-16;0.349516;0;0;0
-0.236806;-3.493554;0.498645;8.39567e-13;0;0;8.39567e-13;-2.220446e-16;0;1.356147e-17;0;0;0;0;8.252053e-19;-2.228698e-16;1.118475e-16;45;0;1.4913e-16;1.488557e-16;-2.220446e-16;4.870146e-17;-2.157853e-17;0;-7.027999e-17;0.498645;-2.220446e-16;2.220446e-16;0
-0.169641;-3.493554;0.549794;8.39567e-13;0;0;8.39567e-13;4.440892e-16;-1.110223e-16;-2.50607e-17;0;0;0;0;4.452183e-16;-1.121514e-16;2.786848e-16;45;0;3.715798e-16;3.404109e-16;4.440892e-16;-4.279348e-17;-7.32791e-18;-1.110223e-16;3.546557e-17;0.549794;3.330669e-16;-3.330669e-16;0
-0.102475;-3.493554;0.618627;8.39567e-13;0;0;8.39567e-13;-2.220446e-16;2.220446e-16;1.224138e-17;0;0;0;0;2.223818e-16;-2.223818e-16;2.223818e-16;45;0;2.96509e-16;2.567844e-16;-2.220446e-16;5.716426e-17;-3.268151e-17;2.220446e-16;-8.984576e-17;0.618627;0;0;0
-0.03531;-3.493554;0.704501;8.39567e-13;0;0;8.39567e-13;-3.330669e-16;-3.330669e-16;-1.317643e-17;0;0;0;0;-3.198905e-16;-3.462433e-16;1.317643e-17;45;0;1.756858e-17;2.225653e-16;-3.330669e-16;-2.999242e-17;3.639561e-18;-3.330669e-16;3.363199e-17;0.704501;-6.661338e-16;6.661338e-16;0
0.031855;-3.493554;0.758611;8.39567e-13;0;0;8.39567e-13;0;0;-2.337438e-17;0;0;0;0;2.337438e-17;-2.337438e-17;2.337438e-17;45;0;3.116583e-17;2.69904e-17;0;-4.481513e-17;-1.933618e-18;0;4.288151e-17;0.758611;0;0;0
0.099021;-3.493554;0.808179;8.39567e-13;0;0;8.39567e-13;0;-1.110223e-16;-4.051501e-17;0;0;0;0;1.32126e-17;-1.242349e-16;6.872375e-17;45;0;9.163167e-17;8.756039e-17;0;-7.672031e-17;-4.309711e-18;-1.110223e-16;7.24106e-17;0.808179;-1.110223e-16;1.110223e-16;0
0.166186;-3.493554;0.838391;8.39567e-13;0;0;8.39567e-13;0;0;1.753488e-17;0;0;0;0;1.753488e-17;-1.753488e-17;1.753488e-17;45;0;2.337984e-17;2.024754e-17;0;7.710649e-18;2.735911e-17;0;1.964846e-17;0.838391;0;0;0
0.233352;-3.493554;0.866868;8.39567e-13;0;0;8.39567e-13;-3.330669e-16;-1.110223e-16;-2.620356e-17;0;0;0;0;-1.079719e-16;-3.361173e-16;1.140727e-16;45;0;1.520969e-16;1.981487e-16;-3.330669e-16;-2.401937e-17;-2.838775e-17;-1.110223e-16;-4.368384e-18;0.866868;-4.440892e-16;4.440892e-16;0
0.300517;-3.493554;0.898974;8.39567e-13;0;0;8.39567e-13;0;2.220446e-16;2.039255e-17;0;0;0;0;2.239019e-16;-1.857314e-18;1.128796e-16;45;0;1.505062e-16;1.498909e-16;0;2.159935e-17;1.918575e-17;2.220446e-16;-2.413597e-18;0.898974;2.220446e-16;-2.220446e-16;0
0.367682;-3.493554;0.923343;8.39567e-13;0;0;8.39567e-13;0;2.220446e-16;-2.859347e-18;0;0;0;0;2.220814e-16;-3.681471e-20;1.110591e-16;45;0;1.480788e-16;1.480665e-16;0;2.399082e-17;-2.970952e-17;2.220446e-16;-5.370034e-17;0.923343;2.220446e-16;-2.220446e-16;0
0.434848;-3.493554;0.939817;8.39567e-13;0;0;8.39567e-13;-1.110223e-16;0;-4.208493e-18;0;0;0;0;1.593016e-19;-1.111816e-16;5.567045e-17;45;0;7.422727e-17;7.417423e-17;-1.110223e-16;1.705201e-18;-1.012219e-17;0;-1.182739e-17;0.939817;-1.110223e-16;1.110223e-16;0
0.502013;-3.493554;0.946245;8.39567e-13;0;0;8.39567e-13;2.220446e-16;2.220446e-16;2.241915e-17;0;0;0;0;2.444637e-16;1.996255e-16;2.241915e-17;45;0;2.98922e-17;1.502763e-16;2.220446e-16;2.952136e-17;1.531693e-17;2.220446e-16;-1.420443e-17;0.946245;4.440892e-16;-4.440892e-16;0
0.569178;-3.493554;0.951946;8.39567e-13;0;0;8.39567e-13;2.220446e-16;-3.330669e-16;3.116842e-17;0;0;0;0;2.237892e-16;-3.348115e-16;2.793003e-16;45;0;3.724004e-16;3.246246e-16;2.220446e-16;4.451895e-17;1.781789e-17;-3.330669e-16;-2.670106e-17;0.951946;-1.110223e-16;1.110223e-16;0
0.636344;-3.493554;0.959731;8.39567e-13;0;0;8.39567e-13;-1.110223e-16;-1.110223e-16;4.546547e-18;0;0;0;0;-1.064758e-16;-1.155688e-16;4.546547e-18;45;0;6.062063e-18;7.420082e-17;-1.110223e-16;1.7973e-17;-8.87991e-18;-1.110223e-16;-2.685291e-17;0.959731;-2.220446e-16;2.220446e-16;0
0.703509;-3.493554;0.978131;8.39567e-13;0;0;8.39567e-13;2.220446e-16;2.220446e-16;-3.781273e-18;0;0;0;0;2.258259e-16;2.182633e-16;3.781273e-18;45;0;5.041698e-18;1.480941e-16;2.220446e-16;-1.785926e-17;1.029671e-17;2.220446e-16;2.815597e-17;0.978131;4.440892e-16;-4.440892e-16;0
0.770674;-3.493554;0.957169;8.39567e-13;0;0;8.39567e-13;0;0;1.940464e-17;0;0;0;0;1.940464e-17;-1.940464e-17;1.940464e-17;45;0;2.587286e-17;2.240655e-17;0;4.856135e-17;-9.752062e-18;0;-5.831341e-17;0.957169;0;0;0
0.83784;-3.493554;0.930298;8.39567e-13;0;0;8.39567e-13;2.220446e-16;-1.110223e-16;-1.800546e-17;0;0;0;0;2.230151e-16;-1.119928e-16;1.67504e-16;45;0;2.233387e-16;1.969255e-16;2.220446e-16;-2.320382e-17;-1.280711e-17;-1.110223e-16;1.039672e-17;0.930298;1.110223e-16;-1.110223e-16;0
0.905005;-3.493554;0.945974;8.39567e-13;0;0;8.39567e-13;2.220446e-16;0;1.390005e-18;0;0;0;0;2.220533e-16;-8.70113e-21;1.11031e-16;45;0;1.480413e-16;1.480384e-16;2.220446e-16;5.307369e-18;-2.527359e-18;0;-7.834728e-18;0.945974;2.220446e-16;-2.220446e-16;0
0.97217;-3.493554;0.914975;8.39567e-13;0;0;8.39567e-13;-1.110223e-16;2.220446e-16;-1.315666e-17;0;0;0;0;2.225635e-16;-1.115412e-16;1.670524e-16;45;0;2.227365e-16;1.964133e-16;-1.110223e-16;-1.871105e-17;-7.602257e-18;2.220446e-16;1.11088e-17;0.914975;1.110223e-16;-1.110223e-16;0
1.039336;-3.493554;0.887135;8.39567e-13;0;0;8.39567e-13;0;-1.110223e-16;1.746584e-18;0;0;0;0;2.747017e-20;-1.110498e-16;5.553862e-17;45;0;7.40515e-17;7.404234e-17;0;2.319441e-17;-1.970124e-17;-1.110223e-16;-4.289565e-17;0.887135;-1.110223e-16;1.110223e-16;0
1.106501;-3.493554;0.881265;8.39567e-13;0;0;8.39567e-13;-1.110223e-16;2.220446e-16;-3.978216e-17;0;0;0;0;2.267303e-16;-1.15708e-16;1.712192e-16;45;0;2.282923e-16;2.011407e-16;-1.110223e-16;-4.115657e-17;-3.840775e-17;2.220446e-16;2.748815e-18;0.881265;1.110223e-16;-1.110223e-16;0
1.173667;-3.493554;0.851196;8.39567e-13;0;0;8.39567e-13;2.220446e-16;-1.110223e-16;-5.013922e-18;0;0;0;0;2.221201e-16;-1.110978e-16;1.666089e-16;45;0;2.221452e-16;1.959105e-16;2.220446e-16;3.556928e-17;-4.559712e-17;-1.110223e-16;-8.11664e-17;0.851196;1.110223e-16;-1.110223e-16;0
1.240832;-3.493554;0.811434;8.39567e-13;0;0;8.39567e-13;2.220446e-16;2.220446e-16;-2.250967e-17;0;0;0;0;2.445543e-16;1.995349e-16;2.250967e-17;45;0;3.00129e-17;1.502943e-16;2.220446e-16;-5.400298e-17;8.983639e-18;2.220446e-16;6.298662e-17;0.811434;4.440892e-16;-4.440892e-16;0
1.307997;-3.493554;0.769683;8.39567e-13;0;0;8.39567e-13;-2.220446e-16;-1.110223e-16;-2.339591e-17;0;0;0;0;-1.062935e-16;-2.267735e-16;6.023999e-17;45;0;8.031999e-17;1.310131e-16;-2.220446e-16;-2.963978e-17;-1.715204e-17;-1.110223e-16;1.248773e-17;0.769683;-3.330669e-16;3.330669e-16;0
1.375163;-3.493554;0.699565;8.39567e-13;0;0;8.39567e-13;2.220446e-16;0;5.064618e-17;0;0;0;0;2.330509e-16;-1.100633e-17;1.220286e-16;45;0;1.627048e-16;1.59163e-16;2.220446e-16;7.844216e-17;2.285019e-17;0;-5.559197e-17;0.699565;2.220446e-16;-2.220446e-16;0
1.442328;-3.493554;0.576958;8.39567e-13;0;0;8.39567e-13;-1.110223e-16;-1.110223e-16;-5.835109e-17;0;0;0;0;-5.267122e-17;-1.693734e-16;5.835109e-17;45;0;7.780145e-17;1.0009e-16;-1.110223e-16;-1.318505e-16;1.514828e-17;-1.110223e-16;1.469987e-16;0.576958;-2.220446e-16;2.220446e-16;0
1.509493;-3.493554;0.452539;8.39567e-13;0;0;8.39567e-13;0;-5.551115e-16;1.321857e-17;0;0;0;0;3.145884e-19;-5.554261e-16;2.778703e-16;45;0;3.704938e-16;3.70389e-16;0;6.232652e-17;-3.588937e-17;-5.551115e-16;-9.821589e-17;0.452539;-5.551115e-16;5.551115e-16;0
-0.303971;-3.560719;0.341947;8.39567e-13;0;0;8.39567e-13;-2.220446e-16;0;-3.472428e-17;0;0;0;0;5.30365e-18;-2.273482e-16;1.163259e-16;45;0;1.551013e-16;1.53364e-16;-2.220446e-16;-3.490316e-17;-3.45454e-17;0;3.577631e-19;0.341947;-2.220446e-16;2.220446e-16;0
-0.236806;-3.560719;0.460267;8.39567e-13;0;0;8.39567e-13;2.220446e-16;0;-1.807993e-17;0;0;0;0;2.235071e-16;-1.462521e-18;1.124848e-16;45;0;1.499798e-16;1.494946e-16;2.220446e-16;-3.615987e-17;0;0;3.615987e-17;0.460267;2.220446e-16;-2.220446e-16;0
-0.169641;-3.560719;0.535513;8.39567e-13;0;0;8.39567e-13;4.440892e-16;0;-3.686043e-17;0;0;0;0;4.471279e-16;-3.038707e-18;2.250833e-16;45;0;3.001111e-16;2.991033e-16;4.440892e-16;-4.454695e-17;-2.91739e-17;0;1.537305e-17;0.535513;4.440892e-16;-4.440892e-16;0
-0.102475;-3.560719;0.627376;8.39567e-13;0;0;8.39567e-13;0;2.220446e-16;-3.569388e-17;0;0;0;0;2.276413e-16;-5.596757e-18;1.166191e-16;45;0;1.554921e-16;1.536605e-16;0;-5.264912e-17;-1.873865e-17;2.220446e-16;3.391047e-17;0.627376;2.220446e-16;-2.220446e-16;0
-0.03531;-3.560719;0.713987;8.39567e-13;0;0;8.39567e-13;0;2.220446e-16;1.122303e-17;0;0;0;0;2.226104e-16;-5.658152e-19;1.115881e-16;45;0;1.487842e-16;1.485959e-16;0;1.492302e-17;7.523036e-18;2.220446e-16;-7.399984e-18;0.713987;2.220446e-16;-2.220446e-16;0
0.031855;-3.560719;0.751224;8.39567e-13;0;0;8.39567e-13;0;-1.110223e-16;-3.778962e-17;0;0;0;0;1.164198e-17;-1.226643e-16;6.715313e-17;45;0;8.953751e-17;8.592016e-17;0;-9.584599e-18;-6.599464e-17;-1.110223e-16;-5.641004e-17;0.751224;-1.110223e-16;1.110223e-16;0
0.099021;-3.560719;0.798797;8.39567e-13;0;0;8.39567e-13;-2.220446e-16;4.440892e-16;5.530514e-18;0;0;0;0;4.441351e-16;-2.220905e-16;3.331128e-16;45;0;4.441504e-16;3.917019e-16;-2.220446e-16;4.474568e-17;-3.368465e-17;4.440892e-16;-7.843032e-17;0.798797;2.220446e-16;-2.220446e-16;0
0.166186;-3.560719;0.846783;8.39567e-13;0;0;8.39567e-13;2.220446e-16;2.220446e-16;3.329409e-17;0;0;0;0;2.553387e-16;1.887505e-16;3.329409e-17;45;0;4.439212e-17;1.529405e-16;2.220446e-16;6.225523e-17;4.332946e-18;2.220446e-16;-5.792228e-17;0.846783;4.440892e-16;-4.440892e-16;0
0.233352;-3.560719;0.882718;8.39567e-13;0;0;8.39567e-13;2.220446e-16;-3.330669e-16;3.039612e-17;0;0;0;0;2.23704e-16;-3.347264e-16;2.792152e-16;45;0;3.722869e-16;3.245269e-16;2.220446e-16;5.157406e-17;9.218188e-18;-3.330669e-16;-4.235588e-17;0.882718;-1.110223e-16;1.110223e-16;0
0.300517;-3.560719;0.911861;8.39567e-13;0;0;8.39567e-13;0;0;3.844294e-18;0;0;0;0;3.844294e-18;-3.844294e-18;3.844294e-18;45;0;5.125725e-18;4.439008e-18;0;1.74357e-17;-9.747113e-18;0;-2.718281e-17;0.911861;0;0;0
0.367682;-3.560719;0.928887;8.39567e-13;0;0;8.39567e-13;-1.110223e-16;-1.110223e-16;3.999027e-18;0;0;0;0;-1.070233e-16;-1.150213e-16;3.999027e-18;45;0;5.332036e-18;7.415877e-17;-1.110223e-16;1.794736e-17;-9.949308e-18;-1.110223e-16;-2.789667e-17;0.928887;-2.220446e-16;2.220446e-16;0
0.434848;-3.560719;0.947449;8.39567e-13;0;0;8.39567e-13;2.220446e-16;2.220446e-16;1.524131e-17;0;0;0;0;2.372859e-16;2.068033e-16;1.524131e-17;45;0;2.032175e-17;1.490722e-16;2.220446e-16;4.555563e-17;-1.507301e-17;2.220446e-16;-6.062863e-17;0.947449;4.440892e-16;-4.440892e-16;0
0.502013;-3.560719;0.960237;8.39567e-13;0;0;8.39567e-13;2.220446e-16;-1.110223e-16;-3.46416e-17;0;0;0;0;2.256094e-16;-1.145871e-16;1.700983e-16;45;0;2.267977e-16;1.998686e-16;2.220446e-16;-1.917509e-17;-5.010811e-17;-1.110223e-16;-3.093301e-17;0.960237;1.110223e-16;-1.110223e-16;0
0.569178;-3.560719;0.984929;8.39567e-13;0;0;8.39567e-13;2.220446e-16;-3.330669e-16;1.795587e-17;0;0;0;0;2.226248e-16;-3.336471e-16;2.781359e-16;45;0;3.708479e-16;3.232889e-16;2.220446e-16;3.591174e-17;0;-3.330669e-16;-3.591174e-17;0.984929;-1.110223e-16;1.110223e-16;0
0.636344;-3.560719;0.988041;8.39567e-13;0;0;8.39567e-13;-1.110223e-16;0;-9.120276e-18;0;0;0;0;7.442249e-19;-1.117665e-16;5.625538e-17;45;0;7.500717e-17;7.476033e-17;-1.110223e-16;-1.566184e-17;-2.578714e-18;0;1.308312e-17;0.988041;-1.110223e-16;1.110223e-16;0
0.703509;-3.560719;0.975207;8.39567e-13;0;0;8.39567e-13;0;0;-1.416451e-18;0;0;0;0;1.416451e-18;-1.416451e-18;1.416451e-18;45;0;1.888601e-18;1.635576e-18;0;2.644073e-17;-2.927363e-17;0;-5.571435e-17;0.975207;0;0;0
0.770674;-3.560719;0.959613;8.39567e-13;0;0;8.39567e-13;-1.110223e-16;-3.330669e-16;-2.376154e-18;0;0;0;0;-1.109969e-16;-3.330923e-16;1.110477e-16;45;0;1.480636e-16;1.958442e-16;-1.110223e-16;-7.254271e-18;2.501962e-18;-3.330669e-16;9.756232e-18;0.959613;-4.440892e-16;4.440892e-16;0
0.83784;-3.560719;0.936748;8.39567e-13;0;0;8.39567e-13;-1.110223e-16;-3.330669e-16;1.020777e-17;0;0;0;0;-1.10554e-16;-3.335352e-16;1.114906e-16;45;0;1.486541e-16;1.961793e-16;-1.110223e-16;2.298209e-17;-2.566538e-18;-3.330669e-16;-2.554862e-17;0.936748;-4.440892e-16;4.440892e-16;0
0.905005;-3.560719;0.943425;8.39567e-13;0;0;8.39567e-13;2.220446e-16;0;1.414993e-17;0;0;0;0;2.229427e-16;-8.980812e-19;1.119204e-16;45;0;1.492272e-16;1.489287e-16;2.220446e-16;-2.008284e-17;4.83827e-17;0;6.846554e-17;0.943425;2.220446e-16;-2.220446e-16;0
0.97217;-3.560719;0.913301;8.39567e-13;0;0;8.39567e-13;0;2.220446e-16;-8.848428e-18;0;0;0;0;2.223967e-16;-3.520497e-19;1.113744e-16;45;0;1.484991e-16;1.483819e-16;0;-1.304178e-17;-4.655079e-18;2.220446e-16;8.386697e-18;0.913301;2.220446e-16;-2.220446e-16;0
1.039336;-3.560719;0.878783;8.39567e-13;0;0;8.39567e-13;0;-1.110223e-16;8.783972e-18;0;0;0;0;6.906821e-19;-1.11713e-16;5.620183e-17;45;0;7.493578e-17;7.470661e-17;0;4.970784e-17;-3.213989e-17;-1.110223e-16;-8.184773e-17;0.878783;-1.110223e-16;1.110223e-16;0
1.106501;-3.560719;0.84816;8.39567e-13;0;0;8.39567e-13;2.220446e-16;0;9.044579e-18;0;0;0;0;2.224124e-16;-3.678051e-19;1.113901e-16;45;0;1.485201e-16;1.483977e-16;2.220446e-16;-2.90741e-19;1.83799e-17;0;1.867064e-17;0.84816;2.220446e-16;-2.220446e-16;0
1.173667;-3.560719;0.803008;8.39567e-13;0;0;8.39567e-13;0;0;1.387797e-17;0;0;0;0;1.387797e-17;-1.387797e-17;1.387797e-17;45;0;1.850397e-17;1.602491e-17;0;8.114217e-18;1.964173e-17;0;1.152752e-17;0.803008;0;0;0
1.240832;-3.560719;0.801384;8.39567e-13;0;0;8.39567e-13;2.220446e-16;0;-1.078141e-17;0;0;0;0;2.225669e-16;-5.222643e-19;1.115446e-16;45;0;1.487261e-16;1.485523e-16;2.220446e-16;-2.453183e-18;-1.910963e-17;0;-1.665645e-17;0.801384;2.220446e-16;-2.220446e-16;0
1.307997;-3.560719;0.757769;8.39567e-13;0;0;8.39567e-13;2.220446e-16;2.220446e-16;-2.847952e-17;0;0;0;0;2.505241e-16;1.935651e-16;2.847952e-17;45;0;3.79727e-17;1.516385e-16;2.220446e-16;-5.695905e-17;0;2.220446e-16;5.695905e-17;0.757769;4.440892e-16;-4.440892e-16;0
1.375163;-3.560719;0.669333;8.39567e-13;0;0;8.39567e-13;0;2.220446e-16;-4.896884e-18;0;0;0;0;2.221525e-16;-1.079415e-19;1.111302e-16;45;0;1.481737e-16;1.481377e-16;0;1.534636e-18;-1.13284e-17;2.220446e-16;-1.286304e-17;0.669333;2.220446e-16;-2.220446e-16;0
1.442328;-3.560719;0.554052;8.39567e-13;0;0;8.39567e-13;0;0;-1.91529e-17;0;0;0;0;1.91529e-17;-1.91529e-17;1.91529e-17;45;0;2.55372e-17;2.211587e-17;0;-2.00832e-17;-1.822261e-17;0;1.860592e-18;0.554052;0;0;0
1.509493;-3.560719;0.437708;8.39567e-13;0;0;8.39567e-13;-4.440892e-16;0;3.087352e-17;0;0;0;0;2.136084e-18;-4.462253e-16;2.241807e-16;45;0;2.989076e-16;2.981981e-16;-4.440892e-16;6.174705e-17;0;0;-6.174705e-17;0.437708;-4.440892e-16;4.440892e-16;0
-0.303971;-3.627884;0.34296;8.39567e-13;0;0;8.39567e-13;0;2.220446e-16;3.246052e-18;0;0;0;0;2.22092e-16;-4.744363e-20;1.110697e-16;45;0;1.48093e-16;1.480772e-16;0;3.307667e-17;-2.658457e-17;2.220446e-16;-5.966124e-17;0.34296;2.220446e-16;-2.220446e-16;0
-0.236806;-3.627884;0.446925;8.39567e-13;0;0;8.39567e-13;-2.220446e-16;0;9.128285e-18;0;0;0;0;3.74633e-19;-2.224192e-16;1.113969e-16;45;0;1.485293e-16;1.484045e-16;-2.220446e-16;1.825657e-17;0;0;-1.825657e-17;0.446925;-2.220446e-16;2.220446e-16;0
-0.169641;-3.627884;0.538713;8.39567e-13;0;0;8.39567e-13;-3.330669e-16;2.220446e-16;-1.983768e-17;0;0;0;0;2.227526e-16;-3.337749e-16;2.782638e-16;45;0;3.710184e-16;3.234355e-16;-3.330669e-16;-7.535903e-17;3.568366e-17;2.220446e-16;1.110427e-16;0.538713;-1.110223e-16;1.110223e-16;0
-0.102475;-3.627884;0.645426;8.39567e-13;0;0;8.39567e-13;-2.220446e-16;2.220446e-16;-4.36836e-17;0;0;0;0;2.263008e-16;-2.263008e-16;2.263008e-16;45;0;3.017344e-16;2.613097e-16;-2.220446e-16;-9.975974e-17;1.239254e-17;2.220446e-16;1.121523e-16;0.645426;0;0;0
-0.03531;-3.627884;0.729025;8.39567e-13;0;0;8.39567e-13;2.220446e-16;2.220446e-16;-4.117775e-18;0;0;0;0;2.261624e-16;2.179268e-16;4.117775e-18;45;0;5.490367e-18;1.481061e-16;2.220446e-16;-1.615673e-17;7.921182e-18;2.220446e-16;2.407791e-17;0.729025;4.440892e-16;-4.440892e-16;0
0.031855;-3.627884;0.740547;8.39567e-13;0;0;8.39567e-13;0;0;-2.251427e-17;0;0;0;0;2.251427e-17;-2.251427e-17;2.251427e-17;45;0;3.001902e-17;2.599724e-17;0;-5.548376e-17;1.045522e-17;0;6.593898e-17;0.740547;0;0;0
0.099021;-3.627884;0.780836;8.39567e-13;0;0;8.39567e-13;0;0;7.059809e-18;0;0;0;0;7.059809e-18;-7.059809e-18;7.059809e-18;45;0;9.413078e-18;8.151964e-18;0;1.828462e-17;-4.165007e-18;0;-2.244963e-17;0.780836;0;0;0
0.166186;-3.627884;0.84701;8.39567e-13;0;0;8.39567e-13;2.220446e-16;0;4.851084e-18;0;0;0;0;2.221505e-16;-1.059327e-19;1.111282e-16;45;0;1.48171e-16;1.481357e-16;2.220446e-16;1.447625e-18;8.254543e-18;0;6.806918e-18;0.84701;2.220446e-16;-2.220446e-16;0
0.233352;-3.627884;0.899142;8.39567e-13;0;0;8.39567e-13;0;0;-2.556925e-17;0;0;0;0;2.556925e-17;-2.556925e-17;2.556925e-17;45;0;3.409234e-17;2.952483e-17;0;-1.56885e-17;-3.545e-17;0;-1.97615e-17;0.899142;0;0;0
0.300517;-3.627884;0.923816;8.39567e-13;0;0;8.39567e-13;-1.110223e-16;2.220446e-16;-4.928728e-17;0;0;0;0;2.291851e-16;-1.181628e-16;1.736739e-16;45;0;2.315652e-16;2.039274e-16;-1.110223e-16;-4.734303e-17;-5.123153e-17;2.220446e-16;-3.888499e-18;0.923816;1.110223e-16;-1.110223e-16;0
0.367682;-3.627884;0.935519;8.39567e-13;0;0;8.39567e-13;2.220446e-16;2.220446e-16;2.581763e-18;0;0;0;0;2.246264e-16;2.194628e-16;2.581763e-18;45;0;3.44235e-18;1.480598e-16;2.220446e-16;1.447846e-18;3.715679e-18;2.220446e-16;2.267833e-18;0.935519;4.440892e-16;-4.440892e-16;0
0.434848;-3.627884;0.96122;8.39567e-13;0;0;8.39567e-13;0;2.220446e-16;2.426798e-17;0;0;0;0;2.24666e-16;-2.621379e-18;1.136437e-16;45;0;1.515249e-16;1.506587e-16;0;5.223338e-17;-3.697423e-18;2.220446e-16;-5.59308e-17;0.96122;2.220446e-16;-2.220446e-16;0
0.502013;-3.627884;0.976235;8.39567e-13;0;0;8.39567e-13;0;0;1.14603e-17;0;0;0;0;1.14603e-17;-1.14603e-17;1.14603e-17;45;0;1.52804e-17;1.323321e-17;0;-1.95548e-18;2.487608e-17;0;2.683156e-17;0.976235;0;0;0
0.569178;-3.627884;1.002654;8.39567e-13;0;0;8.39567e-13;0;2.220446e-16;2.574388e-18;0;0;0;0;2.220744e-16;-2.984347e-20;1.110521e-16;45;0;1.480695e-16;1.480596e-16;0;2.274502e-18;2.874274e-18;2.220446e-16;5.997723e-19;1.002654;2.220446e-16;-2.220446e-16;0
0.636344;-3.627884;0.995715;8.39567e-13;0;0;8.39567e-13;2.220446e-16;-1.110223e-16;9.275944e-18;0;0;0;0;2.223027e-16;-1.112804e-16;1.667916e-16;45;0;2.223888e-16;1.961176e-16;2.220446e-16;2.039311e-18;1.651258e-17;-1.110223e-16;1.447327e-17;0.995715;1.110223e-16;-1.110223e-16;0
0.703509;-3.627884;0.968853;8.39567e-13;0;0;8.39567e-13;-1.110223e-16;0;6.578584e-18;0;0;0;0;3.884524e-19;-1.114108e-16;5.58996e-17;45;0;7.45328e-17;7.440366e-17;-1.110223e-16;-4.679828e-18;1.7837e-17;0;2.251682e-17;0.968853;-1.110223e-16;1.110223e-16;0
0.770674;-3.627884;0.966184;8.39567e-13;0;0;8.39567e-13;-1.110223e-16;0;1.245159e-17;0;0;0;0;1.379358e-18;-1.124017e-16;5.689051e-17;45;0;7.585401e-17;7.539843e-17;-1.110223e-16;-6.568531e-19;2.556003e-17;0;2.621689e-17;0.966184;-1.110223e-16;1.110223e-16;0
0.83784;-3.627884;0.958934;8.39567e-13;0;0;8.39567e-13;0;-1.110223e-16;1.309372e-17;0;0;0;0;1.523341e-18;-1.125456e-16;5.703449e-17;45;0;7.604599e-17;7.554333e-17;0;3.641514e-17;-1.02277e-17;-1.110223e-16;-4.664284e-17;0.958934;-1.110223e-16;1.110223e-16;0
0.905005;-3.627884;0.952978;8.39567e-13;0;0;8.39567e-13;2.220446e-16;0;-2.372844e-17;0;0;0;0;2.24552e-16;-2.507388e-18;1.135297e-16;45;0;1.513729e-16;1.505441e-16;2.220446e-16;-1.72287e-17;-3.022817e-17;0;-1.299947e-17;0.952978;2.220446e-16;-2.220446e-16;0
0.97217;-3.627884;0.93402;8.39567e-13;0;0;8.39567e-13;0;-1.110223e-16;-4.691048e-17;0;0;0;0;1.716677e-17;-1.281891e-16;7.267793e-17;45;0;9.69039e-17;9.171873e-17;0;-4.26594e-17;-5.116155e-17;-1.110223e-16;-8.502155e-18;0.93402;-1.110223e-16;1.110223e-16;0
1.039336;-3.627884;0.886286;8.39567e-13;0;0;8.39567e-13;-5.551115e-16;0;4.973593e-17;0;0;0;0;4.420946e-18;-5.595324e-16;2.819767e-16;45;0;3.759689e-16;3.74504e-16;-5.551115e-16;6.503818e-17;3.443368e-17;0;-3.06045e-17;0.886286;-5.551115e-16;5.551115e-16;0
1.106501;-3.627884;0.826891;8.39567e-13;0;0;8.39567e-13;0;0;7.369855e-18;0;0;0;0;7.369855e-18;-7.369855e-18;7.369855e-18;45;0;9.826473e-18;8.509975e-18;0;-3.208948e-18;1.794866e-17;0;2.11576e-17;0.826891;0;0;0
1.173667;-3.627884;0.815681;8.39567e-13;0;0;8.39567e-13;0;0;4.281377e-17;0;0;0;0;4.281377e-17;-4.281377e-17;4.281377e-17;45;0;5.708502e-17;4.943708e-17;0;4.425274e-17;4.137479e-17;0;-2.877947e-18;0.815681;0;0;0
1.240832;-3.627884;0.84539;8.39567e-13;0;0;8.39567e-13;0;-1.110223e-16;-1.295286e-17;0;0;0;0;1.491168e-18;-1.125135e-16;5.700232e-17;45;0;7.60031e-17;7.551094e-17;0;1.178568e-17;-3.769139e-17;-1.110223e-16;-4.947707e-17;0.84539;-1.110223e-16;1.110223e-16;0
1.307997;-3.627884;0.784386;8.39567e-13;0;0;8.39567e-13;0;0;-1.417015e-17;0;0;0;0;1.417015e-17;-1.417015e-17;1.417015e-17;45;0;1.889354e-17;1.636228e-17;0;-3.483471e-17;6.494401e-18;0;4.132911e-17;0.784386;0;0;0
1.375163;-3.627884;0.677161;8.39567e-13;0;0;8.39567e-13;2.220446e-16;-1.110223e-16;3.65798e-17;0;0;0;0;2.260147e-16;-1.149924e-16;1.705036e-16;45;0;2.273381e-16;2.003285e-16;2.220446e-16;4.176989e-17;3.13897e-17;-1.110223e-16;-1.038019e-17;0.677161;1.110223e-16;-1.110223e-16;0
1.442328;-3.627884;0.57691;8.39567e-13;0;0;8.39567e-13;-3.330669e-16;0;1.388065e-17;0;0;0;0;5.774782e-19;-3.336444e-16;1.671109e-16;45;0;2.228146e-16;2.226223e-16;-3.330669e-16;3.913869e-17;-1.137739e-17;0;-5.051608e-17;0.57691;-3.330669e-16;3.330669e-16;0
1.509493;-3.627884;0.486669;8.39567e-13;0;0;8.39567e-13;2.220446e-16;-2.220446e-16;-4.791781e-17;0;0;0;0;2.271562e-16;-2.271562e-16;2.271562e-16;45;0;3.028749e-16;2.622974e-16;2.220446e-16;-3.070559e-17;-6.513004e-17;-2.220446e-16;-3.442445e-17;0.486669;0;0;0
-0.303971;-3.69505;0.33251;8.39567e-13;0;0;8.39567e-13;6.661338e-16;4.440892e-16;-4.107615e-17;0;0;0;0;6.734889e-16;4.367341e-16;1.183774e-16;45;0;1.578365e-16;3.945114e-16;6.661338e-16;-7.915371e-17;-2.998608e-18;4.440892e-16;7.61551e-17;0.33251;1.110223e-15;-1.110223e-15;0
-0.236806;-3.69505;0.487416;8.39567e-13;0;0;8.39567e-13;-3.330669e-16;0;-1.972012e-17;0;0;0;0;1.163518e-18;-3.342304e-16;1.67697e-16;45;0;2.23596e-16;2.232091e-16;-3.330669e-16;-8.822145e-17;4.87812e-17;0;1.370027e-16;0.487416;-3.330669e-16;3.330669e-16;0
-0.169641;-3.69505;0.586101;8.39567e-13;0;0;8.39567e-13;-2.220446e-16;2.220446e-16;4.160825e-19;0;0;0;0;2.22045e-16;-2.22045e-16;2.22045e-16;45;0;2.9606e-16;2.563955e-16;-2.220446e-16;-2.383802e-17;2.467018e-17;2.220446e-16;4.85082e-17;0.586101;0;0;0
-0.102475;-3.69505;0.654302;8.39567e-13;0;0;8.39567e-13;0;0;-3.857988e-18;0;0;0;0;3.857988e-18;-3.857988e-18;3.857988e-18;45;0;5.143984e-18;4.454821e-18;0;-3.538741e-17;2.767143e-17;0;6.305884e-17;0.654302;0;0;0
-0.03531;-3.69505;0.726432;8.39567e-13;0;0;8.39567e-13;2.220446e-16;0;7.78027e-18;0;0;0;0;2.223169e-16;-2.722807e-19;1.112946e-16;45;0;1.483928e-16;1.483021e-16;2.220446e-16;1.350885e-17;2.051687e-18;0;-1.145716e-17;0.726432;2.220446e-16;-2.220446e-16;0
0.031855;-3.69505;0.754805;8.39567e-13;0;0;8.39567e-13;0;0;-4.15437e-17;0;0;0;0;4.15437e-17;-4.15437e-17;4.15437e-17;45;0;5.53916e-17;4.797053e-17;0;-3.716102e-17;-4.592638e-17;0;-8.765362e-18;0.754805;0;0;0
0.099021;-3.69505;0.794263;8.39567e-13;0;0;8.39567e-13;0;0;-2.098557e-18;0;0;0;0;2.098557e-18;-2.098557e-18;2.098557e-18;45;0;2.798077e-18;2.423206e-18;0;9.049e-18;-1.324612e-17;0;-2.229512e-17;0.794263;0;0;0
0.166186;-3.69505;0.826197;8.39567e-13;0;0;8.39567e-13;0;0;-1.501191e-17;0;0;0;0;1.501191e-17;-1.501191e-17;1.501191e-17;45;0;2.001588e-17;1.733426e-17;0;-3.900988e-17;8.986054e-18;0;4.799593e-17;0.826197;0;0;0
0.233352;-3.69505;0.861177;8.39567e-13;0;0;8.39567e-13;0;-1.110223e-16;-3.894644e-17;0;0;0;0;1.229971e-17;-1.23322e-16;6.781086e-17;45;0;9.041448e-17;8.66062e-17;0;-7.789287e-17;0;-1.110223e-16;7.789287e-17;0.861177;-1.110223e-16;1.110223e-16;0
0.300517;-3.69505;0.905663;8.39567e-13;0;0;8.39567e-13;2.220446e-16;-1.110223e-16;-3.672181e-18;0;0;0;0;2.220851e-16;-1.110628e-16;1.665739e-16;45;0;2.220986e-16;1.958708e-16;2.220446e-16;2.088028e-17;-2.822465e-17;-1.110223e-16;-4.910493e-17;0.905663;1.110223e-16;-1.110223e-16;0
0.367682;-3.69505;0.923267;8.39567e-13;0;0;8.39567e-13;-1.110223e-16;0;2.406892e-18;0;0;0;0;5.215536e-20;-1.110745e-16;5.55633e-17;45;0;7.408441e-17;7.406703e-17;-1.110223e-16;2.941663e-17;-2.460285e-17;0;-5.401948e-17;0.923267;-1.110223e-16;1.110223e-16;0
0.434848;-3.69505;0.952771;8.39567e-13;0;0;8.39567e-13;-3.330669e-16;2.220446e-16;-2.300048e-17;0;0;0;0;2.22996e-16;-3.340183e-16;2.785071e-16;45;0;3.713428e-16;3.237147e-16;-3.330669e-16;-2.292824e-18;-4.370814e-17;2.220446e-16;-4.141532e-17;0.952771;-1.110223e-16;1.110223e-16;0
0.502013;-3.69505;0.975282;8.39567e-13;0;0;8.39567e-13;2.220446e-16;0;5.524299e-17;0;0;0;0;2.350293e-16;-1.298471e-17;1.24007e-16;45;0;1.653427e-16;1.611889e-16;2.220446e-16;4.991982e-17;6.056614e-17;0;1.064632e-17;0.975282;2.220446e-16;-2.220446e-16;0
0.569178;-3.69505;0.978338;8.39567e-13;0;0;8.39567e-13;0;0;-6.617115e-18;0;0;0;0;6.617115e-18;-6.617115e-18;6.617115e-18;45;0;8.822819e-18;7.640786e-18;0;-2.096333e-17;7.729105e-18;0;2.869244e-17;0.978338;0;0;0
0.636344;-3.69505;0.981574;8.39567e-13;0;0;8.39567e-13;2.220446e-16;0;2.412388e-17;0;0;0;0;2.246353e-16;-2.590694e-18;1.13613e-16;45;0;1.51484e-16;1.506279e-16;2.220446e-16;-2.193681e-17;7.018455e-17;0;9.212136e-17;0.981574;2.220446e-16;-2.220446e-16;0
0.703509;-3.69505;0.993829;8.39567e-13;0;0;8.39567e-13;-4.440892e-16;2.220446e-16;1.788431e-17;0;0;0;0;2.225244e-16;-4.44569e-16;3.335467e-16;45;0;4.44729e-16;3.921939e-16;-4.440892e-16;2.640615e-17;9.362475e-18;2.220446e-16;-1.704367e-17;0.993829;-2.220446e-16;2.220446e-16;0
0.770674;-3.69505;0.985374;8.39567e-13;0;0;8.39567e-13;2.220446e-16;-1.110223e-16;-2.010908e-17;0;0;0;0;2.232543e-16;-1.12232e-16;1.677431e-16;45;0;2.236575e-16;1.971968e-16;2.220446e-16;-4.53078e-17;5.08964e-18;-1.110223e-16;5.039744e-17;0.985374;1.110223e-16;-1.110223e-16;0
0.83784;-3.69505;0.971358;8.39567e-13;0;0;8.39567e-13;2.220446e-16;-3.330669e-16;-3.062371e-18;0;0;0;0;2.220615e-16;-3.330838e-16;2.775726e-16;45;0;3.700969e-16;3.226427e-16;2.220446e-16;-2.87709e-17;2.264616e-17;-3.330669e-16;5.141706e-17;0.971358;-1.110223e-16;1.110223e-16;0
0.905005;-3.69505;0.951061;8.39567e-13;0;0;8.39567e-13;0;0;3.446922e-18;0;0;0;0;3.446922e-18;-3.446922e-18;3.446922e-18;45;0;4.595896e-18;3.980163e-18;0;-1.092528e-17;1.781912e-17;0;2.874439e-17;0.951061;0;0;0
0.97217;-3.69505;0.92447;8.39567e-13;0;0;8.39567e-13;2.220446e-16;0;2.061808e-18;0;0;0;0;2.220637e-16;-1.914338e-20;1.110414e-16;45;0;1.480553e-16;1.480489e-16;2.220446e-16;2.073737e-17;-1.661376e-17;0;-3.735113e-17;0.92447;2.220446e-16;-2.220446e-16;0
1.039336;-3.69505;0.899972;8.39567e-13;0;0;8.39567e-13;-3.330669e-16;-1.110223e-16;3.198094e-17;0;0;0;0;-1.065079e-16;-3.375813e-16;1.155367e-16;45;0;1.54049e-16;1.992765e-16;-3.330669e-16;3.908906e-17;2.487283e-17;-1.110223e-16;-1.421622e-17;0.899972;-4.440892e-16;4.440892e-16;0
1.106501;-3.69505;0.859792;8.39567e-13;0;0;8.39567e-13;-3.330669e-16;2.220446e-16;-2.053663e-17;0;0;0;0;2.228033e-16;-3.338256e-16;2.783145e-16;45;0;3.71086e-16;3.234937e-16;-3.330669e-16;-1.311987e-17;-2.795339e-17;2.220446e-16;-1.483352e-17;0.859792;-1.110223e-16;1.110223e-16;0
1.173667;-3.69505;0.839776;8.39567e-13;0;0;8.39567e-13;0;2.220446e-16;9.696333e-18;0;0;0;0;2.224672e-16;-4.22619e-19;1.114449e-16;45;0;1.485932e-16;1.484526e-16;0;5.939232e-18;1.345343e-17;2.220446e-16;7.5142e-18;0.839776;2.220446e-16;-2.220446e-16;0
1.240832;-3.69505;0.829674;8.39567e-13;0;0;8.39567e-13;0;0;3.085691e-17;0;0;0;0;3.085691e-17;-3.085691e-17;3.085691e-17;45;0;4.114255e-17;3.563049e-17;0;4.36695e-17;1.804432e-17;0;-2.562519e-17;0.829674;0;0;0
1.307997;-3.69505;0.766522;8.39567e-13;0;0;8.39567e-13;-1.110223e-16;0;-2.364791e-17;0;0;0;0;4.82716e-18;-1.158495e-16;6.033831e-17;45;0;8.045108e-17;7.889127e-17;-1.110223e-16;-5.444072e-17;7.14489e-18;0;6.158561e-17;0.766522;-1.110223e-16;1.110223e-16;0
1.375163;-3.69505;0.677898;8.39567e-13;0;0;8.39567e-13;0;-1.110223e-16;1.645622e-17;0;0;0;0;2.387857e-18;-1.134102e-16;5.789901e-17;45;0;7.719868e-17;7.641516e-17;0;2.686812e-17;6.044318e-18;-1.110223e-16;-2.082381e-17;0.677898;-1.110223e-16;1.110223e-16;0
1.442328;-3.69505;0.581107;8.39567e-13;0;0;8.39567e-13;2.220446e-16;-1.110223e-16;2.830972e-17;0;0;0;0;2.244337e-16;-1.134114e-16;1.689226e-16;45;0;2.252301e-16;1.985346e-16;2.220446e-16;2.866974e-17;2.79497e-17;-1.110223e-16;-7.200314e-19;0.581107;1.110223e-16;-1.110223e-16;0
1.509493;-3.69505;0.481266;8.39567e-13;0;0;8.39567e-13;-2.220446e-16;0;-4.707033e-17;0;0;0;0;9.566121e-18;-2.316107e-16;1.205884e-16;45;0;1.607846e-16;1.576926e-16;-2.220446e-16;-1.074939e-16;1.335319e-17;0;1.208471e-16;0.481266;-2.220446e-16;2.220446e-16;0
1.576659;-3.69505;0.428595;8.39567e-13;0;0;8.39567e-13;6.661338e-16;0;2.356028e-16;0;0;0;0;7.410402e-16;-7.490642e-17;4.079733e-16;45;0;5.439645e-16;5.207944e-16;6.661338e-16;4.252338e-16;4.597177e-17;0;-3.79262e-16;0.428595;6.661338e-16;-6.661338e-16;0
-0.303971;-3.762215;0.341587;8.39567e-13;0;0;8.39567e-13;6.661338e-16;0;5.301045e-17;0;0;0;0;6.70326e-16;-4.192151e-18;3.372591e-16;45;0;4.496787e-16;4.482879e-16;6.661338e-16;1.119161e-16;-5.895229e-18;0;-1.178114e-16;0.341587;6.661338e-16;-6.661338e-16;0
-0.236806;-3.762215;0.497203;8.39567e-13;0;0;8.39567e-13;0;0;-2.743322e-17;0;0;0;0;2.743322e-17;-2.743322e-17;2.743322e-17;45;0;3.657762e-17;3.167715e-17;0;-4.525593e-17;-9.610496e-18;0;3.564544e-17;0.497203;0;0;0
-0.169641;-3.762215;0.595784;8.39567e-13;0;0;8.39567e-13;0;-1.110223e-16;1.735217e-17;0;0;0;0;2.648851e-18;-1.136712e-16;5.816e-17;45;0;7.754667e-17;7.667897e-17;0;-4.81895e-18;3.95233e-17;-1.110223e-16;4.434225e-17;0.595784;-1.110223e-16;1.110223e-16;0
-0.102475;-3.762215;0.654251;8.39567e-13;0;0;8.39567e-13;-1.110223e-16;0;-4.225002e-17;0;0;0;0;1.424953e-17;-1.252718e-16;6.976068e-17;45;0;9.301424e-17;8.864698e-17;-1.110223e-16;-7.7027e-17;-7.473047e-18;0;6.955395e-17;0.654251;-1.110223e-16;1.110223e-16;0
-0.03531;-3.762215;0.715447;8.39567e-13;0;0;8.39567e-13;-1.110223e-16;-1.110223e-16;-2.000819e-17;0;0;0;0;-9.101411e-17;-1.310305e-16;2.000819e-17;45;0;2.667759e-17;7.75369e-17;-1.110223e-16;-4.821881e-17;8.202423e-18;-1.110223e-16;5.642124e-17;0.715447;-2.220446e-16;2.220446e-16;0
0.031855;-3.762215;0.747924;8.39567e-13;0;0;8.39567e-13;-1.110223e-16;2.220446e-16;2.830399e-17;0;0;0;0;2.244328e-16;-1.134104e-16;1.689216e-16;45;0;2.252288e-16;1.985335e-16;-1.110223e-16;3.493975e-17;2.166823e-17;2.220446e-16;-1.327152e-17;0.747924;1.110223e-16;-1.110223e-16;0
0.099021;-3.762215;0.801706;8.39567e-13;0;0;8.39567e-13;2.220446e-16;0;1.311125e-17;0;0;0;0;2.228161e-16;-7.7151e-19;1.117938e-16;45;0;1.490584e-16;1.488019e-16;2.220446e-16;3.507558e-17;-8.853078e-18;0;-4.392866e-17;0.801706;2.220446e-16;-2.220446e-16;0
0.166186;-3.762215;0.825501;8.39567e-13;0;0;8.39567e-13;-1.110223e-16;0;-1.572386e-17;0;0;0;0;2.183975e-18;-1.132063e-16;5.769513e-17;45;0;7.692684e-17;7.620927e-17;-1.110223e-16;-1.240832e-17;-1.903939e-17;0;-6.631078e-18;0.825501;-1.110223e-16;1.110223e-16;0
0.233352;-3.762215;0.849128;8.39567e-13;0;0;8.39567e-13;-1.110223e-16;2.220446e-16;7.227613e-18;0;0;0;0;2.222014e-16;-1.111791e-16;1.666902e-16;45;0;2.222536e-16;1.960027e-16;-1.110223e-16;-7.88161e-18;2.233684e-17;2.220446e-16;3.021845e-17;0.849128;1.110223e-16;-1.110223e-16;0
0.300517;-3.762215;0.907097;8.39567e-13;0;0;8.39567e-13;4.440892e-16;0;7.593456e-18;0;0;0;0;4.44219e-16;-1.298021e-19;2.221744e-16;45;0;2.962325e-16;2.961893e-16;4.440892e-16;1.751672e-17;-2.329808e-18;0;-1.984653e-17;0.907097;4.440892e-16;-4.440892e-16;0
0.367682;-3.762215;0.923226;8.39567e-13;0;0;8.39567e-13;0;0;1.594916e-17;0;0;0;0;1.594916e-17;-1.594916e-17;1.594916e-17;45;0;2.126554e-17;1.84165e-17;0;2.694655e-17;4.951767e-18;0;-2.199478e-17;0.923226;0;0;0
0.434848;-3.762215;0.94268;8.39567e-13;0;0;8.39567e-13;2.220446e-16;2.220446e-16;3.751512e-17;0;0;0;0;2.595597e-16;1.845295e-16;3.751512e-17;45;0;5.002015e-17;1.542379e-16;2.220446e-16;5.586168e-17;1.916855e-17;2.220446e-16;-3.669313e-17;0.94268;4.440892e-16;-4.440892e-16;0
0.502013;-3.762215;0.970285;8.39567e-13;0;0;8.39567e-13;0;-3.330669e-16;-8.493904e-18;0;0;0;0;2.164717e-19;-3.332834e-16;1.667499e-16;45;0;2.223332e-16;2.222611e-16;0;-4.042e-17;2.343219e-17;-3.330669e-16;6.38522e-17;0.970285;-3.330669e-16;3.330669e-16;0
0.569178;-3.762215;0.965971;8.39567e-13;0;0;8.39567e-13;2.220446e-16;-1.110223e-16;-3.722981e-17;0;0;0;0;2.261554e-16;-1.151331e-16;1.706442e-16;45;0;2.275256e-16;2.004881e-16;2.220446e-16;-3.534181e-17;-3.911782e-17;-1.110223e-16;-3.776005e-18;0.965971;1.110223e-16;-1.110223e-16;0
0.636344;-3.762215;0.975651;8.39567e-13;0;0;8.39567e-13;-1.110223e-16;0;-3.707451e-17;0;0;0;0;1.124218e-17;-1.222645e-16;6.675333e-17;45;0;8.900444e-17;8.550376e-17;-1.110223e-16;-5.768496e-17;-1.646407e-17;0;4.122088e-17;0.975651;-1.110223e-16;1.110223e-16;0
0.703509;-3.762215;1.006056;8.39567e-13;0;0;8.39567e-13;-1.110223e-16;-1.110223e-16;-2.15479e-17;0;0;0;0;-8.94744e-17;-1.325702e-16;2.15479e-17;45;0;2.873053e-17;7.80851e-17;-1.110223e-16;-3.40687e-17;-9.027103e-18;-1.110223e-16;2.504159e-17;1.006056;-2.220446e-16;2.220446e-16;0
0.770674;-3.762215;0.992262;8.39567e-13;0;0;8.39567e-13;2.220446e-16;-1.110223e-16;3.086102e-17;0;0;0;0;2.2488e-16;-1.138577e-16;1.693688e-16;45;0;2.258251e-16;1.990409e-16;2.220446e-16;5.163475e-17;1.008729e-17;-1.110223e-16;-4.154746e-17;0.992262;1.110223e-16;-1.110223e-16;0
0.83784;-3.762215;0.97047;8.39567e-13;0;0;8.39567e-13;2.220446e-16;0;1.277682e-17;0;0;0;0;2.227774e-16;-7.327818e-19;1.117551e-16;45;0;1.490068e-16;1.487631e-16;2.220446e-16;1.048963e-17;1.506402e-17;0;4.574392e-18;0.97047;2.220446e-16;-2.220446e-16;0
0.905005;-3.762215;0.952616;8.39567e-13;0;0;8.39567e-13;2.220446e-16;-1.110223e-16;6.399223e-18;0;0;0;0;2.221675e-16;-1.111452e-16;1.666564e-16;45;0;2.222085e-16;1.959643e-16;2.220446e-16;-9.385773e-18;2.218422e-17;-1.110223e-16;3.156999e-17;0.952616;1.110223e-16;-1.110223e-16;0
0.97217;-3.762215;0.918177;8.39567e-13;0;0;8.39567e-13;2.220446e-16;0;-6.196787e-18;0;0;0;0;2.222174e-16;-1.728045e-19;1.111951e-16;45;0;1.482601e-16;1.482026e-16;2.220446e-16;-1.710769e-17;4.714113e-18;0;2.18218e-17;0.918177;2.220446e-16;-2.220446e-16;0
1.039336;-3.762215;0.889328;8.39567e-13;0;0;8.39567e-13;0;0;-2.385567e-17;0;0;0;0;2.385567e-17;-2.385567e-17;2.385567e-17;45;0;3.180755e-17;2.754615e-17;0;5.122201e-18;-5.283353e-17;0;-5.795573e-17;0.889328;0;0;0
1.106501;-3.762215;0.862995;8.39567e-13;0;0;8.39567e-13;0;2.220446e-16;-1.509767e-17;0;0;0;0;2.230664e-16;-1.021846e-18;1.120441e-16;45;0;1.493922e-16;1.490527e-16;0;-3.019533e-17;0;2.220446e-16;3.019533e-17;0.862995;2.220446e-16;-2.220446e-16;0
1.173667;-3.762215;0.831216;8.39567e-13;0;0;8.39567e-13;-1.110223e-16;2.220446e-16;1.340561e-17;0;0;0;0;2.225833e-16;-1.11561e-16;1.670721e-16;45;0;2.227629e-16;1.964358e-16;-1.110223e-16;8.818388e-18;1.799282e-17;2.220446e-16;9.174437e-18;0.831216;1.110223e-16;-1.110223e-16;0
1.240832;-3.762215;0.776214;8.39567e-13;0;0;8.39567e-13;-2.220446e-16;0;-9.100239e-17;0;0;0;0;3.253043e-17;-2.54575e-16;1.435527e-16;45;0;1.914036e-16;1.815343e-16;-2.220446e-16;-1.13069e-16;-6.893582e-17;0;4.413315e-17;0.776214;-2.220446e-16;2.220446e-16;0
1.307997;-3.762215;0.753996;8.39567e-13;0;0;8.39567e-13;0;2.220446e-16;-3.888648e-18;0;0;0;0;2.221127e-16;-6.808067e-20;1.110904e-16;45;0;1.481205e-16;1.480978e-16;0;-5.752663e-17;4.974933e-17;2.220446e-16;1.07276e-16;0.753996;2.220446e-16;-2.220446e-16;0
1.375163;-3.762215;0.716034;8.39567e-13;0;0;8.39567e-13;-2.220446e-16;0;1.681886e-17;0;0;0;0;1.266725e-18;-2.233113e-16;1.12289e-16;45;0;1.497187e-16;1.492983e-16;-2.220446e-16;2.138051e-17;1.22572e-17;0;-9.123305e-18;0.716034;-2.220446e-16;2.220446e-16;0
1.442328;-3.762215;0.603131;8.39567e-13;0;0;8.39567e-13;0;0;-4.035986e-17;0;0;0;0;4.035986e-17;-4.035986e-17;4.035986e-17;45;0;5.381315e-17;4.660355e-17;0;-8.598535e-17;5.265624e-18;0;9.125097e-17;0.603131;0;0;0
1.509493;-3.762215;0.468286;8.39567e-13;0;0;8.39567e-13;-3.330669e-16;-3.330669e-16;4.163911e-18;0;0;0;0;-3.28903e-16;-3.372308e-16;4.163911e-18;45;0;5.551882e-18;2.220966e-16;-3.330669e-16;1.424617e-17;-5.918346e-18;-3.330669e-16;-2.016452e-17;0.468286;-6.661338e-16;6.661338e-16;0
1.576659;-3.762215;0.399731;8.39567e-13;0;0;8.39567e-13;2.220446e-16;2.220446e-16;1.210676e-16;0;0;0;0;3.431122e-16;1.00977e-16;1.210676e-16;45;0;1.614234e-16;2.036073e-16;2.220446e-16;1.257489e-16;1.163862e-16;2.220446e-16;-9.362784e-18;0.399731;4.440892e-16;-4.440892e-16;0
-0.303971;-3.82938;0.344454;8.39567e-13;0;0;8.39567e-13;0;0;-4.225636e-17;0;0;0;0;4.225636e-17;-4.225636e-17;4.225636e-17;45;0;5.634181e-17;4.879344e-17;0;-8.451273e-17;0;0;8.451273e-17;0.344454;0;0;0
-0.236806;-3.82938;0.491417;8.39567e-13;0;0;8.39567e-13;0;2.220446e-16;-2.842375e-17;0;0;0;0;2.256254e-16;-3.580756e-18;1.146031e-16;45;0;1.528041e-16;1.516246e-16;0;-5.239875e-17;-4.448737e-18;2.220446e-16;4.795002e-17;0.491417;2.220446e-16;-2.220446e-16;0
-0.169641;-3.82938;0.574002;8.39567e-13;0;0;8.39567e-13;-1.110223e-16;-1.110223e-16;4.913435e-17;0;0;0;0;-6.188795e-17;-1.601566e-16;4.913435e-17;45;0;6.551247e-17;9.325831e-17;-1.110223e-16;5.658612e-17;4.168258e-17;-1.110223e-16;-1.490353e-17;0.574002;-2.220446e-16;2.220446e-16;0
-0.102475;-3.82938;0.637476;8.39567e-13;0;0;8.39567e-13;0;0;3.244071e-17;0;0;0;0;3.244071e-17;-3.244071e-17;3.244071e-17;45;0;4.325428e-17;3.745931e-17;0;7.236779e-17;-7.48637e-18;0;-7.985416e-17;0.637476;0;0;0
-0.03531;-3.82938;0.706095;8.39567e-13;0;0;8.39567e-13;0;2.220446e-16;1.514005e-17;0;0;0;0;2.230722e-16;-1.027564e-18;1.120499e-16;45;0;1.493998e-16;1.490585e-16;0;4.600079e-17;-1.57207e-17;2.220446e-16;-6.17215e-17;0.706095;2.220446e-16;-2.220446e-16;0
0.031855;-3.82938;0.75518;8.39567e-13;0;0;8.39567e-13;2.220446e-16;2.220446e-16;4.13177e-17;0;0;0;0;2.633623e-16;1.807269e-16;4.13177e-17;45;0;5.509027e-17;1.555282e-16;2.220446e-16;8.056716e-17;2.068242e-18;2.220446e-16;-7.849892e-17;0.75518;4.440892e-16;-4.440892e-16;0
0.099021;-3.82938;0.809095;8.39567e-13;0;0;8.39567e-13;-1.110223e-16;0;-5.416237e-18;0;0;0;0;2.636059e-19;-1.112859e-16;5.577476e-17;45;0;7.436634e-17;7.427863e-17;-1.110223e-16;-2.292222e-18;-8.540252e-18;0;-6.248029e-18;0.809095;-1.110223e-16;1.110223e-16;0
0.166186;-3.82938;0.847338;8.39567e-13;0;0;8.39567e-13;2.220446e-16;0;6.989857e-18;0;0;0;0;2.222644e-16;-2.198197e-19;1.112421e-16;45;0;1.483228e-16;1.482496e-16;2.220446e-16;-1.408844e-17;2.806816e-17;0;4.21566e-17;0.847338;2.220446e-16;-2.220446e-16;0
0.233352;-3.82938;0.872881;8.39567e-13;0;0;8.39567e-13;0;0;-4.789474e-17;0;0;0;0;4.789474e-17;-4.789474e-17;4.789474e-17;45;0;6.385966e-17;5.530409e-17;0;-9.961758e-18;-8.582773e-17;0;-7.586597e-17;0.872881;0;0;0
0.300517;-3.82938;0.899549;8.39567e-13;0;0;8.39567e-13;-1.110223e-16;-3.330669e-16;-2.628722e-17;0;0;0;0;-1.079527e-16;-3.361365e-16;1.140919e-16;45;0;1.521226e-16;1.981635e-16;-1.110223e-16;-1.366798e-17;-3.890646e-17;-3.330669e-16;-2.523848e-17;0.899549;-4.440892e-16;4.440892e-16;0
0.367682;-3.82938;0.905925;8.39567e-13;0;0;8.39567e-13;0;2.220446e-16;-3.213748e-18;0;0;0;0;2.220911e-16;-4.650423e-20;1.110688e-16;45;0;1.480917e-16;1.480762e-16;0;5.759775e-18;-1.218727e-17;2.220446e-16;-1.794705e-17;0.905925;2.220446e-16;-2.220446e-16;0
0.434848;-3.82938;0.940759;8.39567e-13;0;0;8.39567e-13;0;-1.110223e-16;-5.851777e-18;0;0;0;0;3.07584e-19;-1.113299e-16;5.581874e-17;45;0;7.442498e-17;7.432267e-17;0;-1.281108e-17;1.10753e-18;-1.110223e-16;1.391861e-17;0.940759;-1.110223e-16;1.110223e-16;0
0.502013;-3.82938;0.977431;8.39567e-13;0;0;8.39567e-13;-1.110223e-16;-1.110223e-16;3.314688e-17;0;0;0;0;-7.787543e-17;-1.441692e-16;3.314688e-17;45;0;4.419584e-17;8.33256e-17;-1.110223e-16;6.124327e-17;5.050485e-18;-1.110223e-16;-5.619278e-17;0.977431;-2.220446e-16;2.220446e-16;0
0.569178;-3.82938;0.973933;8.39567e-13;0;0;8.39567e-13;2.220446e-16;2.220446e-16;-4.798175e-17;0;0;0;0;2.700263e-16;1.740629e-16;4.798175e-17;45;0;6.397566e-17;1.580584e-16;2.220446e-16;-5.124306e-17;-4.472043e-17;2.220446e-16;6.522635e-18;0.973933;4.440892e-16;-4.440892e-16;0
0.636344;-3.82938;0.978201;8.39567e-13;0;0;8.39567e-13;2.220446e-16;0;-1.935859e-17;0;0;0;0;2.237197e-16;-1.675109e-18;1.126974e-16;45;0;1.502632e-16;1.49708e-16;2.220446e-16;1.199152e-17;-5.07087e-17;0;-6.270021e-17;0.978201;2.220446e-16;-2.220446e-16;0
0.703509;-3.82938;0.980907;8.39567e-13;0;0;8.39567e-13;2.220446e-16;0;1.558415e-17;0;0;0;0;2.23133e-16;-1.088435e-18;1.121107e-16;45;0;1.49481e-16;1.491195e-16;2.220446e-16;2.793838e-17;3.229926e-18;0;-2.470845e-17;0.980907;2.220446e-16;-2.220446e-16;0
0.770674;-3.82938;0.968476;8.39567e-13;0;0;8.39567e-13;0;0;2.909639e-17;0;0;0;0;2.909639e-17;-2.909639e-17;2.909639e-17;45;0;3.879518e-17;3.359761e-17;0;-4.647113e-18;6.283988e-17;0;6.748699e-17;0.968476;0;0;0
0.83784;-3.82938;0.96147;8.39567e-13;0;0;8.39567e-13;0;0;8.578364e-20;0;0;0;0;8.578364e-20;-8.578364e-20;8.578364e-20;45;0;1.143782e-19;9.905441e-20;0;1.715673e-19;0;0;-1.715673e-19;0.96147;0;0;0
0.905005;-3.82938;0.956008;8.39567e-13;0;0;8.39567e-13;0;0;5.667105e-18;0;0;0;0;5.667105e-18;-5.667105e-18;5.667105e-18;45;0;7.556139e-18;6.543808e-18;0;2.514582e-17;-1.381161e-17;0;-3.895743e-17;0.956008;0;0;0
0.97217;-3.82938;0.950427;8.39567e-13;0;0;8.39567e-13;0;2.220446e-16;-6.788379e-17;0;0;0;0;2.411536e-16;-1.910902e-17;1.301313e-16;45;0;1.735084e-16;1.675025e-16;0;-1.264033e-16;-9.364289e-18;2.220446e-16;1.17039e-16;0.950427;2.220446e-16;-2.220446e-16;0
1.039336;-3.82938;0.902375;8.39567e-13;0;0;8.39567e-13;-2.220446e-16;-1.110223e-16;-4.690704e-17;0;0;0;0;-9.385775e-17;-2.392092e-16;7.26757e-17;45;0;9.690094e-17;1.3917e-16;-2.220446e-16;-3.373514e-17;-6.007894e-17;-1.110223e-16;-2.63438e-17;0.902375;-3.330669e-16;3.330669e-16;0
1.106501;-3.82938;0.847998;8.39567e-13;0;0;8.39567e-13;-1.110223e-16;-1.110223e-16;1.953284e-17;0;0;0;0;-9.148946e-17;-1.305551e-16;1.953284e-17;45;0;2.604378e-17;7.737512e-17;-1.110223e-16;3.457361e-17;4.492068e-18;-1.110223e-16;-3.008154e-17;0.847998;-2.220446e-16;2.220446e-16;0
1.173667;-3.82938;0.820103;8.39567e-13;0;0;8.39567e-13;-1.110223e-16;2.220446e-16;-2.806025e-17;0;0;0;0;2.243921e-16;-1.133698e-16;1.688809e-16;45;0;2.251746e-16;1.984874e-16;-1.110223e-16;-7.842918e-17;2.230868e-17;2.220446e-16;1.007379e-16;0.820103;1.110223e-16;-1.110223e-16;0
1.240832;-3.82938;0.7641;8.39567e-13;0;0;8.39567e-13;2.220446e-16;2.220446e-16;-1.046823e-17;0;0;0;0;2.325128e-16;2.115764e-16;1.046823e-17;45;0;1.395764e-17;1.485224e-16;2.220446e-16;-1.239483e-17;-8.541633e-18;2.220446e-16;3.853191e-18;0.7641;4.440892e-16;-4.440892e-16;0
1.307997;-3.82938;0.721877;8.39567e-13;0;0;8.39567e-13;2.220446e-16;2.220446e-16;-3.168993e-17;0;0;0;0;2.537345e-16;1.903547e-16;3.168993e-17;45;0;4.225324e-17;1.524854e-16;2.220446e-16;-3.916497e-17;-2.421489e-17;2.220446e-16;1.495009e-17;0.721877;4.440892e-16;-4.440892e-16;0
1.375163;-3.82938;0.657224;8.39567e-13;0;0;8.39567e-13;2.220446e-16;2.220446e-16;8.476736e-18;0;0;0;0;2.305213e-16;2.135679e-16;8.476736e-18;45;0;1.130231e-17;1.48353e-16;2.220446e-16;3.54977e-18;1.34037e-17;2.220446e-16;9.853932e-18;0.657224;4.440892e-16;-4.440892e-16;0
1.442328;-3.82938;0.578772;8.39567e-13;0;0;8.39567e-13;0;2.220446e-16;-2.318073e-18;0;0;0;0;2.220688e-16;-2.419729e-20;1.110465e-16;45;0;1.48062e-16;1.480539e-16;0;-1.624229e-17;1.160614e-17;2.220446e-16;2.784842e-17;0.578772;2.220446e-16;-2.220446e-16;0
1.509493;-3.82938;0.479635;8.39567e-13;0;0;8.39567e-13;0;-1.110223e-16;3.24213e-18;0;0;0;0;9.459774e-20;-1.111169e-16;5.560575e-17;45;0;7.4141e-17;7.410949e-17;0;-2.811743e-18;9.296003e-18;-1.110223e-16;1.210775e-17;0.479635;-1.110223e-16;1.110223e-16;0
1.576659;-3.82938;0.412908;8.39567e-13;0;0;8.39567e-13;0;-2.220446e-16;2.280418e-17;0;0;0;0;2.317814e-18;-2.243624e-16;1.133401e-16;45;0;1.511202e-16;1.503535e-16;0;-6.394727e-18;5.200307e-17;-2.220446e-16;5.839781e-17;0.412908;-2.220446e-16;2.220446e-16;0
-0.303971;-3.896546;0.357774;8.39567e-13;0;0;8.39567e-13;-4.440892e-16;0;-2.131654e-17;0;0;0;0;1.020859e-18;-4.4511e-16;2.230655e-16;45;0;2.974206e-16;2.970809e-16;-4.440892e-16;-6.19368e-17;1.930373e-17;0;8.124052e-17;0.357774;-4.440892e-16;4.440892e-16;0
-0.236806;-3.896546;0.496246;8.39567e-13;0;0;8.39567e-13;2.220446e-16;2.220446e-16;3.01657e-17;0;0;0;0;2.522103e-16;1.918789e-16;3.01657e-17;45;0;4.022094e-17;1.520727e-16;2.220446e-16;6.03314e-17;0;2.220446e-16;-6.03314e-17;0.496246;4.440892e-16;-4.440892e-16;0
-0.169641;-3.896546;0.572515;8.39567e-13;0;0;8.39567e-13;-3.330669e-16;-1.110223e-16;-7.012505e-17;0;0;0;0;-9.073019e-17;-3.53359e-16;1.313144e-16;45;0;1.750859e-16;2.119059e-16;-3.330669e-16;-1.191959e-16;-2.105425e-17;-1.110223e-16;9.81416e-17;0.572515;-4.440892e-16;4.440892e-16;0
-0.102475;-3.896546;0.632011;8.39567e-13;0;0;8.39567e-13;-3.330669e-16;0;-2.829756e-17;0;0;0;0;2.38707e-18;-3.35454e-16;1.689205e-16;45;0;2.252274e-16;2.244359e-16;-3.330669e-16;-3.769217e-17;-1.890296e-17;0;1.878921e-17;0.632011;-3.330669e-16;3.330669e-16;0
-0.03531;-3.896546;0.691939;8.39567e-13;0;0;8.39567e-13;0;0;-3.785383e-18;0;0;0;0;3.785383e-18;-3.785383e-18;3.785383e-18;45;0;5.047177e-18;4.370984e-18;0;-7.570766e-18;0;0;7.570766e-18;0.691939;0;0;0
0.031855;-3.896546;0.753173;8.39567e-13;0;0;8.39567e-13;0;0;1.022485e-17;0;0;0;0;1.022485e-17;-1.022485e-17;1.022485e-17;45;0;1.363313e-17;1.180664e-17;0;4.00345e-18;1.644625e-17;0;1.24428e-17;0.753173;0;0;0
0.099021;-3.896546;0.798535;8.39567e-13;0;0;8.39567e-13;-1.110223e-16;-1.110223e-16;3.776626e-17;0;0;0;0;-7.325604e-17;-1.487886e-16;3.776626e-17;45;0;5.035501e-17;8.590647e-17;-1.110223e-16;1.949331e-17;5.603921e-17;-1.110223e-16;3.65459e-17;0.798535;-2.220446e-16;2.220446e-16;0
0.166186;-3.896546;0.850026;8.39567e-13;0;0;8.39567e-13;-1.110223e-16;0;4.538331e-17;0;0;0;0;1.619054e-17;-1.272128e-16;7.170169e-17;45;0;9.560225e-17;9.068844e-17;-1.110223e-16;6.31109e-17;2.765572e-17;0;-3.545518e-17;0.850026;-1.110223e-16;1.110223e-16;0
0.233352;-3.896546;0.866634;8.39567e-13;0;0;8.39567e-13;2.220446e-16;-1.110223e-16;-1.538903e-17;0;0;0;0;2.227541e-16;-1.117318e-16;1.67243e-16;45;0;2.229906e-16;1.966295e-16;2.220446e-16;-5.037334e-17;1.959529e-17;-1.110223e-16;6.996863e-17;0.866634;1.110223e-16;-1.110223e-16;0
0.300517;-3.896546;0.88336;8.39567e-13;0;0;8.39567e-13;0;2.220446e-16;3.679451e-17;0;0;0;0;2.279829e-16;-5.93832e-18;1.169606e-16;45;0;1.559475e-16;1.540062e-16;0;1.078687e-17;6.280214e-17;2.220446e-16;5.201526e-17;0.88336;2.220446e-16;-2.220446e-16;0
0.367682;-3.896546;0.920667;8.39567e-13;0;0;8.39567e-13;2.220446e-16;0;-2.513521e-18;0;0;0;0;2.220731e-16;-2.844914e-20;1.110508e-16;45;0;1.480677e-16;1.480582e-16;2.220446e-16;1.344559e-17;-1.847264e-17;0;-3.191823e-17;0.920667;2.220446e-16;-2.220446e-16;0
0.434848;-3.896546;0.947945;8.39567e-13;0;0;8.39567e-13;-1.110223e-16;-1.110223e-16;-8.651285e-18;0;0;0;0;-1.02371e-16;-1.196736e-16;8.651285e-18;45;0;1.153505e-17;7.468597e-17;-1.110223e-16;2.551548e-18;-1.985412e-17;-1.110223e-16;-2.240567e-17;0.947945;-2.220446e-16;2.220446e-16;0
0.502013;-3.896546;0.961823;8.39567e-13;0;0;8.39567e-13;2.220446e-16;-1.110223e-16;1.519461e-17;0;0;0;0;2.227363e-16;-1.117141e-16;1.672252e-16;45;0;2.229669e-16;1.966094e-16;2.220446e-16;1.496052e-17;1.542869e-17;-1.110223e-16;4.681691e-19;0.961823;1.110223e-16;-1.110223e-16;0
0.569178;-3.896546;0.966085;8.39567e-13;0;0;8.39567e-13;2.220446e-16;2.220446e-16;1.17139e-17;0;0;0;0;2.337585e-16;2.103307e-16;1.17139e-17;45;0;1.561854e-17;1.486464e-16;2.220446e-16;-2.930027e-17;5.272807e-17;2.220446e-16;8.202834e-17;0.966085;4.440892e-16;-4.440892e-16;0
0.636344;-3.896546;0.97784;8.39567e-13;0;0;8.39567e-13;0;-1.110223e-16;8.409093e-18;0;0;0;0;6.333121e-19;-1.116556e-16;5.614446e-17;45;0;7.485928e-17;7.464907e-17;0;3.974337e-18;1.284385e-17;-1.110223e-16;8.869512e-18;0.97784;-1.110223e-16;1.110223e-16;0
0.703509;-3.896546;0.974944;8.39567e-13;0;0;8.39567e-13;0;-1.110223e-16;-7.148892e-18;0;0;0;0;4.584348e-19;-1.114807e-16;5.596959e-17;45;0;7.462612e-17;7.447377e-17;0;-2.396088e-17;9.663094e-18;-1.110223e-16;3.362397e-17;0.974944;-1.110223e-16;1.110223e-16;0
0.770674;-3.896546;0.983851;8.39567e-13;0;0;8.39567e-13;0;2.220446e-16;8.487828e-19;0;0;0;0;2.220479e-16;-3.244491e-21;1.110255e-16;45;0;1.480341e-16;1.48033e-16;0;-8.80795e-19;2.578361e-18;2.220446e-16;3.459156e-18;0.983851;2.220446e-16;-2.220446e-16;0
0.83784;-3.896546;0.990315;8.39567e-13;0;0;8.39567e-13;2.220446e-16;-1.110223e-16;-4.787988e-17;0;0;0;0;2.287909e-16;-1.177686e-16;1.732798e-16;45;0;2.310397e-16;2.034799e-16;2.220446e-16;-4.58393e-17;-4.992046e-17;-1.110223e-16;-4.081164e-18;0.990315;1.110223e-16;-1.110223e-16;0
0.905005;-3.896546;0.950571;8.39567e-13;0;0;8.39567e-13;-1.110223e-16;0;-2.549098e-17;0;0;0;0;5.573038e-18;-1.165953e-16;6.108419e-17;45;0;8.144559e-17;7.965292e-17;-1.110223e-16;-2.608152e-17;-2.490044e-17;0;1.181079e-18;0.950571;-1.110223e-16;1.110223e-16;0
0.97217;-3.896546;0.923247;8.39567e-13;0;0;8.39567e-13;0;0;-1.220138e-17;0;0;0;0;1.220138e-17;-1.220138e-17;1.220138e-17;45;0;1.626851e-17;1.408894e-17;0;-1.957908e-17;-4.82368e-18;0;1.47554e-17;0.923247;0;0;0
1.039336;-3.896546;0.89387;8.39567e-13;0;0;8.39567e-13;2.220446e-16;0;-6.827607e-17;0;0;0;0;2.413587e-16;-1.931408e-17;1.303364e-16;45;0;1.737818e-16;1.677149e-16;2.220446e-16;-7.449868e-17;-6.205346e-17;0;1.244522e-17;0.89387;2.220446e-16;-2.220446e-16;0
1.106501;-3.896546;0.846872;8.39567e-13;0;0;8.39567e-13;0;-1.110223e-16;-1.478e-17;0;0;0;0;1.933922e-18;-1.129562e-16;5.744507e-17;45;0;7.659343e-17;7.5957e-17;0;-3.836334e-17;8.803336e-18;-1.110223e-16;4.716668e-17;0.846872;-1.110223e-16;1.110223e-16;0
1.173667;-3.896546;0.82018;8.39567e-13;0;0;8.39567e-13;-3.330669e-16;2.220446e-16;2.346076e-17;0;0;0;0;2.230344e-16;-3.340567e-16;2.785455e-16;45;0;3.71394e-16;3.237587e-16;-3.330669e-16;3.760745e-17;9.314069e-18;2.220446e-16;-2.829338e-17;0.82018;-1.110223e-16;1.110223e-16;0
1.240832;-3.896546;0.795776;8.39567e-13;0;0;8.39567e-13;0;2.220446e-16;-2.843608e-17;0;0;0;0;2.256284e-16;-3.583815e-18;1.146061e-16;45;0;1.528082e-16;1.516277e-16;0;-3.093618e-17;-2.593598e-17;2.220446e-16;5.000203e-18;0.795776;2.220446e-16;-2.220446e-16;0
1.307997;-3.896546;0.749997;8.39567e-13;0;0;8.39567e-13;2.220446e-16;-1.110223e-16;-2.58402e-18;0;0;0;0;2.220646e-16;-1.110424e-16;1.665535e-16;45;0;2.220713e-16;1.958477e-16;2.220446e-16;9.64969e-18;-1.481773e-17;-1.110223e-16;-2.446742e-17;0.749997;1.110223e-16;-1.110223e-16;0
1.375163;-3.896546;0.668297;8.39567e-13;0;0;8.39567e-13;0;2.220446e-16;-2.319218e-17;0;0;0;0;2.244411e-16;-2.396519e-18;1.134188e-16;45;0;1.512251e-16;1.504326e-16;0;-3.615352e-17;-1.023084e-17;2.220446e-16;2.592268e-17;0.668297;2.220446e-16;-2.220446e-16;0
1.442328;-3.896546;0.58898;8.39567e-13;0;0;8.39567e-13;2.220446e-16;0;-2.54003e-19;0;0;0;0;2.220449e-16;-2.905608e-22;1.110226e-16;45;0;1.480301e-16;1.4803e-16;2.220446e-16;8.507141e-18;-9.015148e-18;0;-1.752229e-17;0.58898;2.220446e-16;-2.220446e-16;0
1.509493;-3.896546;0.48651;8.39567e-13;0;0;8.39567e-13;0;0;-1.325354e-17;0;0;0;0;1.325354e-17;-1.325354e-17;1.325354e-17;45;0;1.767138e-17;1.530387e-17;0;-1.78538e-18;-2.472169e-17;0;-2.293632e-17;0.48651;0;0;0
1.576659;-3.896546;0.417215;8.39567e-13;0;0;8.39567e-13;-2.220446e-16;0;1.939624e-18;0;0;0;0;1.694189e-20;-2.220615e-16;1.110392e-16;45;0;1.480523e-16;1.480467e-16;-2.220446e-16;-6.982059e-17;7.369983e-17;0;1.435204e-16;0.417215;-2.220446e-16;2.220446e-16;0
-0.303971;-3.963711;0.36725;8.39567e-13;0;0;8.39567e-13;2.220446e-16;0;-4.305061e-17;0;0;0;0;2.300992e-16;-8.054593e-18;1.190769e-16;45;0;1.587692e-16;1.561536e-16;2.220446e-16;-5.488436e-17;-3.121687e-17;0;2.36675e-17;0.36725;2.220446e-16;-2.220446e-16;0
-0.236806;-3.963711;0.492122;8.39567e-13;0;0;8.39567e-13;2.220446e-16;0;3.168009e-17;0;0;0;0;2.264761e-16;-4.431496e-18;1.154538e-16;45;0;1.539384e-16;1.524827e-16;2.220446e-16;5.254063e-17;1.081955e-17;0;-4.172108e-17;0.492122;2.220446e-16;-2.220446e-16;0
-0.169641;-3.963711;0.584045;8.39567e-13;0;0;8.39567e-13;2.220446e-16;2.220446e-16;-1.296554e-17;0;0;0;0;2.350101e-16;2.090791e-16;1.296554e-17;45;0;1.728738e-17;1.487849e-16;2.220446e-16;-1.35298e-17;-1.240128e-17;2.220446e-16;1.128517e-18;0.584045;4.440892e-16;-4.440892e-16;0
-0.102475;-3.963711;0.654998;8.39567e-13;0;0;8.39567e-13;-4.440892e-16;-1.110223e-16;-6.488044e-18;0;0;0;0;-1.10896e-16;-4.442155e-16;1.666598e-16;45;0;2.222131e-16;2.669695e-16;-4.440892e-16;-1.297609e-17;0;-1.110223e-16;1.297609e-17;0.654998;-5.551115e-16;5.551115e-16;0
-0.03531;-3.963711;0.708403;8.39567e-13;0;0;8.39567e-13;0;-1.110223e-16;5.163522e-17;0;0;0;0;2.030233e-17;-1.313246e-16;7.581348e-17;45;0;1.010846e-16;9.504277e-17;0;7.987623e-17;2.339421e-17;-1.110223e-16;-5.648202e-17;0.708403;-1.110223e-16;1.110223e-16;0
0.031855;-3.963711;0.767064;8.39567e-13;0;0;8.39567e-13;-2.220446e-16;-1.110223e-16;1.774421e-17;0;0;0;0;-1.082553e-16;-2.248116e-16;5.827817e-17;45;0;7.770422e-17;1.298245e-16;-2.220446e-16;-2.381014e-17;5.929855e-17;-1.110223e-16;8.31087e-17;0.767064;-3.330669e-16;3.330669e-16;0
0.099021;-3.963711;0.795447;8.39567e-13;0;0;8.39567e-13;-3.330669e-16;0;-3.020514e-17;0;0;0;0;2.717076e-18;-3.35784e-16;1.692505e-16;45;0;2.256674e-16;2.247672e-16;-3.330669e-16;-1.030052e-17;-5.010977e-17;0;-3.980925e-17;0.795447;-3.330669e-16;3.330669e-16;0
0.166186;-3.963711;0.829989;8.39567e-13;0;0;8.39567e-13;0;2.220446e-16;1.559886e-17;0;0;0;0;2.231351e-16;-1.090481e-18;1.121128e-16;45;0;1.494837e-16;1.491215e-16;0;4.051529e-17;-9.317566e-18;2.220446e-16;-4.983286e-17;0.829989;2.220446e-16;-2.220446e-16;0
0.233352;-3.963711;0.856254;8.39567e-13;0;0;8.39567e-13;-3.330669e-16;0;-3.081711e-17;0;0;0;0;2.82736e-18;-3.358943e-16;1.693608e-16;45;0;2.258144e-16;2.248779e-16;-3.330669e-16;-5.872436e-17;-2.909847e-18;0;5.581451e-17;0.856254;-3.330669e-16;3.330669e-16;0
0.300517;-3.963711;0.894674;8.39567e-13;0;0;8.39567e-13;0;-1.110223e-16;-1.955195e-17;0;0;0;0;3.342624e-18;-1.143649e-16;5.885377e-17;45;0;7.84717e-17;7.738156e-17;0;3.136379e-18;-4.224029e-17;-1.110223e-16;-4.537667e-17;0.894674;-1.110223e-16;1.110223e-16;0
0.367682;-3.963711;0.9652;8.39567e-13;0;0;8.39567e-13;2.220446e-16;0;-2.781837e-17;0;0;0;0;2.254767e-16;-3.432113e-18;1.144544e-16;45;0;1.526059e-16;1.514748e-16;2.220446e-16;-3.799826e-17;-1.763847e-17;0;2.035979e-17;0.9652;2.220446e-16;-2.220446e-16;0
0.434848;-3.963711;0.976171;8.39567e-13;0;0;8.39567e-13;2.220446e-16;2.220446e-16;5.690216e-17;0;0;0;0;2.789468e-16;1.651424e-16;5.690216e-17;45;0;7.586955e-17;1.619566e-16;2.220446e-16;6.222404e-17;5.158028e-17;2.220446e-16;-1.064376e-17;0.976171;4.440892e-16;-4.440892e-16;0
0.502013;-3.963711;0.956704;8.39567e-13;0;0;8.39567e-13;2.220446e-16;0;4.069888e-18;0;0;0;0;2.221192e-16;-7.457253e-20;1.110969e-16;45;0;1.481292e-16;1.481043e-16;2.220446e-16;1.137136e-17;-3.231586e-18;0;-1.460295e-17;0.956704;2.220446e-16;-2.220446e-16;0
0.569178;-3.963711;0.954195;8.39567e-13;0;0;8.39567e-13;2.220446e-16;2.220446e-16;2.207851e-17;0;0;0;0;2.441231e-16;1.999661e-16;2.207851e-17;45;0;2.943801e-17;1.50209e-16;2.220446e-16;3.257361e-17;1.158341e-17;2.220446e-16;-2.099021e-17;0.954195;4.440892e-16;-4.440892e-16;0
0.636344;-3.963711;0.970648;8.39567e-13;0;0;8.39567e-13;-1.110223e-16;0;1.568159e-17;0;0;0;0;2.17247e-18;-1.131948e-16;5.768362e-17;45;0;7.69115e-17;7.619766e-17;-1.110223e-16;4.272865e-17;-1.136547e-17;0;-5.409411e-17;0.970648;-1.110223e-16;1.110223e-16;0
0.703509;-3.963711;0.987523;8.39567e-13;0;0;8.39567e-13;-1.110223e-16;2.220446e-16;1.692455e-17;0;0;0;0;2.229024e-16;-1.118801e-16;1.673912e-16;45;0;2.231883e-16;1.967977e-16;-1.110223e-16;3.607523e-17;-2.226139e-18;2.220446e-16;-3.830137e-17;0.987523;1.110223e-16;-1.110223e-16;0
0.770674;-3.963711;1.004811;8.39567e-13;0;0;8.39567e-13;0;2.220446e-16;-1.523617e-17;0;0;0;0;2.230852e-16;-1.040593e-18;1.120629e-16;45;0;1.494172e-16;1.490715e-16;0;-1.641164e-17;-1.40607e-17;2.220446e-16;2.350937e-18;1.004811;2.220446e-16;-2.220446e-16;0
0.83784;-3.963711;1.005888;8.39567e-13;0;0;8.39567e-13;0;2.220446e-16;1.397297e-17;0;0;0;0;2.229204e-16;-8.758452e-19;1.118981e-16;45;0;1.491975e-16;1.489064e-16;0;3.038817e-17;-2.442241e-18;2.220446e-16;-3.283041e-17;1.005888;2.220446e-16;-2.220446e-16;0
0.905005;-3.963711;0.95309;8.39567e-13;0;0;8.39567e-13;-1.110223e-16;-1.110223e-16;2.753582e-17;0;0;0;0;-8.348648e-17;-1.385581e-16;2.753582e-17;45;0;3.671443e-17;8.055534e-17;-1.110223e-16;5.221695e-18;4.984995e-17;-1.110223e-16;4.462826e-17;0.95309;-2.220446e-16;2.220446e-16;0
0.97217;-3.963711;0.928758;8.39567e-13;0;0;8.39567e-13;2.220446e-16;0;-2.925514e-17;0;0;0;0;2.258344e-16;-3.789784e-18;1.148121e-16;45;0;1.530828e-16;1.518353e-16;2.220446e-16;-3.133091e-17;-2.717937e-17;0;4.15154e-18;0.928758;2.220446e-16;-2.220446e-16;0
1.039336;-3.963711;0.922565;8.39567e-13;0;0;8.39567e-13;-1.110223e-16;-1.110223e-16;4.286293e-17;0;0;0;0;-6.815937e-17;-1.538852e-16;4.286293e-17;45;0;5.715058e-17;8.903843e-17;-1.110223e-16;3.864578e-17;4.708008e-17;-1.110223e-16;8.4343e-18;0.922565;-2.220446e-16;2.220446e-16;0
1.106501;-3.963711;0.871437;8.39567e-13;0;0;8.39567e-13;0;2.220446e-16;-2.372141e-17;0;0;0;0;2.245505e-16;-2.505919e-18;1.135282e-16;45;0;1.51371e-16;1.505426e-16;0;6.373917e-18;-5.381674e-17;2.220446e-16;-6.019066e-17;0.871437;2.220446e-16;-2.220446e-16;0
1.173667;-3.963711;0.833337;8.39567e-13;0;0;8.39567e-13;2.220446e-16;2.220446e-16;-3.068319e-17;0;0;0;0;2.527278e-16;1.913614e-16;3.068319e-17;45;0;4.091091e-17;1.522106e-16;2.220446e-16;-4.317343e-17;-1.819294e-17;2.220446e-16;2.49805e-17;0.833337;4.440892e-16;-4.440892e-16;0
1.240832;-3.963711;0.798541;8.39567e-13;0;0;8.39567e-13;-1.110223e-16;0;4.236181e-17;0;0;0;0;1.431729e-17;-1.253396e-16;6.982844e-17;45;0;9.310458e-17;8.871808e-17;-1.110223e-16;6.8345e-17;1.637861e-17;0;-5.196639e-17;0.798541;-1.110223e-16;1.110223e-16;0
1.307997;-3.963711;0.730785;8.39567e-13;0;0;8.39567e-13;0;-1.110223e-16;-4.043195e-17;0;0;0;0;1.316366e-17;-1.24186e-16;6.867482e-17;45;0;9.156642e-17;8.750918e-17;0;-7.724165e-17;-3.622244e-18;-1.110223e-16;7.361941e-17;0.730785;-1.110223e-16;1.110223e-16;0
1.375163;-3.963711;0.666992;8.39567e-13;0;0;8.39567e-13;0;0;3.08567e-17;0;0;0;0;3.08567e-17;-3.08567e-17;3.08567e-17;45;0;4.114226e-17;3.563025e-17;0;5.914517e-17;2.56822e-18;0;-5.657696e-17;0.666992;0;0;0
1.442328;-3.963711;0.592841;8.39567e-13;0;0;8.39567e-13;-5.551115e-16;2.220446e-16;-2.618632e-17;0;0;0;0;2.229259e-16;-5.559929e-16;3.894594e-16;45;0;5.192792e-16;4.632107e-16;-5.551115e-16;-2.704797e-17;-2.532467e-17;2.220446e-16;1.7233e-18;0.592841;-3.330669e-16;3.330669e-16;0
1.509493;-3.963711;0.465138;8.39567e-13;0;0;8.39567e-13;-2.220446e-16;-1.110223e-16;1.045484e-17;0;0;0;0;-1.100464e-16;-2.230205e-16;5.648709e-17;45;0;7.531612e-17;1.287647e-16;-2.220446e-16;3.241541e-17;-1.150573e-17;-1.110223e-16;-4.392115e-17;0.465138;-3.330669e-16;3.330669e-16;0
1.576659;-3.963711;0.390639;8.39567e-13;0;0;8.39567e-13;2.220446e-16;0;5.30512e-17;0;0;0;0;2.340686e-16;-1.202396e-17;1.230463e-16;45;0;1.640617e-16;1.602042e-16;2.220446e-16;8.711159e-17;1.899082e-17;0;-6.812077e-17;0.390639;2.220446e-16;-2.220446e-16;0
-0.303971;-4.030876;0.357049;8.39567e-13;0;0;8.39567e-13;4.440892e-16;-2.220446e-16;-9.616932e-17;0;0;0;0;4.576952e-16;-2.356506e-16;3.466729e-16;45;0;4.622305e-16;4.070885e-16;4.440892e-16;-1.785667e-16;-1.377196e-17;-2.220446e-16;1.647947e-16;0.357049;2.220446e-16;-2.220446e-16;0
-0.236806;-4.030876;0.484689;8.39567e-13;0;0;8.39567e-13;2.220446e-16;0;-4.678584e-17;0;0;0;0;2.315e-16;-9.455356e-18;1.204777e-16;45;0;1.606369e-16;1.575797e-16;2.220446e-16;-7.172073e-17;-2.185094e-17;0;4.986979e-17;0.484689;2.220446e-16;-2.220446e-16;0
-0.169641;-4.030876;0.567751;8.39567e-13;0;0;8.39567e-13;-2.220446e-16;2.220446e-16;1.915401e-17;0;0;0;0;2.228692e-16;-2.228692e-16;2.228692e-16;45;0;2.971589e-16;2.573472e-16;-2.220446e-16;6.343788e-17;-2.512987e-17;2.220446e-16;-8.856774e-17;0.567751;0;0;0
-0.102475;-4.030876;0.656028;8.39567e-13;0;0;8.39567e-13;0;0;4.822242e-17;0;0;0;0;4.822242e-17;-4.822242e-17;4.822242e-17;45;0;6.429656e-17;5.568246e-17;0;8.252459e-17;1.392026e-17;0;-6.860433e-17;0.656028;0;0;0
-0.03531;-4.030876;0.71714;8.39567e-13;0;0;8.39567e-13;0;0;-3.54901e-17;0;0;0;0;3.54901e-17;-3.54901e-17;3.54901e-17;45;0;4.732013e-17;4.098044e-17;0;-5.113863e-17;-1.984157e-17;0;3.129706e-17;0.71714;0;0;0
0.031855;-4.030876;0.773996;8.39567e-13;0;0;8.39567e-13;2.220446e-16;-1.110223e-16;-4.814884e-17;0;0;0;0;2.288654e-16;-1.178431e-16;1.733543e-16;45;0;2.31139e-16;2.035645e-16;2.220446e-16;-7.496099e-17;-2.133669e-17;-1.110223e-16;5.36243e-17;0.773996;1.110223e-16;-1.110223e-16;0
0.099021;-4.030876;0.804143;8.39567e-13;0;0;8.39567e-13;0;-1.110223e-16;-3.146698e-17;0;0;0;0;8.298398e-18;-1.193207e-16;6.380955e-17;45;0;8.50794e-17;8.245258e-17;0;-4.705333e-17;-1.588063e-17;-1.110223e-16;3.117269e-17;0.804143;-1.110223e-16;1.110223e-16;0
0.166186;-4.030876;0.822772;8.39567e-13;0;0;8.39567e-13;0;2.220446e-16;-9.91501e-18;0;0;0;0;2.224865e-16;-4.41858e-19;1.114642e-16;45;0;1.486189e-16;1.484718e-16;0;-2.889477e-17;9.064744e-18;2.220446e-16;3.795951e-17;0.822772;2.220446e-16;-2.220446e-16;0
0.233352;-4.030876;0.869303;8.39567e-13;0;0;8.39567e-13;4.440892e-16;0;2.591415e-17;0;0;0;0;4.455963e-16;-1.507067e-18;2.235517e-16;45;0;2.980689e-16;2.975678e-16;4.440892e-16;3.430489e-17;1.752342e-17;0;-1.678147e-17;0.869303;4.440892e-16;-4.440892e-16;0
0.300517;-4.030876;0.911972;8.39567e-13;0;0;8.39567e-13;2.220446e-16;0;-2.009262e-17;0;0;0;0;2.238481e-16;-1.803514e-18;1.128258e-16;45;0;1.504344e-16;1.498369e-16;2.220446e-16;-1.403108e-17;-2.615416e-17;0;-1.212308e-17;0.911972;2.220446e-16;-2.220446e-16;0
0.367682;-4.030876;0.957152;8.39567e-13;0;0;8.39567e-13;-1.110223e-16;-1.110223e-16;1.169533e-17;0;0;0;0;-9.932697e-17;-1.227176e-16;1.169533e-17;45;0;1.559377e-17;7.523679e-17;-1.110223e-16;-1.88082e-17;4.219886e-17;-1.110223e-16;6.100705e-17;0.957152;-2.220446e-16;2.220446e-16;0
0.434848;-4.030876;0.968582;8.39567e-13;0;0;8.39567e-13;-3.330669e-16;0;-5.429961e-18;0;0;0;0;8.850065e-20;-3.331554e-16;1.66622e-16;45;0;2.221626e-16;2.221331e-16;-3.330669e-16;9.668195e-18;-2.052811e-17;0;-3.019631e-17;0.968582;-3.330669e-16;3.330669e-16;0
0.502013;-4.030876;0.974836;8.39567e-13;0;0;8.39567e-13;0;0;4.365476e-18;0;0;0;0;4.365476e-18;-4.365476e-18;4.365476e-18;45;0;5.820635e-18;5.040817e-18;0;-2.220208e-17;3.093303e-17;0;5.31351e-17;0.974836;0;0;0
0.569178;-4.030876;0.981216;8.39567e-13;0;0;8.39567e-13;-1.110223e-16;2.220446e-16;-4.502197e-17;0;0;0;0;2.280231e-16;-1.170008e-16;1.725119e-16;45;0;2.300159e-16;2.026081e-16;-1.110223e-16;-5.227281e-17;-3.777114e-17;2.220446e-16;1.450166e-17;0.981216;1.110223e-16;-1.110223e-16;0
0.636344;-4.030876;0.971753;8.39567e-13;0;0;8.39567e-13;0;-1.110223e-16;-3.794078e-18;0;0;0;0;1.295078e-19;-1.111518e-16;5.564066e-17;45;0;7.418755e-17;7.414441e-17;0;-2.040768e-17;1.281953e-17;-1.110223e-16;3.322721e-17;0.971753;-1.110223e-16;1.110223e-16;0
0.703509;-4.030876;0.973499;8.39567e-13;0;0;8.39567e-13;-1.110223e-16;2.220446e-16;1.564996e-17;0;0;0;0;2.227783e-16;-1.11756e-16;1.672672e-16;45;0;2.230229e-16;1.96657e-16;-1.110223e-16;2.359318e-17;7.706747e-18;2.220446e-16;-1.588643e-17;0.973499;1.110223e-16;-1.110223e-16;0
0.770674;-4.030876;0.987289;8.39567e-13;0;0;8.39567e-13;2.220446e-16;-1.110223e-16;1.299965e-17;0;0;0;0;2.225512e-16;-1.115289e-16;1.670401e-16;45;0;2.227201e-16;1.963994e-16;2.220446e-16;5.637307e-18;2.036199e-17;-1.110223e-16;1.472469e-17;0.987289;1.110223e-16;-1.110223e-16;0
0.83784;-4.030876;0.994559;8.39567e-13;0;0;8.39567e-13;-1.110223e-16;2.220446e-16;-3.308119e-18;0;0;0;0;2.220775e-16;-1.110552e-16;1.665663e-16;45;0;2.220884e-16;1.958622e-16;-1.110223e-16;1.348868e-17;-2.010492e-17;2.220446e-16;-3.35936e-17;0.994559;1.110223e-16;-1.110223e-16;0
0.905005;-4.030876;0.959267;8.39567e-13;0;0;8.39567e-13;-1.110223e-16;2.220446e-16;2.304128e-17;0;0;0;0;2.23631e-16;-1.126087e-16;1.681199e-16;45;0;2.241598e-16;1.976241e-16;-1.110223e-16;1.381583e-17;3.226672e-17;2.220446e-16;1.845089e-17;0.959267;1.110223e-16;-1.110223e-16;0
0.97217;-4.030876;0.927523;8.39567e-13;0;0;8.39567e-13;2.220446e-16;2.220446e-16;-1.754008e-17;0;0;0;0;2.395847e-16;2.045045e-16;1.754008e-17;45;0;2.338677e-17;1.494089e-16;2.220446e-16;-3.017548e-17;-4.904682e-18;2.220446e-16;2.52708e-17;0.927523;4.440892e-16;-4.440892e-16;0
1.039336;-4.030876;0.910203;8.39567e-13;0;0;8.39567e-13;2.220446e-16;-1.110223e-16;4.12548e-17;0;0;0;0;2.270785e-16;-1.160562e-16;1.715673e-16;45;0;2.287564e-16;2.015358e-16;2.220446e-16;5.507335e-17;2.743625e-17;-1.110223e-16;-2.76371e-17;0.910203;1.110223e-16;-1.110223e-16;0
1.106501;-4.030876;0.896496;8.39567e-13;0;0;8.39567e-13;4.440892e-16;2.220446e-16;-2.976341e-17;0;0;0;0;4.480095e-16;2.181243e-16;1.149426e-16;45;0;1.532569e-16;2.586882e-16;4.440892e-16;-1.620692e-18;-5.790612e-17;2.220446e-16;-5.628543e-17;0.896496;6.661338e-16;-6.661338e-16;0
1.173667;-4.030876;0.874936;8.39567e-13;0;0;8.39567e-13;0;2.220446e-16;-4.509346e-17;0;0;0;0;2.308529e-16;-8.808293e-18;1.198306e-16;45;0;1.597741e-16;1.569205e-16;0;-4.588621e-17;-4.430071e-17;2.220446e-16;1.585499e-18;0.874936;2.220446e-16;-2.220446e-16;0
1.240832;-4.030876;0.822793;8.39567e-13;0;0;8.39567e-13;2.220446e-16;0;-5.097771e-17;0;0;0;0;2.331889e-16;-1.11443e-17;1.221666e-16;45;0;1.628888e-16;1.59304e-16;2.220446e-16;-3.235693e-17;-6.959849e-17;0;-3.724155e-17;0.822793;2.220446e-16;-2.220446e-16;0
1.307997;-4.030876;0.752192;8.39567e-13;0;0;8.39567e-13;-1.110223e-16;0;-4.783864e-17;0;0;0;0;1.77693e-17;-1.287916e-16;7.328045e-17;45;0;9.770726e-17;9.235573e-17;-1.110223e-16;-8.857987e-17;-7.097415e-18;0;8.148246e-17;0.752192;-1.110223e-16;1.110223e-16;0
1.375163;-4.030876;0.675634;8.39567e-13;0;0;8.39567e-13;2.220446e-16;0;-3.329072e-17;0;0;0;0;2.269284e-16;-4.883796e-18;1.159061e-16;45;0;1.545415e-16;1.529395e-16;2.220446e-16;-7.320085e-17;6.61941e-18;0;7.982026e-17;0.675634;2.220446e-16;-2.220446e-16;0
1.442328;-4.030876;0.579276;8.39567e-13;0;0;8.39567e-13;2.220446e-16;0;-9.934561e-18;0;0;0;0;2.224882e-16;-4.435988e-19;1.114659e-16;45;0;1.486212e-16;1.484736e-16;2.220446e-16;-4.186394e-17;2.199482e-17;0;6.385875e-17;0.579276;2.220446e-16;-2.220446e-16;0
1.509493;-4.030876;0.453884;8.39567e-13;0;0;8.39567e-13;-2.220446e-16;0;5.41424e-17;0;0;0;0;1.249835e-17;-2.345429e-16;1.235206e-16;45;0;1.646942e-16;1.606902e-16;-2.220446e-16;8.589449e-17;2.23903e-17;0;-6.350419e-17;0.453884;-2.220446e-16;2.220446e-16;0
1.576659;-4.030876;0.384406;8.39567e-13;0;0;8.39567e-13;-1.110223e-16;2.220446e-16;-8.471898e-17;0;0;0;0;2.423552e-16;-1.313329e-16;1.86844e-16;45;0;2.491254e-16;2.188998e-16;-1.110223e-16;-7.957487e-17;-8.986308e-17;2.220446e-16;-1.02882e-17;0.384406;1.110223e-16;-1.110223e-16;0
-0.303971;-4.098042;0.345771;8.39567e-13;0;0;8.39567e-13;2.220446e-16;2.220446e-16;3.009622e-17;0;0;0;0;2.521408e-16;1.919484e-16;3.009622e-17;45;0;4.012829e-17;1.520543e-16;2.220446e-16;2.210035e-17;3.809208e-17;2.220446e-16;1.599173e-17;0.345771;4.440892e-16;-4.440892e-16;0
-0.236806;-4.098042;0.465582;8.39567e-13;0;0;8.39567e-13;0;0;6.819699e-17;0;0;0;0;6.819699e-17;-6.819699e-17;6.819699e-17;45;0;9.092932e-17;7.87471e-17;0;1.079223e-16;2.847168e-17;0;-7.945062e-17;0.465582;0;0;0
-0.169641;-4.098042;0.551046;8.39567e-13;0;0;8.39567e-13;6.661338e-16;0;-2.080037e-17;0;0;0;0;6.667827e-16;-6.488699e-19;3.337158e-16;45;0;4.449543e-16;4.447382e-16;6.661338e-16;-3.559134e-17;-6.009395e-18;0;2.958194e-17;0.551046;6.661338e-16;-6.661338e-16;0
-0.102475;-4.098042;0.656827;8.39567e-13;0;0;8.39567e-13;4.440892e-16;2.220446e-16;-1.38437e-17;0;0;0;0;4.44949e-16;2.211848e-16;1.118821e-16;45;0;1.491761e-16;2.568929e-16;4.440892e-16;-4.066747e-17;1.298008e-17;2.220446e-16;5.364754e-17;0.656827;6.661338e-16;-6.661338e-16;0
-0.03531;-4.098042;0.705538;8.39567e-13;0;0;8.39567e-13;2.220446e-16;-1.110223e-16;1.74722e-17;0;0;0;0;2.229587e-16;-1.119364e-16;1.674475e-16;45;0;2.232634e-16;1.968615e-16;2.220446e-16;2.127757e-17;1.366683e-17;-1.110223e-16;-7.610747e-18;0.705538;1.110223e-16;-1.110223e-16;0
0.031855;-4.098042;0.749581;8.39567e-13;0;0;8.39567e-13;2.220446e-16;-1.110223e-16;3.073636e-17;0;0;0;0;2.248573e-16;-1.13835e-16;1.693461e-16;45;0;2.257948e-16;1.990152e-16;2.220446e-16;4.297296e-17;1.849976e-17;-1.110223e-16;-2.44732e-17;0.749581;1.110223e-16;-1.110223e-16;0
0.099021;-4.098042;0.797681;8.39567e-13;0;0;8.39567e-13;0;-1.110223e-16;4.270437e-17;0;0;0;0;1.452563e-17;-1.255479e-16;7.003679e-17;45;0;9.338238e-17;8.893679e-17;0;5.606234e-17;2.93464e-17;-1.110223e-16;-2.671594e-17;0.797681;-1.110223e-16;1.110223e-16;0
0.166186;-4.098042;0.834545;8.39567e-13;0;0;8.39567e-13;0;2.220446e-16;8.824072e-18;0;0;0;0;2.223947e-16;-3.501173e-19;1.113724e-16;45;0;1.484966e-16;1.4838e-16;0;3.501958e-17;-1.737144e-17;2.220446e-16;-5.239102e-17;0.834545;2.220446e-16;-2.220446e-16;0
0.233352;-4.098042;0.894408;8.39567e-13;0;0;8.39567e-13;2.220446e-16;0;-6.303109e-18;0;0;0;0;2.222234e-16;-1.787804e-19;1.112011e-16;45;0;1.482681e-16;1.482086e-16;2.220446e-16;-2.58635e-17;1.325729e-17;0;3.912079e-17;0.894408;2.220446e-16;-2.220446e-16;0
0.300517;-4.098042;0.917401;8.39567e-13;0;0;8.39567e-13;-4.440892e-16;2.220446e-16;9.916977e-18;0;0;0;0;2.221922e-16;-4.442368e-16;3.332145e-16;45;0;4.44286e-16;3.918172e-16;-4.440892e-16;7.133706e-17;-5.150311e-17;2.220446e-16;-1.228402e-16;0.917401;-2.220446e-16;2.220446e-16;0
0.367682;-4.098042;0.944061;8.39567e-13;0;0;8.39567e-13;2.220446e-16;-1.110223e-16;-7.244632e-18;0;0;0;0;2.222021e-16;-1.111798e-16;1.66691e-16;45;0;2.222546e-16;1.960035e-16;2.220446e-16;4.684789e-18;-1.917405e-17;-1.110223e-16;-2.385884e-17;0.944061;1.110223e-16;-1.110223e-16;0
0.434848;-4.098042;0.962142;8.39567e-13;0;0;8.39567e-13;2.220446e-16;-1.110223e-16;-2.911628e-18;0;0;0;0;2.220701e-16;-1.110478e-16;1.665589e-16;45;0;2.220785e-16;1.958538e-16;2.220446e-16;-2.603826e-17;2.0215e-17;-1.110223e-16;4.625326e-17;0.962142;1.110223e-16;-1.110223e-16;0
0.502013;-4.098042;0.976508;8.39567e-13;0;0;8.39567e-13;-1.110223e-16;2.220446e-16;-1.559208e-17;0;0;0;0;2.227729e-16;-1.117506e-16;1.672618e-16;45;0;2.230157e-16;1.966508e-16;-1.110223e-16;-2.576997e-17;-5.414187e-18;2.220446e-16;2.035578e-17;0.976508;1.110223e-16;-1.110223e-16;0
0.569178;-4.098042;0.989979;8.39567e-13;0;0;8.39567e-13;2.220446e-16;-1.110223e-16;3.688381e-17;0;0;0;0;2.260802e-16;-1.150579e-16;1.705691e-16;45;0;2.274254e-16;2.004028e-16;2.220446e-16;4.246464e-17;3.130298e-17;-1.110223e-16;-1.116166e-17;0.989979;1.110223e-16;-1.110223e-16;0
0.636344;-4.098042;0.974001;8.39567e-13;0;0;8.39567e-13;-1.110223e-16;0;-2.00472e-17;0;0;0;0;3.508999e-18;-1.145313e-16;5.902015e-17;45;0;7.869353e-17;7.755033e-17;-1.110223e-16;5.522763e-18;-4.561716e-17;0;-5.113992e-17;0.974001;-1.110223e-16;1.110223e-16;0
0.703509;-4.098042;0.949733;8.39567e-13;0;0;8.39567e-13;-3.330669e-16;2.220446e-16;-1.459479e-17;0;0;0;0;2.224281e-16;-3.334504e-16;2.779392e-16;45;0;3.705856e-16;3.230632e-16;-3.330669e-16;-1.748034e-17;-1.170924e-17;2.220446e-16;5.7711e-18;0.949733;-1.110223e-16;1.110223e-16;0
0.770674;-4.098042;0.961371;8.39567e-13;0;0;8.39567e-13;0;-1.110223e-16;1.416174e-17;0;0;0;0;1.777965e-18;-1.128003e-16;5.728912e-17;45;0;7.638549e-17;7.579979e-17;0;1.29362e-17;1.538728e-17;-1.110223e-16;2.451083e-18;0.961371;-1.110223e-16;1.110223e-16;0
0.83784;-4.098042;0.97781;8.39567e-13;0;0;8.39567e-13;-1.110223e-16;0;1.41821e-18;0;0;0;0;1.81134e-20;-1.110404e-16;5.552926e-17;45;0;7.403902e-17;7.403298e-17;-1.110223e-16;-2.279362e-17;2.563004e-17;0;4.842366e-17;0.97781;-1.110223e-16;1.110223e-16;0
0.905005;-4.098042;0.951973;8.39567e-13;0;0;8.39567e-13;2.220446e-16;2.220446e-16;3.189242e-17;0;0;0;0;2.53937e-16;1.901522e-16;3.189242e-17;45;0;4.252322e-17;1.525417e-16;2.220446e-16;3.512653e-17;2.86583e-17;2.220446e-16;-6.468228e-18;0.951973;4.440892e-16;-4.440892e-16;0
0.97217;-4.098042;0.919098;8.39567e-13;0;0;8.39567e-13;0;0;9.467282e-18;0;0;0;0;9.467282e-18;-9.467282e-18;9.467282e-18;45;0;1.262304e-17;1.093188e-17;0;1.707527e-17;1.859292e-18;0;-1.521598e-17;0.919098;0;0;0
1.039336;-4.098042;0.906682;8.39567e-13;0;0;8.39567e-13;0;0;-2.077275e-17;0;0;0;0;2.077275e-17;-2.077275e-17;2.077275e-17;45;0;2.769699e-17;2.39863e-17;0;-2.636706e-17;-1.517843e-17;0;1.118862e-17;0.906682;0;0;0
1.106501;-4.098042;0.893605;8.39567e-13;0;0;8.39567e-13;2.220446e-16;-1.110223e-16;-1.391317e-17;0;0;0;0;2.226248e-16;-1.116025e-16;1.671136e-16;45;0;2.228182e-16;1.964828e-16;2.220446e-16;-3.325775e-17;5.431416e-18;-1.110223e-16;3.868917e-17;0.893605;1.110223e-16;-1.110223e-16;0
1.173667;-4.098042;0.862962;8.39567e-13;0;0;8.39567e-13;0;-1.110223e-16;-2.083775e-17;0;0;0;0;3.782185e-18;-1.148045e-16;5.929334e-17;45;0;7.905778e-17;7.782769e-17;0;-2.420991e-17;-1.746559e-17;-1.110223e-16;6.744324e-18;0.862962;-1.110223e-16;1.110223e-16;0
1.240832;-4.098042;0.818731;8.39567e-13;0;0;8.39567e-13;0;4.440892e-16;5.09361e-17;0;0;0;0;4.498566e-16;-5.767363e-18;2.27812e-16;45;0;3.037493e-16;3.018452e-16;0;8.074721e-18;9.379748e-17;4.440892e-16;8.572276e-17;0.818731;4.440892e-16;-4.440892e-16;0
1.307997;-4.098042;0.756992;8.39567e-13;0;0;8.39567e-13;0;-1.110223e-16;-1.256903e-17;0;0;0;0;1.405176e-18;-1.124275e-16;5.691633e-17;45;0;7.588843e-17;7.542441e-17;0;1.91437e-17;-4.428175e-17;-1.110223e-16;-6.342544e-17;0.756992;-1.110223e-16;1.110223e-16;0
1.375163;-4.098042;0.686114;8.39567e-13;0;0;8.39567e-13;2.220446e-16;2.220446e-16;-3.75126e-17;0;0;0;0;2.595572e-16;1.84532e-16;3.75126e-17;45;0;5.00168e-17;1.54237e-16;2.220446e-16;-4.400614e-17;-3.101905e-17;2.220446e-16;1.298709e-17;0.686114;4.440892e-16;-4.440892e-16;0
1.442328;-4.098042;0.608893;8.39567e-13;0;0;8.39567e-13;0;-1.110223e-16;-2.323492e-17;0;0;0;0;4.666498e-18;-1.156888e-16;6.017765e-17;45;0;8.023686e-17;7.872748e-17;0;-3.497405e-17;-1.149579e-17;-1.110223e-16;2.347826e-17;0.608893;-1.110223e-16;1.110223e-16;0
1.509493;-4.098042;0.495867;8.39567e-13;0;0;8.39567e-13;-2.220446e-16;0;-2.538935e-18;0;0;0;0;2.902728e-20;-2.220736e-16;1.110513e-16;45;0;1.480684e-16;1.480588e-16;-2.220446e-16;1.919835e-17;-2.427622e-17;0;-4.347458e-17;0.495867;-2.220446e-16;2.220446e-16;0
1.576659;-4.098042;0.429759;8.39567e-13;0;0;8.39567e-13;0;0;5.72167e-17;0;0;0;0;5.72167e-17;-5.72167e-17;5.72167e-17;45;0;7.628893e-17;6.606815e-17;0;3.176157e-17;8.267182e-17;0;5.091024e-17;0.429759;0;0;0
-0.303971;-4.165207;0.354377;8.39567e-13;0;0;8.39567e-13;-1.110223e-16;2.220446e-16;3.518539e-17;0;0;0;0;2.25721e-16;-1.146987e-16;1.702099e-16;45;0;2.269465e-16;1.999952e-16;-1.110223e-16;8.480487e-17;-1.443408e-17;2.220446e-16;-9.923896e-17;0.354377;1.110223e-16;-1.110223e-16;0
-0.236806;-4.165207;0.46602;8.39567e-13;0;0;8.39567e-13;-2.220446e-16;-1.110223e-16;-4.532047e-17;0;0;0;0;-9.487152e-17;-2.381954e-16;7.166193e-17;45;0;9.554925e-17;1.384673e-16;-2.220446e-16;-7.913401e-17;-1.150692e-17;-1.110223e-16;6.762709e-17;0.46602;-3.330669e-16;3.330669e-16;0
-0.169641;-4.165207;0.533185;8.39567e-13;0;0;8.39567e-13;0;0;4.298565e-17;0;0;0;0;4.298565e-17;-4.298565e-17;4.298565e-17;45;0;5.731421e-17;4.963555e-17;0;6.833211e-17;1.763919e-17;0;-5.069293e-17;0.533185;0;0;0
-0.102475;-4.165207;0.651607;8.39567e-13;0;0;8.39567e-13;2.220446e-16;0;-2.720502e-17;0;0;0;0;2.253292e-16;-3.284587e-18;1.143069e-16;45;0;1.524092e-16;1.513262e-16;2.220446e-16;-6.710055e-17;1.269051e-17;0;7.979106e-17;0.651607;2.220446e-16;-2.220446e-16;0
-0.03531;-4.165207;0.720599;8.39567e-13;0;0;8.39567e-13;0;2.220446e-16;3.507904e-17;0;0;0;0;2.274547e-16;-5.41004e-18;1.164323e-16;45;0;1.552431e-16;1.534716e-16;0;5.820147e-17;1.195661e-17;2.220446e-16;-4.624486e-17;0.720599;2.220446e-16;-2.220446e-16;0
0.031855;-4.165207;0.773837;8.39567e-13;0;0;8.39567e-13;2.220446e-16;2.220446e-16;-3.670776e-17;0;0;0;0;2.587524e-16;1.853368e-16;3.670776e-17;45;0;4.894368e-17;1.539786e-16;2.220446e-16;-2.026214e-17;-5.315338e-17;2.220446e-16;-3.289124e-17;0.773837;4.440892e-16;-4.440892e-16;0
0.099021;-4.165207;0.801745;8.39567e-13;0;0;8.39567e-13;-1.110223e-16;2.220446e-16;2.056941e-17;0;0;0;0;2.233101e-16;-1.122878e-16;1.67799e-16;45;0;2.237319e-16;1.972601e-16;-1.110223e-16;1.673356e-17;2.440527e-17;2.220446e-16;7.671711e-18;0.801745;1.110223e-16;-1.110223e-16;0
0.166186;-4.165207;0.846497;8.39567e-13;0;0;8.39567e-13;-3.330669e-16;2.220446e-16;-6.367017e-17;0;0;0;0;2.292538e-16;-3.402761e-16;2.84765e-16;45;0;3.796866e-16;3.308942e-16;-3.330669e-16;-1.03342e-16;-2.399838e-17;2.220446e-16;7.934359e-17;0.846497;-1.110223e-16;1.110223e-16;0
0.233352;-4.165207;0.879354;8.39567e-13;0;0;8.39567e-13;0;0;2.559709e-17;0;0;0;0;2.559709e-17;-2.559709e-17;2.559709e-17;45;0;3.412946e-17;2.955698e-17;0;4.165411e-17;9.540075e-18;0;-3.211404e-17;0.879354;0;0;0
0.300517;-4.165207;0.895138;8.39567e-13;0;0;8.39567e-13;-1.110223e-16;-1.110223e-16;-3.446309e-18;0;0;0;0;-1.07576e-16;-1.144686e-16;3.446309e-18;45;0;4.595079e-18;7.412177e-17;-1.110223e-16;-1.154219e-17;4.649573e-18;-1.110223e-16;1.619176e-17;0.895138;-2.220446e-16;2.220446e-16;0
0.367682;-4.165207;0.943028;8.39567e-13;0;0;8.39567e-13;4.440892e-16;-3.330669e-16;1.177515e-17;0;0;0;0;4.442676e-16;-3.332453e-16;3.887564e-16;45;0;5.183419e-16;4.504201e-16;4.440892e-16;-8.014664e-18;3.156495e-17;-3.330669e-16;3.957962e-17;0.943028;1.110223e-16;-1.110223e-16;0
0.434848;-4.165207;0.966046;8.39567e-13;0;0;8.39567e-13;-3.330669e-16;-1.110223e-16;-1.234518e-17;0;0;0;0;-1.10338e-16;-3.337512e-16;1.117066e-16;45;0;1.489421e-16;1.963431e-16;-3.330669e-16;-1.204849e-17;-1.264186e-17;-1.110223e-16;-5.933744e-19;0.966046;-4.440892e-16;4.440892e-16;0
0.502013;-4.165207;0.971866;8.39567e-13;0;0;8.39567e-13;0;0;-1.514739e-18;0;0;0;0;1.514739e-18;-1.514739e-18;1.514739e-18;45;0;2.019652e-18;1.74907e-18;0;-1.319706e-17;1.016758e-17;0;2.336464e-17;0.971866;0;0;0
0.569178;-4.165207;0.984686;8.39567e-13;0;0;8.39567e-13;-1.110223e-16;2.220446e-16;-1.739716e-17;0;0;0;0;2.229509e-16;-1.119285e-16;1.674397e-16;45;0;2.232529e-16;1.968526e-16;-1.110223e-16;-1.575965e-17;-1.903467e-17;2.220446e-16;-3.275018e-18;0.984686;1.110223e-16;-1.110223e-16;0
0.636344;-4.165207;1.000523;8.39567e-13;0;0;8.39567e-13;0;2.220446e-16;-1.289911e-17;0;0;0;0;2.227914e-16;-7.468291e-19;1.117691e-16;45;0;1.490255e-16;1.487772e-16;0;-1.557088e-17;-1.022734e-17;2.220446e-16;5.343538e-18;1.000523;2.220446e-16;-2.220446e-16;0
0.703509;-4.165207;0.972818;8.39567e-13;0;0;8.39567e-13;0;-1.110223e-16;1.190342e-17;0;0;0;0;1.2619e-18;-1.122842e-16;5.677305e-17;45;0;7.56974e-17;7.528029e-17;0;-6.090686e-18;2.989753e-17;-1.110223e-16;3.598822e-17;0.972818;-1.110223e-16;1.110223e-16;0
0.770674;-4.165207;0.955889;8.39567e-13;0;0;8.39567e-13;-3.330669e-16;2.220446e-16;3.838667e-18;0;0;0;0;2.220712e-16;-3.330935e-16;2.775823e-16;45;0;3.701097e-16;3.226538e-16;-3.330669e-16;1.153796e-17;-3.860624e-18;2.220446e-16;-1.539858e-17;0.955889;-1.110223e-16;1.110223e-16;0
0.83784;-4.165207;0.956216;8.39567e-13;0;0;8.39567e-13;-1.110223e-16;2.220446e-16;3.643385e-17;0;0;0;0;2.259835e-16;-1.149612e-16;1.704723e-16;45;0;2.272964e-16;2.002931e-16;-1.110223e-16;2.181737e-17;5.105033e-17;2.220446e-16;2.923296e-17;0.956216;1.110223e-16;-1.110223e-16;0
0.905005;-4.165207;0.938858;8.39567e-13;0;0;8.39567e-13;2.220446e-16;0;-7.89373e-18;0;0;0;0;2.223249e-16;-2.802699e-19;1.113026e-16;45;0;1.484034e-16;1.483101e-16;2.220446e-16;4.247325e-18;-2.003479e-17;0;-2.428211e-17;0.938858;2.220446e-16;-2.220446e-16;0
0.97217;-4.165207;0.924442;8.39567e-13;0;0;8.39567e-13;2.220446e-16;2.220446e-16;-3.5768e-17;0;0;0;0;2.578126e-16;1.862766e-16;3.5768e-17;45;0;4.769067e-17;1.536834e-16;2.220446e-16;-2.164139e-17;-4.989461e-17;2.220446e-16;-2.825322e-17;0.924442;4.440892e-16;-4.440892e-16;0
1.039336;-4.165207;0.927667;8.39567e-13;0;0;8.39567e-13;0;0;7.400632e-19;0;0;0;0;7.400632e-19;-7.400632e-19;7.400632e-19;45;0;9.867509e-19;8.545514e-19;0;3.964078e-18;-2.483951e-18;0;-6.448029e-18;0.927667;0;0;0
1.106501;-4.165207;0.897039;8.39567e-13;0;0;8.39567e-13;2.220446e-16;4.440892e-16;2.585548e-17;0;0;0;0;4.470601e-16;2.190737e-16;1.139932e-16;45;0;1.51991e-16;2.581274e-16;2.220446e-16;2.549008e-17;2.622087e-17;4.440892e-16;7.307939e-19;0.897039;6.661338e-16;-6.661338e-16;0
1.173667;-4.165207;0.845553;8.39567e-13;0;0;8.39567e-13;2.220446e-16;0;3.247138e-17;0;0;0;0;2.266957e-16;-4.651125e-18;1.156734e-16;45;0;1.542312e-16;1.527045e-16;2.220446e-16;3.245634e-17;3.248641e-17;0;3.00754e-20;0.845553;2.220446e-16;-2.220446e-16;0
1.240832;-4.165207;0.786059;8.39567e-13;0;0;8.39567e-13;2.220446e-16;2.220446e-16;2.255747e-17;0;0;0;0;2.446021e-16;1.994871e-16;2.255747e-17;45;0;3.007662e-17;1.503039e-16;2.220446e-16;-2.518061e-18;4.763299e-17;2.220446e-16;5.015105e-17;0.786059;4.440892e-16;-4.440892e-16;0
1.307997;-4.165207;0.730371;8.39567e-13;0;0;8.39567e-13;2.220446e-16;-1.110223e-16;3.1102e-18;0;0;0;0;2.220736e-16;-1.110513e-16;1.665625e-16;45;0;2.220833e-16;1.958579e-16;2.220446e-16;2.22947e-17;-1.60743e-17;-1.110223e-16;-3.836901e-17;0.730371;1.110223e-16;-1.110223e-16;0
1.375163;-4.165207;0.685558;8.39567e-13;0;0;8.39567e-13;0;2.220446e-16;3.427639e-17;0;0;0;0;2.272153e-16;-5.170738e-18;1.16193e-16;45;0;1.549241e-16;1.532296e-16;0;5.361052e-17;1.494227e-17;2.220446e-16;-3.866825e-17;0.685558;2.220446e-16;-2.220446e-16;0
1.442328;-4.165207;0.607758;8.39567e-13;0;0;8.39567e-13;2.220446e-16;-1.110223e-16;2.211496e-17;0;0;0;0;2.235066e-16;-1.124843e-16;1.679954e-16;45;0;2.239939e-16;1.974829e-16;2.220446e-16;1.761156e-17;2.661837e-17;-1.110223e-16;9.006803e-18;0.607758;1.110223e-16;-1.110223e-16;0
1.509493;-4.165207;0.510151;8.39567e-13;0;0;8.39567e-13;0;2.220446e-16;-3.012539e-17;0;0;0;0;2.260592e-16;-4.014607e-18;1.150369e-16;45;0;1.533826e-16;1.52062e-16;0;-7.269238e-18;-5.298153e-17;2.220446e-16;-4.57123e-17;0.510151;2.220446e-16;-2.220446e-16;0
1.576659;-4.165207;0.457585;8.39567e-13;0;0;8.39567e-13;0;-2.220446e-16;1.672128e-17;0;0;0;0;1.252151e-18;-2.232968e-16;1.122745e-16;45;0;1.496993e-16;1.492836e-16;0;3.344256e-17;0;-2.220446e-16;-3.344256e-17;0.457585;-2.220446e-16;2.220446e-16;0
-0.303971;-4.232373;0.348062;8.39567e-13;0;0;8.39567e-13;2.220446e-16;-3.330669e-16;2.7253e-17;0;0;0;0;2.233794e-16;-3.344017e-16;2.788905e-16;45;0;3.71854e-16;3.241545e-16;2.220446e-16;4.186266e-17;1.264334e-17;-3.330669e-16;-2.921931e-17;0.348062;-1.110223e-16;1.110223e-16;0
-0.236806;-4.232373;0.493081;8.39567e-13;0;0;8.39567e-13;0;-1.110223e-16;-3.281623e-17;0;0;0;0;8.974449e-18;-1.199967e-16;6.44856e-17;45;0;8.59808e-17;8.315091e-17;0;-4.519053e-17;-2.044192e-17;-1.110223e-16;2.474861e-17;0.493081;-1.110223e-16;1.110223e-16;0
-0.169641;-4.232373;0.575732;8.39567e-13;0;0;8.39567e-13;2.220446e-16;-1.110223e-16;1.079136e-17;0;0;0;0;2.223939e-16;-1.113716e-16;1.668827e-16;45;0;2.225103e-16;1.96221e-16;2.220446e-16;4.685704e-17;-2.527431e-17;-1.110223e-16;-7.213135e-17;0.575732;1.110223e-16;-1.110223e-16;0
-0.102475;-4.232373;0.661875;8.39567e-13;0;0;8.39567e-13;-2.220446e-16;-1.110223e-16;-3.131398e-17;0;0;0;0;-1.027992e-16;-2.302677e-16;6.373424e-17;45;0;8.497898e-17;1.331992e-16;-2.220446e-16;-3.205576e-17;-3.05722e-17;-1.110223e-16;1.483567e-18;0.661875;-3.330669e-16;3.330669e-16;0
-0.03531;-4.232373;0.710599;8.39567e-13;0;0;8.39567e-13;-1.110223e-16;2.220446e-16;-2.828893e-17;0;0;0;0;2.244302e-16;-1.134079e-16;1.689191e-16;45;0;2.252254e-16;1.985307e-16;-1.110223e-16;-3.611968e-17;-2.045818e-17;2.220446e-16;1.56615e-17;0.710599;1.110223e-16;-1.110223e-16;0
0.031855;-4.232373;0.754448;8.39567e-13;0;0;8.39567e-13;2.220446e-16;-1.110223e-16;-9.762721e-18;0;0;0;0;2.223305e-16;-1.113082e-16;1.668194e-16;45;0;2.224258e-16;1.961491e-16;2.220446e-16;1.984619e-17;-3.937163e-17;-1.110223e-16;-5.921783e-17;0.754448;1.110223e-16;-1.110223e-16;0
0.099021;-4.232373;0.787415;8.39567e-13;0;0;8.39567e-13;0;0;3.8158e-17;0;0;0;0;3.8158e-17;-3.8158e-17;3.8158e-17;45;0;5.087734e-17;4.406107e-17;0;6.83766e-17;7.939408e-18;0;-6.043719e-17;0.787415;0;0;0
0.166186;-4.232373;0.858002;8.39567e-13;0;0;8.39567e-13;0;2.220446e-16;2.428621e-17;0;0;0;0;2.246699e-16;-2.625274e-18;1.136476e-16;45;0;1.515301e-16;1.506626e-16;0;1.377029e-17;3.480214e-17;2.220446e-16;2.103185e-17;0.858002;2.220446e-16;-2.220446e-16;0
0.233352;-4.232373;0.874153;8.39567e-13;0;0;8.39567e-13;-3.330669e-16;0;-1.255525e-17;0;0;0;0;4.726105e-19;-3.335395e-16;1.670061e-16;45;0;2.226747e-16;2.225174e-16;-3.330669e-16;-1.018737e-17;-1.492313e-17;0;-4.73576e-18;0.874153;-3.330669e-16;3.330669e-16;0
0.300517;-4.232373;0.900292;8.39567e-13;0;0;8.39567e-13;2.220446e-16;0;5.809206e-18;0;0;0;0;2.221965e-16;-1.518785e-19;1.111742e-16;45;0;1.482322e-16;1.481816e-16;2.220446e-16;-1.511266e-17;2.673108e-17;0;4.184374e-17;0.900292;2.220446e-16;-2.220446e-16;0
0.367682;-4.232373;0.945743;8.39567e-13;0;0;8.39567e-13;2.220446e-16;-3.330669e-16;2.841625e-17;0;0;0;0;2.234954e-16;-3.345177e-16;2.790066e-16;45;0;3.720088e-16;3.242876e-16;2.220446e-16;4.982604e-17;7.006456e-18;-3.330669e-16;-4.281959e-17;0.945743;-1.110223e-16;1.110223e-16;0
0.434848;-4.232373;0.958979;8.39567e-13;0;0;8.39567e-13;0;2.220446e-16;2.361928e-18;0;0;0;0;2.220697e-16;-2.51214e-20;1.110474e-16;45;0;1.480632e-16;1.480549e-16;0;-1.554821e-17;2.027206e-17;2.220446e-16;3.582027e-17;0.958979;2.220446e-16;-2.220446e-16;0
0.502013;-4.232373;0.96581;8.39567e-13;0;0;8.39567e-13;2.220446e-16;2.220446e-16;3.183491e-17;0;0;0;0;2.538795e-16;1.902097e-16;3.183491e-17;45;0;4.244655e-17;1.525257e-16;2.220446e-16;2.210992e-17;4.155991e-17;2.220446e-16;1.944998e-17;0.96581;4.440892e-16;-4.440892e-16;0
0.569178;-4.232373;0.992712;8.39567e-13;0;0;8.39567e-13;0;2.220446e-16;-2.287007e-18;0;0;0;0;2.220682e-16;-2.355314e-20;1.110459e-16;45;0;1.480611e-16;1.480533e-16;0;1.812726e-17;-2.270128e-17;2.220446e-16;-4.082854e-17;0.992712;2.220446e-16;-2.220446e-16;0
0.636344;-4.232373;1.009506;8.39567e-13;0;0;8.39567e-13;2.220446e-16;0;-7.858893e-18;0;0;0;0;2.223224e-16;-2.778047e-19;1.113001e-16;45;0;1.484001e-16;1.483076e-16;2.220446e-16;-2.083258e-17;5.114796e-18;0;2.594738e-17;1.009506;2.220446e-16;-2.220446e-16;0
0.703509;-4.232373;0.984568;8.39567e-13;0;0;8.39567e-13;2.220446e-16;2.220446e-16;2.436041e-17;0;0;0;0;2.46405e-16;1.976842e-16;2.436041e-17;45;0;3.248055e-17;1.506786e-16;2.220446e-16;-1.630511e-17;6.502593e-17;2.220446e-16;8.133104e-17;0.984568;4.440892e-16;-4.440892e-16;0
0.770674;-4.232373;0.971803;8.39567e-13;0;0;8.39567e-13;-3.330669e-16;0;-1.041371e-17;0;0;0;0;3.252787e-19;-3.333922e-16;1.668587e-16;45;0;2.224783e-16;2.2237e-16;-3.330669e-16;-4.827593e-17;2.744851e-17;0;7.572443e-17;0.971803;-3.330669e-16;3.330669e-16;0
0.83784;-4.232373;0.947778;8.39567e-13;0;0;8.39567e-13;2.220446e-16;0;-6.077001e-18;0;0;0;0;2.222108e-16;-1.661933e-19;1.111885e-16;45;0;1.482513e-16;1.48196e-16;2.220446e-16;-3.998504e-17;2.783103e-17;0;6.781607e-17;0.947778;2.220446e-16;-2.220446e-16;0
0.905005;-4.232373;0.933247;8.39567e-13;0;0;8.39567e-13;-1.110223e-16;2.220446e-16;-4.672511e-17;0;0;0;0;2.284754e-16;-1.174531e-16;1.729642e-16;45;0;2.30619e-16;2.031216e-16;-1.110223e-16;-4.493286e-17;-4.851736e-17;2.220446e-16;-3.584492e-18;0.933247;1.110223e-16;-1.110223e-16;0
0.97217;-4.232373;0.936138;8.39567e-13;0;0;8.39567e-13;0;0;2.701718e-17;0;0;0;0;2.701718e-17;-2.701718e-17;2.701718e-17;45;0;3.602291e-17;3.119675e-17;0;1.061701e-17;4.341735e-17;0;3.280035e-17;0.936138;0;0;0
1.039336;-4.232373;0.924585;8.39567e-13;0;0;8.39567e-13;-1.110223e-16;2.220446e-16;3.097807e-17;0;0;0;0;2.249013e-16;-1.13879e-16;1.693902e-16;45;0;2.258536e-16;1.990651e-16;-1.110223e-16;-1.352261e-17;7.547875e-17;2.220446e-16;8.900136e-17;0.924585;1.110223e-16;-1.110223e-16;0
1.106501;-4.232373;0.869515;8.39567e-13;0;0;8.39567e-13;-2.220446e-16;-1.110223e-16;4.004692e-18;0;0;0;0;-1.10878e-16;-2.221889e-16;5.565542e-17;45;0;7.420722e-17;1.282809e-16;-2.220446e-16;8.009384e-18;0;-1.110223e-16;-8.009384e-18;0.869515;-3.330669e-16;3.330669e-16;0
1.173667;-4.232373;0.81158;8.39567e-13;0;0;8.39567e-13;-1.110223e-16;2.220446e-16;4.088924e-17;0;0;0;0;2.26991e-16;-1.159686e-16;1.714798e-16;45;0;2.286397e-16;2.014365e-16;-1.110223e-16;5.114911e-17;3.062938e-17;2.220446e-16;-2.051973e-17;0.81158;1.110223e-16;-1.110223e-16;0
1.240832;-4.232373;0.765814;8.39567e-13;0;0;8.39567e-13;-1.110223e-16;-1.110223e-16;6.284618e-17;0;0;0;0;-4.817613e-17;-1.738685e-16;6.284618e-17;45;0;8.37949e-17;1.036551e-16;-1.110223e-16;8.474508e-17;4.094727e-17;-1.110223e-16;-4.379782e-17;0.765814;-2.220446e-16;2.220446e-16;0
1.307997;-4.232373;0.721577;8.39567e-13;0;0;8.39567e-13;0;-3.330669e-16;5.158553e-17;0;0;0;0;7.806611e-18;-3.408735e-16;1.743401e-16;45;0;2.324534e-16;2.298954e-16;0;4.647184e-17;5.669923e-17;-3.330669e-16;1.022739e-17;0.721577;-3.330669e-16;3.330669e-16;0
1.375163;-4.232373;0.675831;8.39567e-13;0;0;8.39567e-13;-1.110223e-16;0;3.471757e-17;0;0;0;0;9.962487e-18;-1.209848e-16;6.547364e-17;45;0;8.729819e-17;8.41741e-17;-1.110223e-16;5.267453e-17;1.67606e-17;0;-3.591393e-17;0.675831;-1.110223e-16;1.110223e-16;0
1.442328;-4.232373;0.6096;8.39567e-13;0;0;8.39567e-13;2.220446e-16;2.220446e-16;1.553044e-17;0;0;0;0;2.37575e-16;2.065142e-16;1.553044e-17;45;0;2.070725e-17;1.49112e-16;2.220446e-16;3.106087e-17;0;2.220446e-16;-3.106087e-17;0.6096;4.440892e-16;-4.440892e-16;0
1.509493;-4.232373;0.517403;8.39567e-13;0;0;8.39567e-13;2.220446e-16;-1.110223e-16;3.297401e-17;0;0;0;0;2.252777e-16;-1.142554e-16;1.697665e-16;45;0;2.263554e-16;1.994922e-16;2.220446e-16;6.594803e-17;0;-1.110223e-16;-6.594803e-17;0.517403;1.110223e-16;-1.110223e-16;0
1.576659;-4.232373;0.458853;8.39567e-13;0;0;8.39567e-13;2.220446e-16;2.220446e-16;-3.044018e-17;0;0;0;0;2.524848e-16;1.916044e-16;3.044018e-17;45;0;4.05869e-17;1.521456e-16;2.220446e-16;7.003435e-18;-6.788379e-17;2.220446e-16;-7.488723e-17;0.458853;4.440892e-16;-4.440892e-16;0
-0.303971;-4.299538;0.318916;8.39567e-13;0;0;8.39567e-13;-2.220446e-16;0;-1.153352e-16;0;0;0;0;4.906566e-17;-2.711103e-16;1.60088e-16;45;0;2.134506e-16;1.991208e-16;-2.220446e-16;-2.01461e-16;-2.920932e-17;0;1.722517e-16;0.318916;-2.220446e-16;2.220446e-16;0
-0.236806;-4.299538;0.489754;8.39567e-13;0;0;8.39567e-13;-1.110223e-16;0;1.157588e-17;0;0;0;0;1.19413e-18;-1.122164e-16;5.670528e-17;45;0;7.560704e-17;7.521216e-17;-1.110223e-16;4.254632e-17;-1.939455e-17;0;-6.194087e-17;0.489754;-1.110223e-16;1.110223e-16;0
-0.169641;-4.299538;0.576737;8.39567e-13;0;0;8.39567e-13;0;0;-1.851082e-17;0;0;0;0;1.851082e-17;-1.851082e-17;1.851082e-17;45;0;2.46811e-17;2.137446e-17;0;-1.708532e-17;-1.993633e-17;0;-2.851009e-18;0.576737;0;0;0
-0.102475;-4.299538;0.644123;8.39567e-13;0;0;8.39567e-13;2.220446e-16;0;1.658277e-17;0;0;0;0;2.232762e-16;-1.231606e-18;1.122539e-16;45;0;1.496719e-16;1.49263e-16;2.220446e-16;-1.645295e-18;3.481084e-17;0;3.645614e-17;0.644123;2.220446e-16;-2.220446e-16;0
-0.03531;-4.299538;0.7185;8.39567e-13;0;0;8.39567e-13;0;2.220446e-16;-1.847308e-17;0;0;0;0;2.23571e-16;-1.526382e-18;1.125487e-16;45;0;1.500649e-16;1.495587e-16;0;-2.268446e-17;-1.426171e-17;2.220446e-16;8.422746e-18;0.7185;2.220446e-16;-2.220446e-16;0
0.031855;-4.299538;0.751729;8.39567e-13;0;0;8.39567e-13;0;2.220446e-16;-8.033394e-18;0;0;0;0;2.223349e-16;-2.902623e-19;1.113126e-16;45;0;1.484168e-16;1.483201e-16;0;-9.94949e-18;-6.1173e-18;2.220446e-16;3.83219e-18;0.751729;2.220446e-16;-2.220446e-16;0
0.099021;-4.299538;0.818392;8.39567e-13;0;0;8.39567e-13;2.220446e-16;0;3.657881e-17;0;0;0;0;2.279153e-16;-5.870646e-18;1.168929e-16;45;0;1.558573e-16;1.539377e-16;2.220446e-16;5.895099e-17;1.420665e-17;0;-4.474434e-17;0.818392;2.220446e-16;-2.220446e-16;0
0.166186;-4.299538;0.890212;8.39567e-13;0;0;8.39567e-13;2.220446e-16;2.220446e-16;4.080871e-17;0;0;0;0;2.628533e-16;1.812359e-16;4.080871e-17;45;0;5.441161e-17;1.553489e-16;2.220446e-16;1.443426e-17;6.718317e-17;2.220446e-16;5.274891e-17;0.890212;4.440892e-16;-4.440892e-16;0
0.233352;-4.299538;0.887358;8.39567e-13;0;0;8.39567e-13;0;2.220446e-16;-1.544219e-17;0;0;0;0;2.231134e-16;-1.068789e-18;1.120911e-16;45;0;1.494548e-16;1.490998e-16;0;-1.55053e-17;-1.537908e-17;2.220446e-16;1.262274e-19;0.887358;2.220446e-16;-2.220446e-16;0
0.300517;-4.299538;0.901874;8.39567e-13;0;0;8.39567e-13;2.220446e-16;-1.110223e-16;-2.507887e-18;0;0;0;0;2.220635e-16;-1.110412e-16;1.665523e-16;45;0;2.220698e-16;1.958463e-16;2.220446e-16;-3.856834e-17;3.355257e-17;-1.110223e-16;7.212091e-17;0.901874;1.110223e-16;-1.110223e-16;0
0.367682;-4.299538;0.934734;8.39567e-13;0;0;8.39567e-13;0;-4.440892e-16;-4.501301e-18;0;0;0;0;4.562064e-20;-4.441348e-16;2.220902e-16;45;0;2.961203e-16;2.961051e-16;0;4.726717e-17;-5.626978e-17;-4.440892e-16;-1.035369e-16;0.934734;-4.440892e-16;4.440892e-16;0
0.434848;-4.299538;0.962041;8.39567e-13;0;0;8.39567e-13;2.220446e-16;0;4.664464e-17;0;0;0;0;2.314452e-16;-9.400592e-18;1.204229e-16;45;0;1.605639e-16;1.575239e-16;2.220446e-16;3.528727e-17;5.8002e-17;0;2.271473e-17;0.962041;2.220446e-16;-2.220446e-16;0
0.502013;-4.299538;0.974272;8.39567e-13;0;0;8.39567e-13;-1.110223e-16;0;-4.090047e-17;0;0;0;0;1.344055e-17;-1.244628e-16;6.89517e-17;45;0;9.193559e-17;8.779901e-17;-1.110223e-16;-5.012542e-17;-3.167552e-17;0;1.84499e-17;0.974272;-1.110223e-16;1.110223e-16;0
0.569178;-4.299538;0.994389;8.39567e-13;0;0;8.39567e-13;2.220446e-16;0;2.90087e-17;0;0;0;0;2.257718e-16;-3.727235e-18;1.147495e-16;45;0;1.529994e-16;1.517722e-16;2.220446e-16;6.315914e-17;-5.14174e-18;0;-6.830088e-17;0.994389;2.220446e-16;-2.220446e-16;0
0.636344;-4.299538;0.979748;8.39567e-13;0;0;8.39567e-13;2.220446e-16;-1.110223e-16;1.447075e-17;0;0;0;0;2.226721e-16;-1.116498e-16;1.67161e-16;45;0;2.228813e-16;1.965365e-16;2.220446e-16;2.894151e-17;0;-1.110223e-16;-2.894151e-17;0.979748;1.110223e-16;-1.110223e-16;0
0.703509;-4.299538;0.952697;8.39567e-13;0;0;8.39567e-13;-1.110223e-16;0;-1.770596e-18;0;0;0;0;2.823047e-20;-1.110505e-16;5.553938e-17;45;0;7.405251e-17;7.40431e-17;-1.110223e-16;4.189319e-18;-7.730511e-18;0;-1.191983e-17;0.952697;-1.110223e-16;1.110223e-16;0
0.770674;-4.299538;0.968748;8.39567e-13;0;0;8.39567e-13;2.220446e-16;2.220446e-16;3.692739e-17;0;0;0;0;2.58972e-16;1.851172e-16;3.692739e-17;45;0;4.923653e-17;1.540486e-16;2.220446e-16;2.924313e-17;4.461166e-17;2.220446e-16;1.536853e-17;0.968748;4.440892e-16;-4.440892e-16;0
0.83784;-4.299538;0.964574;8.39567e-13;0;0;8.39567e-13;2.220446e-16;-1.110223e-16;-1.693299e-17;0;0;0;0;2.229033e-16;-1.11881e-16;1.673921e-16;45;0;2.231895e-16;1.967986e-16;2.220446e-16;-1.862262e-17;-1.524336e-17;-1.110223e-16;3.379262e-18;0.964574;1.110223e-16;-1.110223e-16;0
0.905005;-4.299538;0.9576;8.39567e-13;0;0;8.39567e-13;2.220446e-16;2.220446e-16;-1.011541e-17;0;0;0;0;2.3216e-16;2.119292e-16;1.011541e-17;45;0;1.348722e-17;1.484898e-16;2.220446e-16;-3.030033e-17;1.00695e-17;2.220446e-16;4.036983e-17;0.9576;4.440892e-16;-4.440892e-16;0
0.97217;-4.299538;0.937227;8.39567e-13;0;0;8.39567e-13;-1.110223e-16;-1.110223e-16;1.708196e-17;0;0;0;0;-9.394034e-17;-1.281043e-16;1.708196e-17;45;0;2.277595e-17;7.659803e-17;-1.110223e-16;2.724532e-17;6.918595e-18;-1.110223e-16;-2.032673e-17;0.937227;-2.220446e-16;2.220446e-16;0
1.039336;-4.299538;0.899354;8.39567e-13;0;0;8.39567e-13;0;2.220446e-16;-1.396043e-17;0;0;0;0;2.229189e-16;-8.742807e-19;1.118966e-16;45;0;1.491954e-16;1.489049e-16;0;-2.557882e-17;-2.342049e-18;2.220446e-16;2.323677e-17;0.899354;2.220446e-16;-2.220446e-16;0
1.106501;-4.299538;0.874199;8.39567e-13;0;0;8.39567e-13;-1.110223e-16;-1.110223e-16;1.91318e-17;0;0;0;0;-9.189051e-17;-1.301541e-16;1.91318e-17;45;0;2.550906e-17;7.72414e-17;-1.110223e-16;4.73266e-17;-9.063008e-18;-1.110223e-16;-5.63896e-17;0.874199;-2.220446e-16;2.220446e-16;0
1.173667;-4.299538;0.84709;8.39567e-13;0;0;8.39567e-13;0;2.220446e-16;-1.208881e-17;0;0;0;0;2.227008e-16;-6.562139e-19;1.116785e-16;45;0;1.489047e-16;1.486864e-16;0;1.169197e-17;-3.586959e-17;2.220446e-16;-4.756156e-17;0.84709;2.220446e-16;-2.220446e-16;0
1.240832;-4.299538;0.813512;8.39567e-13;0;0;8.39567e-13;0;-3.330669e-16;4.739478e-17;0;0;0;0;6.612889e-18;-3.396798e-16;1.731463e-16;45;0;2.308618e-16;2.286894e-16;0;2.686366e-17;6.792589e-17;-3.330669e-16;4.106223e-17;0.813512;-3.330669e-16;3.330669e-16;0
1.307997;-4.299538;0.762832;8.39567e-13;0;0;8.39567e-13;0;-1.110223e-16;-8.788523e-18;0;0;0;0;6.913936e-19;-1.117137e-16;5.620254e-17;45;0;7.493673e-17;7.470733e-17;0;-2.548197e-18;-1.502885e-17;-1.110223e-16;-1.248065e-17;0.762832;-1.110223e-16;1.110223e-16;0
1.375163;-4.299538;0.687063;8.39567e-13;0;0;8.39567e-13;2.220446e-16;2.220446e-16;1.623485e-17;0;0;0;0;2.382794e-16;2.058097e-16;1.623485e-17;45;0;2.164647e-17;1.49212e-16;2.220446e-16;1.581965e-17;1.665005e-17;2.220446e-16;8.304017e-19;0.687063;4.440892e-16;-4.440892e-16;0
1.442328;-4.299538;0.594075;8.39567e-13;0;0;8.39567e-13;-2.220446e-16;-1.110223e-16;-2.997082e-17;0;0;0;0;-1.034483e-16;-2.296186e-16;6.308516e-17;45;0;8.411355e-17;1.327865e-16;-2.220446e-16;-3.060917e-17;-2.933246e-17;-1.110223e-16;1.276709e-18;0.594075;-3.330669e-16;3.330669e-16;0
1.509493;-4.299538;0.484035;8.39567e-13;0;0;8.39567e-13;0;2.220446e-16;-5.936066e-17;0;0;0;0;2.369177e-16;-1.487305e-17;1.258954e-16;45;0;1.678605e-16;1.63129e-16;0;-1.064464e-16;-1.227491e-17;2.220446e-16;9.41715e-17;0.484035;2.220446e-16;-2.220446e-16;0
1.576659;-4.299538;0.410881;8.39567e-13;0;0;8.39567e-13;2.220446e-16;2.220446e-16;1.015525e-16;0;0;0;0;3.235971e-16;1.204921e-16;1.015525e-16;45;0;1.354033e-16;1.888474e-16;2.220446e-16;2.048928e-17;1.826157e-16;2.220446e-16;1.621264e-16;0.410881;4.440892e-16;-4.440892e-16;0
-0.303971;-4.366703;0.337608;8.39567e-13;0;0;8.39567e-13;0;4.440892e-16;-3.562121e-17;0;0;0;0;4.469283e-16;-2.839092e-18;2.248837e-16;45;0;2.998449e-16;2.989031e-16;0;-1.071453e-16;3.590284e-17;4.440892e-16;1.430481e-16;0.337608;4.440892e-16;-4.440892e-16;0
-0.236806;-4.366703;0.485269;8.39567e-13;0;0;8.39567e-13;2.220446e-16;-1.110223e-16;4.455488e-17;0;0;0;0;2.279018e-16;-1.168795e-16;1.723906e-16;45;0;2.298542e-16;2.024704e-16;2.220446e-16;5.981963e-17;2.929013e-17;-1.110223e-16;-3.052949e-17;0.485269;1.110223e-16;-1.110223e-16;0
-0.169641;-4.366703;0.558916;8.39567e-13;0;0;8.39567e-13;0;2.220446e-16;-6.630976e-17;0;0;0;0;2.403395e-16;-1.829489e-17;1.293172e-16;45;0;1.724229e-16;1.666597e-16;0;-1.29311e-16;-3.308523e-18;2.220446e-16;1.260025e-16;0.558916;2.220446e-16;-2.220446e-16;0
-0.102475;-4.366703;0.643601;8.39567e-13;0;0;8.39567e-13;0;0;-4.008667e-17;0;0;0;0;4.008667e-17;-4.008667e-17;4.008667e-17;45;0;5.344889e-17;4.62881e-17;0;-8.683499e-17;6.661647e-18;0;9.349663e-17;0.643601;0;0;0
-0.03531;-4.366703;0.727515;8.39567e-13;0;0;8.39567e-13;4.440892e-16;2.220446e-16;-2.900673e-17;0;0;0;0;4.478159e-16;2.183179e-16;1.14749e-16;45;0;1.529987e-16;2.585735e-16;4.440892e-16;-2.274502e-17;-3.526843e-17;2.220446e-16;-1.252341e-17;0.727515;6.661338e-16;-6.661338e-16;0
0.031855;-4.366703;0.738037;8.39567e-13;0;0;8.39567e-13;-1.110223e-16;2.220446e-16;-9.673764e-18;0;0;0;0;2.223253e-16;-1.11303e-16;1.668142e-16;45;0;2.224189e-16;1.961433e-16;-1.110223e-16;-1.510467e-17;-4.242856e-18;2.220446e-16;1.086182e-17;0.738037;1.110223e-16;-1.110223e-16;0
0.099021;-4.366703;0.808623;8.39567e-13;0;0;8.39567e-13;2.220446e-16;2.220446e-16;2.44324e-17;0;0;0;0;2.46477e-16;1.976122e-16;2.44324e-17;45;0;3.257653e-17;1.506941e-16;2.220446e-16;4.557129e-17;3.293504e-18;2.220446e-16;-4.227778e-17;0.808623;4.440892e-16;-4.440892e-16;0
0.166186;-4.366703;0.910687;8.39567e-13;0;0;8.39567e-13;2.220446e-16;0;-8.688301e-18;0;0;0;0;2.223841e-16;-3.394424e-19;1.113618e-16;45;0;1.484823e-16;1.483693e-16;2.220446e-16;-1.73766e-17;0;0;1.73766e-17;0.910687;2.220446e-16;-2.220446e-16;0
0.233352;-4.366703;0.910544;8.39567e-13;0;0;8.39567e-13;-3.330669e-16;0;2.467892e-17;0;0;0;0;1.818679e-18;-3.348856e-16;1.683521e-16;45;0;2.244695e-16;2.238658e-16;-3.330669e-16;-8.74288e-18;5.810073e-17;0;6.684361e-17;0.910544;-3.330669e-16;3.330669e-16;0
0.300517;-4.366703;0.909774;8.39567e-13;0;0;8.39567e-13;-3.330669e-16;2.220446e-16;5.955872e-18;0;0;0;0;2.221085e-16;-3.331308e-16;2.776197e-16;45;0;3.701595e-16;3.226966e-16;-3.330669e-16;-7.468833e-18;1.938058e-17;2.220446e-16;2.684941e-17;0.909774;-1.110223e-16;1.110223e-16;0
0.367682;-4.366703;0.955221;8.39567e-13;0;0;8.39567e-13;0;-1.110223e-16;-3.805715e-17;0;0;0;0;1.179289e-17;-1.228152e-16;6.730405e-17;45;0;8.973873e-17;8.607746e-17;0;-1.160934e-17;-6.450495e-17;-1.110223e-16;-5.289561e-17;0.955221;-1.110223e-16;1.110223e-16;0
0.434848;-4.366703;0.975294;8.39567e-13;0;0;8.39567e-13;-3.330669e-16;-4.440892e-16;4.61794e-17;0;0;0;0;-3.163698e-16;-4.607862e-16;7.22082e-17;45;0;9.62776e-17;2.721396e-16;-3.330669e-16;6.476493e-17;2.759387e-17;-4.440892e-16;-3.717106e-17;0.975294;-7.771561e-16;7.771561e-16;0
0.502013;-4.366703;0.970495;8.39567e-13;0;0;8.39567e-13;0;0;6.442562e-18;0;0;0;0;6.442562e-18;-6.442562e-18;6.442562e-18;45;0;8.590082e-18;7.439229e-18;0;-1.27663e-18;1.416175e-17;0;1.543838e-17;0.970495;0;0;0
0.569178;-4.366703;0.979641;8.39567e-13;0;0;8.39567e-13;-1.110223e-16;0;7.407961e-18;0;0;0;0;4.921147e-19;-1.115144e-16;5.600326e-17;45;0;7.467102e-17;7.450753e-17;-1.110223e-16;4.496633e-18;1.031929e-17;0;5.822656e-18;0.979641;-1.110223e-16;1.110223e-16;0
0.636344;-4.366703;0.96808;8.39567e-13;0;0;8.39567e-13;0;2.220446e-16;-9.018105e-18;0;0;0;0;2.224103e-16;-3.656586e-19;1.11388e-16;45;0;1.485173e-16;1.483955e-16;0;-1.868008e-17;6.43874e-19;2.220446e-16;1.932396e-17;0.96808;2.220446e-16;-2.220446e-16;0
0.703509;-4.366703;0.970898;8.39567e-13;0;0;8.39567e-13;-1.110223e-16;-1.110223e-16;-4.328612e-17;0;0;0;0;-6.773618e-17;-1.543084e-16;4.328612e-17;45;0;5.771483e-17;8.931099e-17;-1.110223e-16;-3.034336e-17;-5.622889e-17;-1.110223e-16;-2.588553e-17;0.970898;-2.220446e-16;2.220446e-16;0
0.770674;-4.366703;0.996787;8.39567e-13;0;0;8.39567e-13;2.220446e-16;2.220446e-16;4.437738e-17;0;0;0;0;2.66422e-16;1.776672e-16;4.437738e-17;45;0;5.916983e-17;1.56648e-16;2.220446e-16;4.240572e-17;4.634903e-17;2.220446e-16;3.943312e-18;0.996787;4.440892e-16;-4.440892e-16;0
0.83784;-4.366703;0.982952;8.39567e-13;0;0;8.39567e-13;0;2.220446e-16;-5.276993e-17;0;0;0;0;2.339476e-16;-1.190295e-17;1.229252e-16;45;0;1.639003e-16;1.600803e-16;0;-4.557623e-17;-5.996363e-17;2.220446e-16;-1.438741e-17;0.982952;2.220446e-16;-2.220446e-16;0
0.905005;-4.366703;0.955303;8.39567e-13;0;0;8.39567e-13;-1.110223e-16;-1.110223e-16;5.393335e-17;0;0;0;0;-5.708895e-17;-1.649557e-16;5.393335e-17;45;0;7.191114e-17;9.672957e-17;-1.110223e-16;5.9344e-17;4.852271e-17;-1.110223e-16;-1.082129e-17;0.955303;-2.220446e-16;2.220446e-16;0
0.97217;-4.366703;0.929153;8.39567e-13;0;0;8.39567e-13;2.220446e-16;2.220446e-16;2.615891e-17;0;0;0;0;2.482035e-16;1.958857e-16;2.615891e-17;45;0;3.487855e-17;1.510801e-16;2.220446e-16;1.556792e-17;3.67499e-17;2.220446e-16;2.118199e-17;0.929153;4.440892e-16;-4.440892e-16;0
1.039336;-4.366703;0.915876;8.39567e-13;0;0;8.39567e-13;-1.110223e-16;0;-2.426086e-17;0;0;0;0;5.070012e-18;-1.160923e-16;6.058117e-17;45;0;8.077488e-17;7.913904e-17;-1.110223e-16;-1.024172e-17;-3.828e-17;0;-2.803828e-17;0.915876;-1.110223e-16;1.110223e-16;0
1.106501;-4.366703;0.879553;8.39567e-13;0;0;8.39567e-13;-1.110223e-16;0;-1.856388e-17;0;0;0;0;3.021793e-18;-1.140441e-16;5.853294e-17;45;0;7.804393e-17;7.705641e-17;-1.110223e-16;-1.925999e-17;-1.786777e-17;0;1.392226e-18;0.879553;-1.110223e-16;1.110223e-16;0
1.173667;-4.366703;0.833401;8.39567e-13;0;0;8.39567e-13;0;-1.110223e-16;2.09025e-17;0;0;0;0;3.804973e-18;-1.148273e-16;5.931612e-17;45;0;7.908817e-17;7.785084e-17;0;5.330114e-17;-1.149613e-17;-1.110223e-16;-6.479727e-17;0.833401;-1.110223e-16;1.110223e-16;0
1.240832;-4.366703;0.810138;8.39567e-13;0;0;8.39567e-13;0;2.220446e-16;9.789995e-18;0;0;0;0;2.224754e-16;-4.308072e-19;1.114531e-16;45;0;1.486041e-16;1.484607e-16;0;1.97617e-18;1.760382e-17;2.220446e-16;1.562765e-17;0.810138;2.220446e-16;-2.220446e-16;0
1.307997;-4.366703;0.753365;8.39567e-13;0;0;8.39567e-13;-1.110223e-16;2.220446e-16;8.855523e-18;0;0;0;0;2.222799e-16;-1.112576e-16;1.667687e-16;45;0;2.223583e-16;1.960917e-16;-1.110223e-16;2.882822e-17;-1.111717e-17;2.220446e-16;-3.994539e-17;0.753365;1.110223e-16;-1.110223e-16;0
1.375163;-4.366703;0.681006;8.39567e-13;0;0;8.39567e-13;-4.440892e-16;0;1.065415e-17;0;0;0;0;2.554568e-19;-4.443446e-16;2.223001e-16;45;0;2.964001e-16;2.96315e-16;-4.440892e-16;1.80877e-17;3.220599e-18;0;-1.48671e-17;0.681006;-4.440892e-16;4.440892e-16;0
1.442328;-4.366703;0.58306;8.39567e-13;0;0;8.39567e-13;2.220446e-16;2.220446e-16;-1.879012e-17;0;0;0;0;2.408347e-16;2.032545e-16;1.879012e-17;45;0;2.505349e-17;1.496114e-16;2.220446e-16;-1.83787e-17;-1.920154e-17;2.220446e-16;-8.228439e-19;0.58306;4.440892e-16;-4.440892e-16;0
1.509493;-4.366703;0.478632;8.39567e-13;0;0;8.39567e-13;0;0;3.493258e-17;0;0;0;0;3.493258e-17;-3.493258e-17;3.493258e-17;45;0;4.657677e-17;4.033667e-17;0;5.742382e-17;1.244134e-17;0;-4.498248e-17;0.478632;0;0;0
1.576659;-4.366703;0.408747;8.39567e-13;0;0;8.39567e-13;4.440892e-16;-2.220446e-16;4.689619e-17;0;0;0;0;4.473745e-16;-2.253299e-16;3.363522e-16;45;0;4.484696e-16;3.953757e-16;4.440892e-16;-2.140915e-17;1.152015e-16;-2.220446e-16;1.366107e-16;0.408747;2.220446e-16;-2.220446e-16;0
-0.303971;-4.433869;0.377693;8.39567e-13;0;0;8.39567e-13;2.220446e-16;-3.330669e-16;3.269788e-17;0;0;0;0;2.23964e-16;-3.349863e-16;2.794751e-16;45;0;3.726335e-16;3.248251e-16;2.220446e-16;9.638265e-17;-3.09869e-17;-3.330669e-16;-1.273695e-16;0.377693;-1.110223e-16;1.110223e-16;0
-0.236806;-4.433869;0.475846;8.39567e-13;0;0;8.39567e-13;0;0;-5.061869e-17;0;0;0;0;5.061869e-17;-5.061869e-17;5.061869e-17;45;0;6.749159e-17;5.844942e-17;0;-9.550135e-17;-5.736021e-18;0;8.976533e-17;0.475846;0;0;0
-0.169641;-4.433869;0.564208;8.39567e-13;0;0;8.39567e-13;2.220446e-16;-1.110223e-16;-1.665795e-17;0;0;0;0;2.228757e-16;-1.118534e-16;1.673645e-16;45;0;2.231527e-16;1.967673e-16;2.220446e-16;-1.362514e-17;-1.969076e-17;-1.110223e-16;-6.065617e-18;0.564208;1.110223e-16;-1.110223e-16;0
-0.102475;-4.433869;0.645728;8.39567e-13;0;0;8.39567e-13;-4.440892e-16;-1.110223e-16;7.19637e-18;0;0;0;0;-1.108669e-16;-4.442446e-16;1.666889e-16;45;0;2.222518e-16;2.669937e-16;-4.440892e-16;2.464833e-17;-1.025559e-17;-1.110223e-16;-3.490392e-17;0.645728;-5.551115e-16;5.551115e-16;0
-0.03531;-4.433869;0.716841;8.39567e-13;0;0;8.39567e-13;0;-1.110223e-16;3.749547e-17;0;0;0;0;1.147689e-17;-1.224992e-16;6.698804e-17;45;0;8.931739e-17;8.574816e-17;0;5.345154e-17;2.15394e-17;-1.110223e-16;-3.191214e-17;0.716841;-1.110223e-16;1.110223e-16;0
0.031855;-4.433869;0.746375;8.39567e-13;0;0;8.39567e-13;0;0;-1.730028e-17;0;0;0;0;1.730028e-17;-1.730028e-17;1.730028e-17;45;0;2.306704e-17;1.997664e-17;0;-4.317425e-17;8.573692e-18;0;5.174794e-17;0.746375;0;0;0
0.099021;-4.433869;0.804926;8.39567e-13;0;0;8.39567e-13;0;-3.330669e-16;3.743411e-17;0;0;0;0;4.155456e-18;-3.372224e-16;1.706889e-16;45;0;2.275852e-16;2.262128e-16;0;6.623134e-17;8.636884e-18;-3.330669e-16;-5.759446e-17;0.804926;-3.330669e-16;3.330669e-16;0
0.166186;-4.433869;0.898039;8.39567e-13;0;0;8.39567e-13;-1.110223e-16;2.220446e-16;-7.659946e-18;0;0;0;0;2.222207e-16;-1.111984e-16;1.667095e-16;45;0;2.222794e-16;1.960246e-16;-1.110223e-16;-1.531989e-17;0;2.220446e-16;1.531989e-17;0.898039;1.110223e-16;-1.110223e-16;0
0.233352;-4.433869;0.908596;8.39567e-13;0;0;8.39567e-13;0;0;-2.363856e-17;0;0;0;0;2.363856e-17;-2.363856e-17;2.363856e-17;45;0;3.151808e-17;2.729546e-17;0;-1.590205e-19;-4.71181e-17;0;-4.695908e-17;0.908596;0;0;0
0.300517;-4.433869;0.898226;8.39567e-13;0;0;8.39567e-13;0;2.220446e-16;-2.266838e-17;0;0;0;0;2.243352e-16;-2.29057e-18;1.133129e-16;45;0;1.510838e-16;1.503261e-16;0;-1.630071e-17;-2.903605e-17;2.220446e-16;-1.273533e-17;0.898226;2.220446e-16;-2.220446e-16;0
0.367682;-4.433869;0.961605;8.39567e-13;0;0;8.39567e-13;-1.110223e-16;0;7.14335e-17;0;0;0;0;3.495559e-17;-1.459779e-16;9.046675e-17;45;0;1.206223e-16;1.108236e-16;-1.110223e-16;8.846321e-17;5.440378e-17;0;-3.405943e-17;0.961605;-1.110223e-16;1.110223e-16;0
0.434848;-4.433869;0.96854;8.39567e-13;0;0;8.39567e-13;0;0;1.704201e-17;0;0;0;0;1.704201e-17;-1.704201e-17;1.704201e-17;45;0;2.272268e-17;1.967842e-17;0;1.081296e-17;2.327107e-17;0;1.245811e-17;0.96854;0;0;0
0.502013;-4.433869;0.947807;8.39567e-13;0;0;8.39567e-13;2.220446e-16;0;1.920312e-17;0;0;0;0;2.236931e-16;-1.648507e-18;1.126708e-16;45;0;1.502278e-16;1.496813e-16;2.220446e-16;3.455307e-17;3.853157e-18;0;-3.069992e-17;0.947807;2.220446e-16;-2.220446e-16;0
0.569178;-4.433869;0.971724;8.39567e-13;0;0;8.39567e-13;-1.110223e-16;-1.110223e-16;-3.939898e-17;0;0;0;0;-7.162333e-17;-1.504213e-16;3.939898e-17;45;0;5.253197e-17;8.687869e-17;-1.110223e-16;-5.600498e-17;-2.279297e-17;-1.110223e-16;3.321201e-17;0.971724;-2.220446e-16;2.220446e-16;0
0.636344;-4.433869;0.980566;8.39567e-13;0;0;8.39567e-13;0;-1.110223e-16;-1.429669e-17;0;0;0;0;1.811474e-18;-1.128338e-16;5.732262e-17;45;0;7.643017e-17;7.583356e-17;0;-1.523842e-18;-2.706954e-17;-1.110223e-16;-2.55457e-17;0.980566;-1.110223e-16;1.110223e-16;0
0.703509;-4.433869;0.992126;8.39567e-13;0;0;8.39567e-13;-3.330669e-16;0;4.756758e-18;0;0;0;0;6.79207e-20;-3.331348e-16;1.666014e-16;45;0;2.221352e-16;2.221125e-16;-3.330669e-16;2.23054e-17;-1.279188e-17;0;-3.509727e-17;0.992126;-3.330669e-16;3.330669e-16;0
0.770674;-4.433869;1.006989;8.39567e-13;0;0;8.39567e-13;0;0;2.382271e-17;0;0;0;0;2.382271e-17;-2.382271e-17;2.382271e-17;45;0;3.176361e-17;2.75081e-17;0;-1.604646e-17;6.369187e-17;0;7.973833e-17;1.006989;0;0;0
0.83784;-4.433869;0.99376;8.39567e-13;0;0;8.39567e-13;-1.110223e-16;0;-6.464445e-18;0;0;0;0;3.751348e-19;-1.113974e-16;5.588629e-17;45;0;7.451505e-17;7.439032e-17;-1.110223e-16;-2.982039e-18;-9.946851e-18;0;-6.964812e-18;0.99376;-1.110223e-16;1.110223e-16;0
0.905005;-4.433869;0.966555;8.39567e-13;0;0;8.39567e-13;-3.330669e-16;-1.110223e-16;2.043069e-17;0;0;0;0;-1.091581e-16;-3.349311e-16;1.128865e-16;45;0;1.505153e-16;1.972409e-16;-3.330669e-16;5.643526e-17;-1.557389e-17;-1.110223e-16;-7.200915e-17;0.966555;-4.440892e-16;4.440892e-16;0
0.97217;-4.433869;0.936521;8.39567e-13;0;0;8.39567e-13;-1.110223e-16;0;1.54814e-17;0;0;0;0;2.118371e-18;-1.131407e-16;5.762952e-17;45;0;7.683936e-17;7.614306e-17;-1.110223e-16;-1.304649e-18;3.226746e-17;0;3.357211e-17;0.936521;-1.110223e-16;1.110223e-16;0
1.039336;-4.433869;0.9248;8.39567e-13;0;0;8.39567e-13;2.220446e-16;-3.330669e-16;-2.86136e-18;0;0;0;0;2.220593e-16;-3.330817e-16;2.775705e-16;45;0;3.70094e-16;3.226402e-16;2.220446e-16;-8.890526e-19;-4.833668e-18;-3.330669e-16;-3.944615e-18;0.9248;-1.110223e-16;1.110223e-16;0
1.106501;-4.433869;0.8831;8.39567e-13;0;0;8.39567e-13;-2.220446e-16;2.220446e-16;1.766858e-17;0;0;0;0;2.227465e-16;-2.227465e-16;2.227465e-16;45;0;2.969953e-16;2.572054e-16;-2.220446e-16;4.388379e-17;-8.54663e-18;2.220446e-16;-5.243042e-17;0.8831;0;0;0
1.173667;-4.433869;0.834299;8.39567e-13;0;0;8.39567e-13;2.220446e-16;2.220446e-16;3.090616e-18;0;0;0;0;2.251352e-16;2.18954e-16;3.090616e-18;45;0;4.120821e-18;1.480728e-16;2.220446e-16;1.518834e-17;-9.007107e-18;2.220446e-16;-2.419544e-17;0.834299;4.440892e-16;-4.440892e-16;0
1.240832;-4.433869;0.813356;8.39567e-13;0;0;8.39567e-13;-1.110223e-16;0;-2.241817e-18;0;0;0;0;4.524944e-20;-1.110676e-16;5.55564e-17;45;0;7.40752e-17;7.406012e-17;-1.110223e-16;5.563684e-18;-1.004732e-17;0;-1.5611e-17;0.813356;-1.110223e-16;1.110223e-16;0
1.307997;-4.433869;0.754115;8.39567e-13;0;0;8.39567e-13;-1.110223e-16;-1.110223e-16;1.392494e-17;0;0;0;0;-9.709737e-17;-1.249472e-16;1.392494e-17;45;0;1.856658e-17;7.574126e-17;-1.110223e-16;-1.973412e-18;2.982329e-17;-1.110223e-16;3.17967e-17;0.754115;-2.220446e-16;2.220446e-16;0
1.375163;-4.433869;0.678321;8.39567e-13;0;0;8.39567e-13;4.440892e-16;2.220446e-16;-3.931022e-17;0;0;0;0;4.508431e-16;2.152907e-16;1.177763e-16;45;0;1.57035e-16;2.60382e-16;4.440892e-16;-6.560441e-17;-1.301604e-17;2.220446e-16;5.258837e-17;0.678321;6.661338e-16;-6.661338e-16;0
1.442328;-4.433869;0.594405;8.39567e-13;0;0;8.39567e-13;0;0;-3.603229e-18;0;0;0;0;3.603229e-18;-3.603229e-18;3.603229e-18;45;0;4.804306e-18;4.160651e-18;0;-7.206458e-18;0;0;7.206458e-18;0.594405;0;0;0
1.509493;-4.433869;0.498572;8.39567e-13;0;0;8.39567e-13;2.220446e-16;-1.110223e-16;-2.012372e-17;0;0;0;0;2.232561e-16;-1.122338e-16;1.677449e-16;45;0;2.236599e-16;1.971988e-16;2.220446e-16;-4.024745e-17;0;-1.110223e-16;4.024745e-17;0.498572;1.110223e-16;-1.110223e-16;0
1.576659;-4.433869;0.435119;8.39567e-13;0;0;8.39567e-13;-2.220446e-16;-2.220446e-16;-1.476904e-17;0;0;0;0;-2.072756e-16;-2.368137e-16;1.476904e-17;45;0;1.969206e-17;1.490088e-16;-2.220446e-16;-1.856674e-17;-1.097134e-17;-2.220446e-16;7.595404e-18;0.435119;-4.440892e-16;4.440892e-16;0
-0.303971;-4.501034;0.377354;8.39567e-13;0;0;8.39567e-13;2.220446e-16;-2.220446e-16;-4.016684e-17;0;0;0;0;2.256484e-16;-2.256484e-16;2.256484e-16;45;0;3.008645e-16;2.605563e-16;2.220446e-16;-6.05631e-17;-1.977059e-17;-2.220446e-16;4.079251e-17;0.377354;0;0;0
-0.236806;-4.501034;0.49395;8.39567e-13;0;0;8.39567e-13;0;2.220446e-16;-1.233977e-17;0;0;0;0;2.227283e-16;-6.836581e-19;1.11706e-16;45;0;1.489413e-16;1.487139e-16;0;-2.467955e-17;0;2.220446e-16;2.467955e-17;0.49395;2.220446e-16;-2.220446e-16;0
-0.169641;-4.501034;0.583264;8.39567e-13;0;0;8.39567e-13;0;-3.330669e-16;1.536982e-17;0;0;0;0;7.077569e-19;-3.337747e-16;1.672412e-16;45;0;2.229883e-16;2.227527e-16;0;2.043731e-17;1.030233e-17;-3.330669e-16;-1.013498e-17;0.583264;-3.330669e-16;3.330669e-16;0
-0.102475;-4.501034;0.641643;8.39567e-13;0;0;8.39567e-13;-1.110223e-16;2.220446e-16;1.922748e-17;0;0;0;0;2.231509e-16;-1.121286e-16;1.676398e-16;45;0;2.235197e-16;1.970795e-16;-1.110223e-16;2.443177e-17;1.402318e-17;2.220446e-16;-1.040858e-17;0.641643;1.110223e-16;-1.110223e-16;0
-0.03531;-4.501034;0.715695;8.39567e-13;0;0;8.39567e-13;0;0;-1.972169e-17;0;0;0;0;1.972169e-17;-1.972169e-17;1.972169e-17;45;0;2.629559e-17;2.277265e-17;0;-6.677798e-18;-3.276559e-17;0;-2.608779e-17;0.715695;0;0;0
0.031855;-4.501034;0.770504;8.39567e-13;0;0;8.39567e-13;2.220446e-16;2.220446e-16;4.902135e-17;0;0;0;0;2.710659e-16;1.730233e-16;4.902135e-17;45;0;6.53618e-17;1.584832e-16;2.220446e-16;8.112044e-17;1.692225e-17;2.220446e-16;-6.419819e-17;0.770504;4.440892e-16;-4.440892e-16;0
0.099021;-4.501034;0.806743;8.39567e-13;0;0;8.39567e-13;0;2.220446e-16;3.133766e-18;0;0;0;0;2.220888e-16;-4.421874e-20;1.110665e-16;45;0;1.480887e-16;1.48074e-16;0;-2.381328e-17;3.008081e-17;2.220446e-16;5.389409e-17;0.806743;2.220446e-16;-2.220446e-16;0
0.166186;-4.501034;0.875346;8.39567e-13;0;0;8.39567e-13;2.220446e-16;2.220446e-16;-4.066055e-17;0;0;0;0;2.627052e-16;1.813841e-16;4.066055e-17;45;0;5.421407e-17;1.552971e-16;2.220446e-16;-5.638718e-17;-2.493392e-17;2.220446e-16;3.145326e-17;0.875346;4.440892e-16;-4.440892e-16;0
0.233352;-4.501034;0.896377;8.39567e-13;0;0;8.39567e-13;0;2.220446e-16;1.036246e-18;0;0;0;0;2.220494e-16;-4.835886e-21;1.110271e-16;45;0;1.480362e-16;1.480346e-16;0;2.611337e-17;-2.404087e-17;2.220446e-16;-5.015424e-17;0.896377;2.220446e-16;-2.220446e-16;0
0.300517;-4.501034;0.88992;8.39567e-13;0;0;8.39567e-13;2.220446e-16;0;-1.446488e-17;0;0;0;0;2.229829e-16;-9.383357e-19;1.119606e-16;45;0;1.492808e-16;1.489691e-16;2.220446e-16;-3.886057e-17;9.930809e-18;0;4.879138e-17;0.88992;2.220446e-16;-2.220446e-16;0
0.367682;-4.501034;0.924108;8.39567e-13;0;0;8.39567e-13;-1.110223e-16;2.220446e-16;-2.297548e-18;0;0;0;0;2.220605e-16;-1.110381e-16;1.665493e-16;45;0;2.220657e-16;1.958429e-16;-1.110223e-16;3.410761e-17;-3.870271e-17;2.220446e-16;-7.281032e-17;0.924108;1.110223e-16;-1.110223e-16;0
0.434848;-4.501034;0.945034;8.39567e-13;0;0;8.39567e-13;0;-1.110223e-16;6.665205e-18;0;0;0;0;3.987125e-19;-1.11421e-16;5.590987e-17;45;0;7.454648e-17;7.441394e-17;0;1.078021e-17;2.550199e-18;-1.110223e-16;-8.230013e-18;0.945034;-1.110223e-16;1.110223e-16;0
0.502013;-4.501034;0.955176;8.39567e-13;0;0;8.39567e-13;2.220446e-16;0;-1.136327e-17;0;0;0;0;2.226246e-16;-5.800072e-19;1.116023e-16;45;0;1.488031e-16;1.486101e-16;2.220446e-16;-1.034171e-17;-1.238482e-17;0;-2.043109e-18;0.955176;2.220446e-16;-2.220446e-16;0
0.569178;-4.501034;0.989762;8.39567e-13;0;0;8.39567e-13;0;0;2.964302e-17;0;0;0;0;2.964302e-17;-2.964302e-17;2.964302e-17;45;0;3.952403e-17;3.422881e-17;0;4.569284e-18;5.471676e-17;0;5.014747e-17;0.989762;0;0;0
0.636344;-4.501034;0.994967;8.39567e-13;0;0;8.39567e-13;0;2.220446e-16;9.401704e-18;0;0;0;0;2.22442e-16;-3.973713e-19;1.114197e-16;45;0;1.485596e-16;1.484273e-16;0;3.57492e-17;-1.694579e-17;2.220446e-16;-5.269499e-17;0.994967;2.220446e-16;-2.220446e-16;0
0.703509;-4.501034;0.990559;8.39567e-13;0;0;8.39567e-13;0;0;-4.004634e-18;0;0;0;0;4.004634e-18;-4.004634e-18;4.004634e-18;45;0;5.339512e-18;4.624153e-18;0;7.485121e-18;-1.549439e-17;0;-2.297951e-17;0.990559;0;0;0
0.770674;-4.501034;0.983977;8.39567e-13;0;0;8.39567e-13;0;0;-2.898367e-17;0;0;0;0;2.898367e-17;-2.898367e-17;2.898367e-17;45;0;3.86449e-17;3.346746e-17;0;-3.217857e-17;-2.578878e-17;0;6.389789e-18;0.983977;0;0;0
0.83784;-4.501034;0.979583;8.39567e-13;0;0;8.39567e-13;-1.110223e-16;2.220446e-16;-1.461935e-17;0;0;0;0;2.226851e-16;-1.116628e-16;1.671739e-16;45;0;2.228985e-16;1.965512e-16;-1.110223e-16;-4.192522e-17;1.268653e-17;2.220446e-16;5.461174e-17;0.979583;1.110223e-16;-1.110223e-16;0
0.905005;-4.501034;0.961552;8.39567e-13;0;0;8.39567e-13;0;-1.110223e-16;2.994196e-19;0;0;0;0;8.075086e-22;-1.110231e-16;5.551196e-17;45;0;7.401594e-17;7.401568e-17;0;-4.277296e-18;4.876135e-18;-1.110223e-16;9.153431e-18;0.961552;-1.110223e-16;1.110223e-16;0
0.97217;-4.501034;0.935106;8.39567e-13;0;0;8.39567e-13;-1.110223e-16;2.220446e-16;-5.590091e-18;0;0;0;0;2.221384e-16;-1.111161e-16;1.666272e-16;45;0;2.221697e-16;1.959313e-16;-1.110223e-16;-2.667029e-17;1.549011e-17;2.220446e-16;4.216041e-17;0.935106;1.110223e-16;-1.110223e-16;0
1.039336;-4.501034;0.932961;8.39567e-13;0;0;8.39567e-13;-3.330669e-16;0;-2.428738e-17;0;0;0;0;1.761727e-18;-3.348286e-16;1.682952e-16;45;0;2.243936e-16;2.238086e-16;-3.330669e-16;-5.009207e-17;1.517312e-18;0;5.160938e-17;0.932961;-3.330669e-16;3.330669e-16;0
1.106501;-4.501034;0.896156;8.39567e-13;0;0;8.39567e-13;2.220446e-16;0;2.804755e-17;0;0;0;0;2.255326e-16;-3.488032e-18;1.145103e-16;45;0;1.526804e-16;1.515312e-16;2.220446e-16;3.959939e-18;5.213517e-17;0;4.817523e-17;0.896156;2.220446e-16;-2.220446e-16;0
1.173667;-4.501034;0.83387;8.39567e-13;0;0;8.39567e-13;-1.110223e-16;-1.110223e-16;1.551099e-17;0;0;0;0;-9.551132e-17;-1.265333e-16;1.551099e-17;45;0;2.068131e-17;7.615109e-17;-1.110223e-16;-7.58254e-18;3.860451e-17;-1.110223e-16;4.618705e-17;0.83387;-2.220446e-16;2.220446e-16;0
1.240832;-4.501034;0.807028;8.39567e-13;0;0;8.39567e-13;0;0;-2.799793e-17;0;0;0;0;2.799793e-17;-2.799793e-17;2.799793e-17;45;0;3.733057e-17;3.232922e-17;0;-9.483475e-18;-4.651238e-17;0;-3.70289e-17;0.807028;0;0;0
1.307997;-4.501034;0.772295;8.39567e-13;0;0;8.39567e-13;-2.220446e-16;-3.330669e-16;-4.00586e-18;0;0;0;0;-2.219003e-16;-3.332112e-16;5.56555e-17;45;0;7.420733e-17;1.958796e-16;-2.220446e-16;7.537562e-18;-1.554928e-17;-3.330669e-16;-2.308684e-17;0.772295;-5.551115e-16;5.551115e-16;0
1.375163;-4.501034;0.699258;8.39567e-13;0;0;8.39567e-13;2.220446e-16;0;-3.459367e-17;0;0;0;0;2.273093e-16;-5.264727e-18;1.16287e-16;45;0;1.550494e-16;1.533246e-16;2.220446e-16;-7.554329e-17;6.355957e-18;0;8.189925e-17;0.699258;2.220446e-16;-2.220446e-16;0
1.442328;-4.501034;0.603006;8.39567e-13;0;0;8.39567e-13;-2.220446e-16;-1.110223e-16;2.309699e-17;0;0;0;0;-1.064089e-16;-2.26658e-16;6.012452e-17;45;0;8.016604e-17;1.309423e-16;-2.220446e-16;4.904368e-17;-2.849714e-18;-1.110223e-16;-5.18934e-17;0.603006;-3.330669e-16;3.330669e-16;0
1.509493;-4.501034;0.491879;8.39567e-13;0;0;8.39567e-13;-2.220446e-16;0;-1.341662e-17;0;0;0;0;8.077355e-19;-2.228523e-16;1.1183e-16;45;0;1.491067e-16;1.488382e-16;-2.220446e-16;-2.823076e-17;1.397516e-18;0;2.962828e-17;0.491879;-2.220446e-16;2.220446e-16;0
1.576659;-4.501034;0.428789;8.39567e-13;0;0;8.39567e-13;-3.330669e-16;0;-5.413998e-17;0;0;0;0;8.57945e-18;-3.416463e-16;1.751129e-16;45;0;2.334839e-16;2.306772e-16;-3.330669e-16;-7.689286e-17;-3.138711e-17;0;4.550576e-17;0.428789;-3.330669e-16;3.330669e-16;0
-0.303971;-4.568199;0.367503;8.39567e-13;0;0;8.39567e-13;-4.440892e-16;0;1.087969e-17;0;0;0;0;2.663804e-19;-4.443556e-16;2.22311e-16;45;0;2.964147e-16;2.963259e-16;-4.440892e-16;1.513943e-17;6.619945e-18;0;-8.519486e-18;0.367503;-4.440892e-16;4.440892e-16;0
-0.236806;-4.568199;0.503946;8.39567e-13;0;0;8.39567e-13;0;0;-3.391302e-17;0;0;0;0;3.391302e-17;-3.391302e-17;3.391302e-17;45;0;4.521736e-17;3.915939e-17;0;-5.092514e-17;-1.690091e-17;0;3.402423e-17;0.503946;0;0;0
-0.169641;-4.568199;0.554643;8.39567e-13;0;0;8.39567e-13;0;0;-1.895814e-17;0;0;0;0;1.895814e-17;-1.895814e-17;1.895814e-17;45;0;2.527752e-17;2.189098e-17;0;-6.888565e-18;-3.102772e-17;0;-2.413916e-17;0.554643;0;0;0
-0.102475;-4.568199;0.618706;8.39567e-13;0;0;8.39567e-13;-2.220446e-16;0;2.180755e-18;0;0;0;0;2.141567e-20;-2.22066e-16;1.110437e-16;45;0;1.480583e-16;1.480512e-16;-2.220446e-16;-3.470848e-17;3.906999e-17;0;7.377847e-17;0.618706;-2.220446e-16;2.220446e-16;0
-0.03531;-4.568199;0.71647;8.39567e-13;0;0;8.39567e-13;-2.220446e-16;0;8.842308e-18;0;0;0;0;3.515636e-19;-2.223962e-16;1.113739e-16;45;0;1.484985e-16;1.483814e-16;-2.220446e-16;1.768462e-17;0;0;-1.768462e-17;0.71647;-2.220446e-16;2.220446e-16;0
0.031855;-4.568199;0.793219;8.39567e-13;0;0;8.39567e-13;-2.220446e-16;0;-1.95377e-19;0;0;0;0;1.71912e-22;-2.220448e-16;1.110225e-16;45;0;1.4803e-16;1.480299e-16;-2.220446e-16;-3.907539e-19;0;0;3.907539e-19;0.793219;-2.220446e-16;2.220446e-16;0
0.099021;-4.568199;0.812156;8.39567e-13;0;0;8.39567e-13;2.220446e-16;2.220446e-16;1.467307e-17;0;0;0;0;2.367177e-16;2.073715e-16;1.467307e-17;45;0;1.956409e-17;1.489962e-16;2.220446e-16;1.120728e-17;1.813885e-17;2.220446e-16;6.931577e-18;0.812156;4.440892e-16;-4.440892e-16;0
0.166186;-4.568199;0.853061;8.39567e-13;0;0;8.39567e-13;2.220446e-16;0;-3.505681e-17;0;0;0;0;2.27448e-16;-5.403346e-18;1.164256e-16;45;0;1.552342e-16;1.534648e-16;2.220446e-16;-5.856643e-17;-1.15472e-17;0;4.701923e-17;0.853061;2.220446e-16;-2.220446e-16;0
0.233352;-4.568199;0.906525;8.39567e-13;0;0;8.39567e-13;-1.110223e-16;-1.110223e-16;-3.715951e-17;0;0;0;0;-7.38628e-17;-1.481818e-16;3.715951e-17;45;0;4.954601e-17;8.555294e-17;-1.110223e-16;-5.604593e-17;-1.82731e-17;-1.110223e-16;3.777283e-17;0.906525;-2.220446e-16;2.220446e-16;0
0.300517;-4.568199;0.93585;8.39567e-13;0;0;8.39567e-13;0;-1.110223e-16;4.433365e-18;0;0;0;0;1.767526e-19;-1.111991e-16;5.56879e-17;45;0;7.425054e-17;7.419169e-17;0;1.893925e-17;-1.007252e-17;-1.110223e-16;-2.901178e-17;0.93585;-1.110223e-16;1.110223e-16;0
0.367682;-4.568199;0.93045;8.39567e-13;0;0;8.39567e-13;0;-3.330669e-16;-3.30257e-17;0;0;0;0;3.24313e-18;-3.3631e-16;1.697766e-16;45;0;2.263688e-16;2.252955e-16;0;-1.508059e-17;-5.097082e-17;-3.330669e-16;-3.589023e-17;0.93045;-3.330669e-16;3.330669e-16;0
0.434848;-4.568199;0.941429;8.39567e-13;0;0;8.39567e-13;0;-3.330669e-16;-6.381934e-18;0;0;0;0;1.222401e-19;-3.331891e-16;1.666557e-16;45;0;2.222076e-16;2.221669e-16;0;1.737181e-17;-3.013568e-17;-3.330669e-16;-4.750748e-17;0.941429;-3.330669e-16;3.330669e-16;0
0.502013;-4.568199;0.963355;8.39567e-13;0;0;8.39567e-13;-1.110223e-16;-1.110223e-16;-8.260658e-18;0;0;0;0;-1.027616e-16;-1.19283e-16;8.260658e-18;45;0;1.101421e-17;7.462698e-17;-1.110223e-16;-6.779027e-18;-9.742289e-18;-1.110223e-16;-2.963262e-18;0.963355;-2.220446e-16;2.220446e-16;0
0.569178;-4.568199;1.00002;8.39567e-13;0;0;8.39567e-13;0;2.220446e-16;-1.235947e-17;0;0;0;0;2.227304e-16;-6.858357e-19;1.117081e-16;45;0;1.489442e-16;1.487161e-16;0;8.17051e-18;-3.288945e-17;2.220446e-16;-4.105996e-17;1.00002;2.220446e-16;-2.220446e-16;0
0.636344;-4.568199;0.993945;8.39567e-13;0;0;8.39567e-13;2.220446e-16;0;2.874871e-17;0;0;0;0;2.257064e-16;-3.661786e-18;1.146841e-16;45;0;1.529121e-16;1.517062e-16;2.220446e-16;4.442934e-17;1.306809e-17;0;-3.136125e-17;0.993945;2.220446e-16;-2.220446e-16;0
0.703509;-4.568199;0.986259;8.39567e-13;0;0;8.39567e-13;0;0;-1.022589e-17;0;0;0;0;1.022589e-17;-1.022589e-17;1.022589e-17;45;0;1.363452e-17;1.180784e-17;0;-3.522205e-18;-1.692958e-17;0;-1.340737e-17;0.986259;0;0;0
0.770674;-4.568199;0.978077;8.39567e-13;0;0;8.39567e-13;-1.110223e-16;0;-2.328237e-17;0;0;0;0;4.684834e-18;-1.157071e-16;6.019598e-17;45;0;8.026131e-17;7.874617e-17;-1.110223e-16;-2.600233e-17;-2.056241e-17;0;5.439919e-18;0.978077;-1.110223e-16;1.110223e-16;0
0.83784;-4.568199;0.979299;8.39567e-13;0;0;8.39567e-13;-1.110223e-16;2.220446e-16;7.908989e-18;0;0;0;0;2.222323e-16;-1.1121e-16;1.667212e-16;45;0;2.222949e-16;1.960378e-16;-1.110223e-16;2.733995e-17;-1.152197e-17;2.220446e-16;-3.886192e-17;0.979299;1.110223e-16;-1.110223e-16;0
0.905005;-4.568199;0.961754;8.39567e-13;0;0;8.39567e-13;2.220446e-16;0;4.41551e-18;0;0;0;0;2.221324e-16;-8.777075e-20;1.111101e-16;45;0;1.481468e-16;1.481175e-16;2.220446e-16;1.630884e-17;-7.477818e-18;0;-2.378665e-17;0.961754;2.220446e-16;-2.220446e-16;0
0.97217;-4.568199;0.93736;8.39567e-13;0;0;8.39567e-13;2.220446e-16;2.220446e-16;2.144836e-17;0;0;0;0;2.43493e-16;2.005962e-16;2.144836e-17;45;0;2.859782e-17;1.500872e-16;2.220446e-16;2.549804e-17;1.739869e-17;2.220446e-16;-8.099355e-18;0.93736;4.440892e-16;-4.440892e-16;0
1.039336;-4.568199;0.92416;8.39567e-13;0;0;8.39567e-13;0;2.220446e-16;7.414776e-18;0;0;0;0;2.222919e-16;-2.473274e-19;1.112696e-16;45;0;1.483595e-16;1.482771e-16;0;1.482955e-17;0;2.220446e-16;-1.482955e-17;0.92416;2.220446e-16;-2.220446e-16;0
1.106501;-4.568199;0.879872;8.39567e-13;0;0;8.39567e-13;-2.220446e-16;0;4.847219e-17;0;0;0;0;1.012019e-17;-2.321648e-16;1.211425e-16;45;0;1.615233e-16;1.582578e-16;-2.220446e-16;6.777031e-17;2.917406e-17;0;-3.859625e-17;0.879872;-2.220446e-16;2.220446e-16;0
1.173667;-4.568199;0.831425;8.39567e-13;0;0;8.39567e-13;-1.110223e-16;2.220446e-16;-1.935347e-17;0;0;0;0;2.231654e-16;-1.121431e-16;1.676543e-16;45;0;2.23539e-16;1.97096e-16;-1.110223e-16;6.067142e-18;-4.477409e-17;2.220446e-16;-5.084123e-17;0.831425;1.110223e-16;-1.110223e-16;0
1.240832;-4.568199;0.811338;8.39567e-13;0;0;8.39567e-13;0;2.220446e-16;2.210937e-18;0;0;0;0;2.220666e-16;-2.201251e-20;1.110443e-16;45;0;1.480591e-16;1.480518e-16;0;2.748857e-17;-2.30667e-17;2.220446e-16;-5.055527e-17;0.811338;2.220446e-16;-2.220446e-16;0
1.307997;-4.568199;0.776056;8.39567e-13;0;0;8.39567e-13;0;-1.110223e-16;-1.505815e-17;0;0;0;0;2.006115e-18;-1.130284e-16;5.751727e-17;45;0;7.668969e-17;7.60298e-17;0;-8.364734e-18;-2.175157e-17;-1.110223e-16;-1.338684e-17;0.776056;-1.110223e-16;1.110223e-16;0
1.375163;-4.568199;0.705203;8.39567e-13;0;0;8.39567e-13;2.220446e-16;0;4.162558e-17;0;0;0;0;2.295914e-16;-7.546837e-18;1.185691e-16;45;0;1.580922e-16;1.556376e-16;2.220446e-16;7.226075e-17;1.099041e-17;0;-6.127034e-17;0.705203;2.220446e-16;-2.220446e-16;0
1.442328;-4.568199;0.597255;8.39567e-13;0;0;8.39567e-13;0;2.220446e-16;1.701423e-17;0;0;0;0;2.233408e-16;-1.296154e-18;1.123185e-16;45;0;1.497579e-16;1.493278e-16;0;2.909693e-17;4.931529e-18;2.220446e-16;-2.41654e-17;0.597255;2.220446e-16;-2.220446e-16;0
1.509493;-4.568199;0.493796;8.39567e-13;0;0;8.39567e-13;0;2.220446e-16;-3.484203e-17;0;0;0;0;2.273835e-16;-5.338854e-18;1.163612e-16;45;0;1.551482e-16;1.533996e-16;0;-4.995699e-17;-1.972706e-17;2.220446e-16;3.022993e-17;0.493796;2.220446e-16;-2.220446e-16;0
1.576659;-4.568199;0.444714;8.39567e-13;0;0;8.39567e-13;2.220446e-16;0;1.286306e-17;0;0;0;0;2.227873e-16;-7.426735e-19;1.11765e-16;45;0;1.4902e-16;1.48773e-16;2.220446e-16;2.572611e-17;0;0;-2.572611e-17;0.444714;2.220446e-16;-2.220446e-16;0
-0.303971;-4.635365;0.360366;8.39567e-13;0;0;8.39567e-13;-6.661338e-16;-2.220446e-16;1.185807e-17;0;0;0;0;-2.217282e-16;-6.664502e-16;2.22361e-16;45;0;2.964814e-16;3.918891e-16;-6.661338e-16;4.007438e-17;-1.635823e-17;-2.220446e-16;-5.643261e-17;0.360366;-8.881784e-16;8.881784e-16;0
-0.236806;-4.635365;0.493413;8.39567e-13;0;0;8.39567e-13;0;0;1.483708e-17;0;0;0;0;1.483708e-17;-1.483708e-17;1.483708e-17;45;0;1.978278e-17;1.713239e-17;0;6.602654e-17;-3.635237e-17;0;-1.023789e-16;0.493413;0;0;0
-0.169641;-4.635365;0.565562;8.39567e-13;0;0;8.39567e-13;2.220446e-16;0;-5.386072e-18;0;0;0;0;2.221752e-16;-1.305716e-19;1.111529e-16;45;0;1.482038e-16;1.481603e-16;2.220446e-16;-2.349502e-17;1.272287e-17;0;3.621789e-17;0.565562;2.220446e-16;-2.220446e-16;0
-0.102475;-4.635365;0.674018;8.39567e-13;0;0;8.39567e-13;0;0;1.194951e-16;0;0;0;0;1.194951e-16;-1.194951e-16;1.194951e-16;45;0;1.593268e-16;1.379811e-16;0;1.741113e-16;6.487896e-17;0;-1.092323e-16;0.674018;0;0;0
-0.03531;-4.635365;0.723793;8.39567e-13;0;0;8.39567e-13;2.220446e-16;2.220446e-16;-1.477866e-17;0;0;0;0;2.368233e-16;2.072659e-16;1.477866e-17;45;0;1.970487e-17;1.490101e-16;2.220446e-16;-2.561035e-17;-3.946964e-18;2.220446e-16;2.166338e-17;0.723793;4.440892e-16;-4.440892e-16;0
0.031855;-4.635365;0.788126;8.39567e-13;0;0;8.39567e-13;-1.110223e-16;0;1.480475e-17;0;0;0;0;1.940294e-18;-1.129626e-16;5.745145e-17;45;0;7.660193e-17;7.596342e-17;-1.110223e-16;1.330387e-17;1.630564e-17;0;3.001774e-18;0.788126;-1.110223e-16;1.110223e-16;0
0.099021;-4.635365;0.816306;8.39567e-13;0;0;8.39567e-13;-3.330669e-16;2.220446e-16;-2.033062e-17;0;0;0;0;2.227882e-16;-3.338105e-16;2.782993e-16;45;0;3.710658e-16;3.234763e-16;-3.330669e-16;-2.024829e-17;-2.041294e-17;2.220446e-16;-1.646494e-19;0.816306;-1.110223e-16;1.110223e-16;0
0.166186;-4.635365;0.856978;8.39567e-13;0;0;8.39567e-13;2.220446e-16;0;3.709334e-17;0;0;0;0;2.280773e-16;-6.032674e-18;1.17055e-16;45;0;1.560733e-16;1.541018e-16;2.220446e-16;3.807983e-17;3.610685e-17;0;-1.972974e-18;0.856978;2.220446e-16;-2.220446e-16;0
0.233352;-4.635365;0.917075;8.39567e-13;0;0;8.39567e-13;4.440892e-16;-1.110223e-16;-5.308357e-17;0;0;0;0;4.491198e-16;-1.160529e-16;2.825864e-16;45;0;3.767819e-16;3.446728e-16;4.440892e-16;-5.325689e-17;-5.291024e-17;-1.110223e-16;3.466471e-19;0.917075;3.330669e-16;-3.330669e-16;0
0.300517;-4.635365;0.943489;8.39567e-13;0;0;8.39567e-13;0;-1.110223e-16;-1.352451e-17;0;0;0;0;1.623779e-18;-1.126461e-16;5.713493e-17;45;0;7.617991e-17;7.564446e-17;0;-2.704902e-17;0;-1.110223e-16;2.704902e-17;0.943489;-1.110223e-16;1.110223e-16;0
0.367682;-4.635365;0.953755;8.39567e-13;0;0;8.39567e-13;0;-1.110223e-16;2.358328e-17;0;0;0;0;4.801856e-18;-1.158242e-16;6.031301e-17;45;0;8.041734e-17;7.886547e-17;0;-3.08732e-18;5.025388e-17;-1.110223e-16;5.33412e-17;0.953755;-1.110223e-16;1.110223e-16;0
0.434848;-4.635365;0.969641;8.39567e-13;0;0;8.39567e-13;-1.110223e-16;0;1.659337e-17;0;0;0;0;2.426986e-18;-1.134493e-16;5.793814e-17;45;0;7.725085e-17;7.64547e-17;-1.110223e-16;3.318673e-17;0;0;-3.318673e-17;0.969641;-1.110223e-16;1.110223e-16;0
0.502013;-4.635365;0.980142;8.39567e-13;0;0;8.39567e-13;-1.110223e-16;0;-3.876486e-17;0;0;0;0;1.219559e-17;-1.232179e-16;6.770674e-17;45;0;9.027565e-17;8.649752e-17;-1.110223e-16;-4.729037e-17;-3.023935e-17;0;1.705102e-17;0.980142;-1.110223e-16;1.110223e-16;0
0.569178;-4.635365;0.989209;8.39567e-13;0;0;8.39567e-13;-1.110223e-16;0;2.445997e-17;0;0;0;0;5.150023e-18;-1.161723e-16;6.066117e-17;45;0;8.088157e-17;7.922071e-17;-1.110223e-16;-2.432332e-18;5.135227e-17;0;5.37846e-17;0.989209;-1.110223e-16;1.110223e-16;0
0.636344;-4.635365;0.981691;8.39567e-13;0;0;8.39567e-13;-1.110223e-16;2.220446e-16;-1.361885e-17;0;0;0;0;2.226005e-16;-1.115782e-16;1.670894e-16;45;0;2.227859e-16;1.964553e-16;-1.110223e-16;1.14632e-17;-3.87009e-17;2.220446e-16;-5.016409e-17;0.981691;1.110223e-16;-1.110223e-16;0
0.703509;-4.635365;0.997249;8.39567e-13;0;0;8.39567e-13;2.220446e-16;2.220446e-16;-6.445584e-20;0;0;0;0;2.221091e-16;2.219802e-16;6.445584e-20;45;0;8.594112e-20;1.480298e-16;2.220446e-16;-1.041904e-17;1.029013e-17;2.220446e-16;2.070916e-17;0.997249;4.440892e-16;-4.440892e-16;0
0.770674;-4.635365;0.98118;8.39567e-13;0;0;8.39567e-13;0;-1.110223e-16;-3.753501e-18;0;0;0;0;1.267556e-19;-1.111491e-16;5.563791e-17;45;0;7.418387e-17;7.414166e-17;0;6.241132e-18;-1.374813e-17;-1.110223e-16;-1.998927e-17;0.98118;-1.110223e-16;1.110223e-16;0
0.83784;-4.635365;0.966113;8.39567e-13;0;0;8.39567e-13;0;0;-5.910356e-18;0;0;0;0;5.910356e-18;-5.910356e-18;5.910356e-18;45;0;7.880474e-18;6.824691e-18;0;-2.976885e-17;1.794814e-17;0;4.771699e-17;0.966113;0;0;0
0.905005;-4.635365;0.966007;8.39567e-13;0;0;8.39567e-13;2.220446e-16;2.220446e-16;1.203763e-17;0;0;0;0;2.340822e-16;2.10007e-16;1.203763e-17;45;0;1.605017e-17;1.486809e-16;2.220446e-16;1.238636e-17;1.168889e-17;2.220446e-16;-6.974706e-19;0.966007;4.440892e-16;-4.440892e-16;0
0.97217;-4.635365;0.951755;8.39567e-13;0;0;8.39567e-13;0;0;-3.709662e-17;0;0;0;0;3.709662e-17;-3.709662e-17;3.709662e-17;45;0;4.946216e-17;4.283549e-17;0;-4.965223e-17;-2.454101e-17;0;2.511123e-17;0.951755;0;0;0
1.039336;-4.635365;0.920074;8.39567e-13;0;0;8.39567e-13;-1.110223e-16;-1.110223e-16;-5.401723e-17;0;0;0;0;-5.700507e-17;-1.650395e-16;5.401723e-17;45;0;7.202298e-17;9.679196e-17;-1.110223e-16;-4.699395e-17;-6.104052e-17;-1.110223e-16;-1.404656e-17;0.920074;-2.220446e-16;2.220446e-16;0
1.106501;-4.635365;0.888929;8.39567e-13;0;0;8.39567e-13;0;-1.110223e-16;-1.321171e-17;0;0;0;0;1.550544e-18;-1.125728e-16;5.70617e-17;45;0;7.608226e-17;7.557072e-17;0;-1.717985e-17;-9.243561e-18;-1.110223e-16;7.936292e-18;0.888929;-1.110223e-16;1.110223e-16;0
1.173667;-4.635365;0.860425;8.39567e-13;0;0;8.39567e-13;0;-1.110223e-16;7.678051e-17;0;0;0;0;3.923448e-17;-1.502568e-16;9.474563e-17;45;0;1.263275e-16;1.154926e-16;0;8.185396e-17;7.170706e-17;-1.110223e-16;-1.01469e-17;0.860425;-1.110223e-16;1.110223e-16;0
1.240832;-4.635365;0.818607;8.39567e-13;0;0;8.39567e-13;-2.220446e-16;-1.110223e-16;-1.13018e-17;0;0;0;0;-1.098835e-16;-2.231834e-16;5.664997e-17;45;0;7.553329e-17;1.2886e-16;-2.220446e-16;-3.679102e-17;1.418742e-17;-1.110223e-16;5.097844e-17;0.818607;-3.330669e-16;3.330669e-16;0
1.307997;-4.635365;0.760274;8.39567e-13;0;0;8.39567e-13;0;-3.330669e-16;-7.772298e-18;0;0;0;0;1.812722e-19;-3.332482e-16;1.667147e-16;45;0;2.222863e-16;2.222259e-16;0;8.331354e-18;-2.387595e-17;-3.330669e-16;-3.220731e-17;0.760274;-3.330669e-16;3.330669e-16;0
1.375163;-4.635365;0.698771;8.39567e-13;0;0;8.39567e-13;-2.220446e-16;0;5.72314e-17;0;0;0;0;1.38832e-17;-2.359278e-16;1.249055e-16;45;0;1.665407e-16;1.621112e-16;-2.220446e-16;1.31284e-16;-1.682114e-17;0;-1.481051e-16;0.698771;-2.220446e-16;2.220446e-16;0
1.442328;-4.635365;0.600557;8.39567e-13;0;0;8.39567e-13;-2.220446e-16;-1.110223e-16;8.369384e-17;0;0;0;0;-6.610365e-17;-2.669633e-16;1.004298e-16;45;0;1.339064e-16;1.605433e-16;-2.220446e-16;1.558904e-16;1.149725e-17;-1.110223e-16;-1.443932e-16;0.600557;-3.330669e-16;3.330669e-16;0
1.509493;-4.635365;0.506962;8.39567e-13;0;0;8.39567e-13;0;0;3.567455e-17;0;0;0;0;3.567455e-17;-3.567455e-17;3.567455e-17;45;0;4.756606e-17;4.119342e-17;0;6.489365e-17;6.455449e-18;0;-5.84382e-17;0.506962;0;0;0
1.576659;-4.635365;0.451263;8.39567e-13;0;0;8.39567e-13;0;0;-6.342401e-18;0;0;0;0;6.342401e-18;-6.342401e-18;6.342401e-18;45;0;8.456535e-18;7.323574e-18;0;-2.953462e-17;1.684982e-17;0;4.638444e-17;0.451263;0;0;0
-0.303971;-4.70253;0.36457;8.39567e-13;0;0;8.39567e-13;-2.220446e-16;2.220446e-16;-3.369614e-17;0;0;0;0;2.245868e-16;-2.245868e-16;2.245868e-16;45;0;2.994491e-16;2.593305e-16;-2.220446e-16;-4.727341e-17;-2.011887e-17;2.220446e-16;2.715453e-17;0.36457;0;0;0
-0.236806;-4.70253;0.486502;8.39567e-13;0;0;8.39567e-13;-2.220446e-16;0;4.149679e-17;0;0;0;0;7.501683e-18;-2.295463e-16;1.18524e-16;45;0;1.58032e-16;1.555917e-16;-2.220446e-16;5.579549e-17;2.719809e-17;0;-2.85974e-17;0.486502;-2.220446e-16;2.220446e-16;0
-0.169641;-4.70253;0.574723;8.39567e-13;0;0;8.39567e-13;-4.440892e-16;-3.330669e-16;-4.18131e-17;0;0;0;0;-3.190811e-16;-4.58075e-16;6.949693e-17;45;0;9.266257e-17;2.711968e-16;-4.440892e-16;-5.881732e-17;-2.480887e-17;-3.330669e-16;3.400845e-17;0.574723;-7.771561e-16;7.771561e-16;0
-0.102475;-4.70253;0.677845;8.39567e-13;0;0;8.39567e-13;-1.110223e-16;-1.110223e-16;-3.587714e-17;0;0;0;0;-7.514516e-17;-1.468994e-16;3.587714e-17;45;0;4.783619e-17;8.481997e-17;-1.110223e-16;-5.750551e-17;-1.424878e-17;-1.110223e-16;4.325673e-17;0.677845;-2.220446e-16;2.220446e-16;0
-0.03531;-4.70253;0.70292;8.39567e-13;0;0;8.39567e-13;-1.110223e-16;0;6.791173e-18;0;0;0;0;4.138695e-19;-1.114362e-16;5.592502e-17;45;0;7.456669e-17;7.442912e-17;-1.110223e-16;4.57536e-17;-3.217125e-17;0;-7.792485e-17;0.70292;-1.110223e-16;1.110223e-16;0
0.031855;-4.70253;0.768191;8.39567e-13;0;0;8.39567e-13;-3.330669e-16;-1.110223e-16;-2.494252e-17;0;0;0;0;-1.08255e-16;-3.358342e-16;1.137896e-16;45;0;1.517195e-16;1.979316e-16;-3.330669e-16;-4.21787e-17;-7.706352e-18;-1.110223e-16;3.447235e-17;0.768191;-4.440892e-16;4.440892e-16;0
0.099021;-4.70253;0.826343;8.39567e-13;0;0;8.39567e-13;2.220446e-16;0;-1.907202e-18;0;0;0;0;2.22061e-16;-1.638028e-20;1.110387e-16;45;0;1.480516e-16;1.480461e-16;2.220446e-16;9.047472e-18;-1.286188e-17;0;-2.190935e-17;0.826343;2.220446e-16;-2.220446e-16;0
0.166186;-4.70253;0.862264;8.39567e-13;0;0;8.39567e-13;2.220446e-16;0;1.530222e-17;0;0;0;0;2.230942e-16;-1.049592e-18;1.120719e-16;45;0;1.494292e-16;1.490806e-16;2.220446e-16;8.186684e-18;2.241775e-17;0;1.423106e-17;0.862264;2.220446e-16;-2.220446e-16;0
0.233352;-4.70253;0.895679;8.39567e-13;0;0;8.39567e-13;2.220446e-16;-1.110223e-16;-1.457233e-17;0;0;0;0;2.22681e-16;-1.116586e-16;1.671698e-16;45;0;2.228931e-16;1.965465e-16;2.220446e-16;-4.807979e-17;1.893514e-17;-1.110223e-16;6.701493e-17;0.895679;1.110223e-16;-1.110223e-16;0
0.300517;-4.70253;0.914689;8.39567e-13;0;0;8.39567e-13;0;0;2.383337e-19;0;0;0;0;2.383337e-19;-2.383337e-19;2.383337e-19;45;0;3.177783e-19;2.752041e-19;0;1.918197e-17;-1.87053e-17;0;-3.788726e-17;0.914689;0;0;0
0.367682;-4.70253;0.970275;8.39567e-13;0;0;8.39567e-13;-1.110223e-16;2.220446e-16;4.512863e-17;0;0;0;0;2.28051e-16;-1.170287e-16;1.725398e-16;45;0;2.300531e-16;2.026397e-16;-1.110223e-16;4.702364e-17;4.323362e-17;2.220446e-16;-3.790015e-18;0.970275;1.110223e-16;-1.110223e-16;0
0.434848;-4.70253;0.980847;8.39567e-13;0;0;8.39567e-13;-3.330669e-16;-1.110223e-16;1.978943e-18;0;0;0;0;-1.110047e-16;-3.330845e-16;1.110399e-16;45;0;1.480532e-16;1.958383e-16;-3.330669e-16;-1.13346e-17;1.529249e-17;-1.110223e-16;2.662709e-17;0.980847;-4.440892e-16;4.440892e-16;0
0.502013;-4.70253;0.985898;8.39567e-13;0;0;8.39567e-13;2.220446e-16;0;-3.21114e-17;0;0;0;0;2.265952e-16;-4.550592e-18;1.155729e-16;45;0;1.540972e-16;1.52603e-16;2.220446e-16;-1.49367e-17;-4.928611e-17;0;-3.434941e-17;0.985898;2.220446e-16;-2.220446e-16;0
0.569178;-4.70253;1.006201;8.39567e-13;0;0;8.39567e-13;2.220446e-16;2.220446e-16;6.590003e-21;0;0;0;0;2.220512e-16;2.22038e-16;6.590003e-21;45;0;8.78667e-21;1.480297e-16;2.220446e-16;-3.516529e-17;3.517847e-17;2.220446e-16;7.034376e-17;1.006201;4.440892e-16;-4.440892e-16;0
0.636344;-4.70253;1.018927;8.39567e-13;0;0;8.39567e-13;0;2.220446e-16;1.026138e-17;0;0;0;0;2.225178e-16;-4.732022e-19;1.114955e-16;45;0;1.486607e-16;1.485032e-16;0;2.565802e-17;-5.13526e-18;2.220446e-16;-3.079328e-17;1.018927;2.220446e-16;-2.220446e-16;0
0.703509;-4.70253;1.025134;8.39567e-13;0;0;8.39567e-13;-1.110223e-16;-1.110223e-16;3.743539e-17;0;0;0;0;-7.358692e-17;-1.484577e-16;3.743539e-17;45;0;4.991385e-17;8.571316e-17;-1.110223e-16;5.464214e-17;2.022863e-17;-1.110223e-16;-3.44135e-17;1.025134;-2.220446e-16;2.220446e-16;0
0.770674;-4.70253;0.982881;8.39567e-13;0;0;8.39567e-13;0;0;4.338079e-18;0;0;0;0;4.338079e-18;-4.338079e-18;4.338079e-18;45;0;5.784106e-18;5.009182e-18;0;1.824621e-17;-9.570055e-18;0;-2.781627e-17;0.982881;0;0;0
0.83784;-4.70253;0.955309;8.39567e-13;0;0;8.39567e-13;2.220446e-16;2.220446e-16;-3.91233e-17;0;0;0;0;2.611679e-16;1.829213e-16;3.91233e-17;45;0;5.21644e-17;1.547697e-16;2.220446e-16;-4.254381e-17;-3.57028e-17;2.220446e-16;6.841012e-18;0.955309;4.440892e-16;-4.440892e-16;0
0.905005;-4.70253;0.965558;8.39567e-13;0;0;8.39567e-13;2.220446e-16;0;-2.125397e-17;0;0;0;0;2.240607e-16;-2.016111e-18;1.130384e-16;45;0;1.507179e-16;1.500504e-16;2.220446e-16;-1.933397e-17;-2.317397e-17;0;-3.839997e-18;0.965558;2.220446e-16;-2.220446e-16;0
0.97217;-4.70253;0.957523;8.39567e-13;0;0;8.39567e-13;-3.330669e-16;2.220446e-16;2.710111e-19;0;0;0;0;2.220447e-16;-3.33067e-16;2.775559e-16;45;0;3.700745e-16;3.226235e-16;-3.330669e-16;-4.523832e-17;4.578034e-17;2.220446e-16;9.101867e-17;0.957523;-1.110223e-16;1.110223e-16;0
1.039336;-4.70253;0.922375;8.39567e-13;0;0;8.39567e-13;0;2.220446e-16;2.925077e-17;0;0;0;0;2.258333e-16;-3.788669e-18;1.14811e-16;45;0;1.530813e-16;1.518342e-16;0;4.913315e-17;9.36839e-18;2.220446e-16;-3.976476e-17;0.922375;2.220446e-16;-2.220446e-16;0
1.106501;-4.70253;0.89614;8.39567e-13;0;0;8.39567e-13;2.220446e-16;2.220446e-16;1.692924e-17;0;0;0;0;2.389739e-16;2.051154e-16;1.692924e-17;45;0;2.257232e-17;1.493149e-16;2.220446e-16;3.145022e-17;2.408265e-18;2.220446e-16;-2.904196e-17;0.89614;4.440892e-16;-4.440892e-16;0
1.173667;-4.70253;0.866285;8.39567e-13;0;0;8.39567e-13;-3.330669e-16;0;4.84404e-17;0;0;0;0;6.90202e-18;-3.399689e-16;1.734355e-16;45;0;2.312473e-16;2.289813e-16;-3.330669e-16;6.302334e-17;3.385746e-17;0;-2.916588e-17;0.866285;-3.330669e-16;3.330669e-16;0
1.240832;-4.70253;0.804909;8.39567e-13;0;0;8.39567e-13;2.220446e-16;0;1.279118e-17;0;0;0;0;2.22779e-16;-7.344235e-19;1.117567e-16;45;0;1.49009e-16;1.487648e-16;2.220446e-16;2.558235e-17;0;0;-2.558235e-17;0.804909;2.220446e-16;-2.220446e-16;0
1.307997;-4.70253;0.74933;8.39567e-13;0;0;8.39567e-13;-2.220446e-16;-3.330669e-16;-4.368722e-17;0;0;0;0;-2.069154e-16;-3.481961e-16;7.064036e-17;45;0;9.418715e-17;2.022181e-16;-2.220446e-16;-2.537311e-17;-6.200133e-17;-3.330669e-16;-3.662823e-17;0.74933;-5.551115e-16;5.551115e-16;0
1.375163;-4.70253;0.714017;8.39567e-13;0;0;8.39567e-13;-1.110223e-16;0;4.428109e-17;0;0;0;0;1.549802e-17;-1.265203e-16;7.100917e-17;45;0;9.467889e-17;8.9959e-17;-1.110223e-16;1.064101e-16;-1.784788e-17;0;-1.242579e-16;0.714017;-1.110223e-16;1.110223e-16;0
1.442328;-4.70253;0.637374;8.39567e-13;0;0;8.39567e-13;0;0;-4.480414e-17;0;0;0;0;4.480414e-17;-4.480414e-17;4.480414e-17;45;0;5.973884e-17;5.173536e-17;0;-7.251368e-17;-1.709459e-17;0;5.541909e-17;0.637374;0;0;0
1.509493;-4.70253;0.516652;8.39567e-13;0;0;8.39567e-13;0;-1.110223e-16;1.395507e-17;0;0;0;0;1.727226e-18;-1.127495e-16;5.723838e-17;45;0;7.631783e-17;7.574866e-17;0;1.214222e-17;1.576792e-17;-1.110223e-16;3.625701e-18;0.516652;-1.110223e-16;1.110223e-16;0
1.576659;-4.70253;0.429412;8.39567e-13;0;0;8.39567e-13;2.220446e-16;2.220446e-16;-1.122011e-17;0;0;0;0;2.332647e-16;2.108245e-16;1.122011e-17;45;0;1.496015e-17;1.485956e-16;2.220446e-16;-2.244023e-17;0;2.220446e-16;2.244023e-17;0.429412;4.440892e-16;-4.440892e-16;0
-0.303971;-4.769695;0.365705;8.39567e-13;0;0;8.39567e-13;0;2.220446e-16;6.789127e-17;0;0;0;0;2.411575e-16;-1.911292e-17;1.301352e-16;45;0;1.735136e-16;1.675065e-16;0;1.235548e-16;1.222774e-17;2.220446e-16;-1.113271e-16;0.365705;2.220446e-16;-2.220446e-16;0
-0.236806;-4.769695;0.513629;8.39567e-13;0;0;8.39567e-13;2.220446e-16;0;3.91708e-17;0;0;0;0;2.287521e-16;-6.707485e-18;1.177298e-16;45;0;1.56973e-16;1.547857e-16;2.220446e-16;7.834159e-17;0;0;-7.834159e-17;0.513629;2.220446e-16;-2.220446e-16;0
-0.169641;-4.769695;0.594953;8.39567e-13;0;0;8.39567e-13;0;2.220446e-16;-8.537412e-18;0;0;0;0;2.223724e-16;-3.277719e-19;1.113501e-16;45;0;1.484668e-16;1.483576e-16;0;3.551905e-18;-2.062673e-17;2.220446e-16;-2.417863e-17;0.594953;2.220446e-16;-2.220446e-16;0
-0.102475;-4.769695;0.650924;8.39567e-13;0;0;8.39567e-13;0;0;-2.549458e-18;0;0;0;0;2.549458e-18;-2.549458e-18;2.549458e-18;45;0;3.399277e-18;2.94386e-18;0;-1.807435e-17;1.297544e-17;0;3.104979e-17;0.650924;0;0;0
-0.03531;-4.769695;0.697277;8.39567e-13;0;0;8.39567e-13;0;-1.110223e-16;-1.201863e-17;0;0;0;0;1.286168e-18;-1.123085e-16;5.679732e-17;45;0;7.572976e-17;7.53047e-17;0;-4.661738e-17;2.258012e-17;-1.110223e-16;6.91975e-17;0.697277;-1.110223e-16;1.110223e-16;0
0.031855;-4.769695;0.776735;8.39567e-13;0;0;8.39567e-13;-1.110223e-16;-1.110223e-16;-5.052958e-17;0;0;0;0;-6.049272e-17;-1.615519e-16;5.052958e-17;45;0;6.737277e-17;9.424711e-17;-1.110223e-16;-5.456268e-17;-4.649647e-17;-1.110223e-16;8.066202e-18;0.776735;-2.220446e-16;2.220446e-16;0
0.099021;-4.769695;0.829723;8.39567e-13;0;0;8.39567e-13;-2.220446e-16;0;-1.178019e-17;0;0;0;0;6.232283e-19;-2.226678e-16;1.116455e-16;45;0;1.488607e-16;1.486534e-16;-2.220446e-16;-2.356038e-17;0;0;2.356038e-17;0.829723;-2.220446e-16;2.220446e-16;0
0.166186;-4.769695;0.875136;8.39567e-13;0;0;8.39567e-13;2.220446e-16;0;-4.487993e-18;0;0;0;0;2.221353e-16;-9.067484e-20;1.11113e-16;45;0;1.481506e-16;1.481204e-16;2.220446e-16;1.311687e-17;-2.209285e-17;0;-3.520972e-17;0.875136;2.220446e-16;-2.220446e-16;0
0.233352;-4.769695;0.898062;8.39567e-13;0;0;8.39567e-13;2.220446e-16;2.220446e-16;3.008101e-17;0;0;0;0;2.521256e-16;1.919636e-16;3.008101e-17;45;0;4.010801e-17;1.520503e-16;2.220446e-16;1.614405e-17;4.401797e-17;2.220446e-16;2.787391e-17;0.898062;4.440892e-16;-4.440892e-16;0
0.300517;-4.769695;0.915464;8.39567e-13;0;0;8.39567e-13;0;-4.440892e-16;-4.963198e-18;0;0;0;0;5.546241e-20;-4.441447e-16;2.221001e-16;45;0;2.961334e-16;2.961149e-16;0;-3.916326e-19;-9.534763e-18;-4.440892e-16;-9.14313e-18;0.915464;-4.440892e-16;4.440892e-16;0
0.367682;-4.769695;0.947972;8.39567e-13;0;0;8.39567e-13;2.220446e-16;-1.110223e-16;-2.865097e-17;0;0;0;0;2.244912e-16;-1.134689e-16;1.689801e-16;45;0;2.253068e-16;1.985999e-16;2.220446e-16;-1.587952e-17;-4.142241e-17;-1.110223e-16;-2.554288e-17;0.947972;1.110223e-16;-1.110223e-16;0
0.434848;-4.769695;0.949639;8.39567e-13;0;0;8.39567e-13;2.220446e-16;2.220446e-16;-1.388353e-17;0;0;0;0;2.359281e-16;2.081611e-16;1.388353e-17;45;0;1.851138e-17;1.488953e-16;2.220446e-16;-3.59878e-18;-2.416829e-17;2.220446e-16;-2.056951e-17;0.949639;4.440892e-16;-4.440892e-16;0
0.502013;-4.769695;0.976129;8.39567e-13;0;0;8.39567e-13;-1.110223e-16;-1.110223e-16;4.811869e-18;0;0;0;0;-1.062104e-16;-1.158342e-16;4.811869e-18;45;0;6.415825e-18;7.422313e-17;-1.110223e-16;-1.22695e-17;2.189324e-17;-1.110223e-16;3.416273e-17;0.976129;-2.220446e-16;2.220446e-16;0
0.569178;-4.769695;1.017553;8.39567e-13;0;0;8.39567e-13;-3.330669e-16;0;8.065639e-18;0;0;0;0;1.952053e-19;-3.332621e-16;1.667287e-16;45;0;2.223049e-16;2.222398e-16;-3.330669e-16;4.021968e-18;1.210931e-17;0;8.087342e-18;1.017553;-3.330669e-16;3.330669e-16;0
0.636344;-4.769695;1.030561;8.39567e-13;0;0;8.39567e-13;-3.330669e-16;0;7.876349e-18;0;0;0;0;1.861555e-19;-3.332531e-16;1.667196e-16;45;0;2.222928e-16;2.222308e-16;-3.330669e-16;1.629586e-18;1.412311e-17;0;1.249353e-17;1.030561;-3.330669e-16;3.330669e-16;0
0.703509;-4.769695;1.025547;8.39567e-13;0;0;8.39567e-13;-1.110223e-16;0;-2.464131e-17;0;0;0;0;5.223369e-18;-1.162457e-16;6.073452e-17;45;0;8.097936e-17;7.92956e-17;-1.110223e-16;-1.275728e-17;-3.652533e-17;0;-2.376805e-17;1.025547;-1.110223e-16;1.110223e-16;0
0.770674;-4.769695;1.002903;8.39567e-13;0;0;8.39567e-13;-1.110223e-16;2.220446e-16;8.998417e-18;0;0;0;0;2.222875e-16;-1.112652e-16;1.667764e-16;45;0;2.223685e-16;1.961004e-16;-1.110223e-16;2.289954e-17;-4.90271e-18;2.220446e-16;-2.780226e-17;1.002903;1.110223e-16;-1.110223e-16;0
0.83784;-4.769695;0.989131;8.39567e-13;0;0;8.39567e-13;2.220446e-16;0;-2.005764e-17;0;0;0;0;2.238419e-16;-1.797291e-18;1.128196e-16;45;0;1.504261e-16;1.498306e-16;2.220446e-16;-3.502672e-17;-5.088562e-18;0;2.993816e-17;0.989131;2.220446e-16;-2.220446e-16;0
0.905005;-4.769695;0.973924;8.39567e-13;0;0;8.39567e-13;2.220446e-16;2.220446e-16;-3.585841e-17;0;0;0;0;2.57903e-16;1.861862e-16;3.585841e-17;45;0;4.781121e-17;1.537115e-16;2.220446e-16;-3.667553e-17;-3.504129e-17;2.220446e-16;1.634249e-18;0.973924;4.440892e-16;-4.440892e-16;0
0.97217;-4.769695;0.944522;8.39567e-13;0;0;8.39567e-13;0;0;4.310567e-17;0;0;0;0;4.310567e-17;-4.310567e-17;4.310567e-17;45;0;5.747422e-17;4.977414e-17;0;6.530412e-17;2.090721e-17;0;-4.439691e-17;0.944522;0;0;0
1.039336;-4.769695;0.902473;8.39567e-13;0;0;8.39567e-13;0;0;1.456575e-17;0;0;0;0;1.456575e-17;-1.456575e-17;1.456575e-17;45;0;1.9421e-17;1.681908e-17;0;5.604032e-18;2.352746e-17;0;1.792343e-17;0.902473;0;0;0
1.106501;-4.769695;0.88354;8.39567e-13;0;0;8.39567e-13;0;2.220446e-16;2.234003e-17;0;0;0;0;2.242699e-16;-2.225341e-18;1.132476e-16;45;0;1.509969e-16;1.502606e-16;0;2.321405e-18;4.235866e-17;2.220446e-16;4.003725e-17;0.88354;2.220446e-16;-2.220446e-16;0
1.173667;-4.769695;0.870338;8.39567e-13;0;0;8.39567e-13;0;0;-3.363333e-18;0;0;0;0;3.363333e-18;-3.363333e-18;3.363333e-18;45;0;4.484443e-18;3.883642e-18;0;1.874268e-18;-8.600934e-18;0;-1.04752e-17;0.870338;0;0;0
1.240832;-4.769695;0.801748;8.39567e-13;0;0;8.39567e-13;2.220446e-16;-3.330669e-16;1.324781e-18;0;0;0;0;2.220478e-16;-3.330701e-16;2.775589e-16;45;0;3.700786e-16;3.22627e-16;2.220446e-16;6.512609e-18;-3.863048e-18;-3.330669e-16;-1.037566e-17;0.801748;-1.110223e-16;1.110223e-16;0
1.307997;-4.769695;0.747416;8.39567e-13;0;0;8.39567e-13;-2.220446e-16;0;2.857261e-17;0;0;0;0;3.617767e-18;-2.256624e-16;1.146401e-16;45;0;1.528534e-16;1.516619e-16;-2.220446e-16;2.197002e-17;3.51752e-17;0;1.320518e-17;0.747416;-2.220446e-16;2.220446e-16;0
1.375163;-4.769695;0.701047;8.39567e-13;0;0;8.39567e-13;-1.110223e-16;2.220446e-16;-2.326544e-18;0;0;0;0;2.220609e-16;-1.110386e-16;1.665497e-16;45;0;2.220663e-16;1.958434e-16;-1.110223e-16;6.031298e-18;-1.068439e-17;2.220446e-16;-1.671568e-17;0.701047;1.110223e-16;-1.110223e-16;0
1.442328;-4.769695;0.606136;8.39567e-13;0;0;8.39567e-13;0;2.220446e-16;-2.061017e-17;0;0;0;0;2.239414e-16;-1.89683e-18;1.129191e-16;45;0;1.505588e-16;1.499306e-16;0;-4.709126e-17;5.870926e-18;2.220446e-16;5.296218e-17;0.606136;2.220446e-16;-2.220446e-16;0
1.509493;-4.769695;0.514305;8.39567e-13;0;0;8.39567e-13;0;2.220446e-16;-1.203433e-17;0;0;0;0;2.226949e-16;-6.503301e-19;1.116726e-16;45;0;1.488968e-16;1.486805e-16;0;-5.507328e-17;3.100462e-17;2.220446e-16;8.60779e-17;0.514305;2.220446e-16;-2.220446e-16;0
1.576659;-4.769695;0.439315;8.39567e-13;0;0;8.39567e-13;0;0;-2.749963e-19;0;0;0;0;2.749963e-19;-2.749963e-19;2.749963e-19;45;0;3.666618e-19;3.175384e-19;0;4.995156e-18;-5.545149e-18;0;-1.054031e-17;0.439315;0;0;0
-0.303971;-4.836861;0.372456;8.39567e-13;0;0;8.39567e-13;6.661338e-16;0;7.693186e-17;0;0;0;0;6.749033e-16;-8.769421e-18;3.418363e-16;45;0;4.557818e-16;4.528869e-16;6.661338e-16;1.244433e-16;2.942044e-17;0;-9.502283e-17;0.372456;6.661338e-16;-6.661338e-16;0
-0.236806;-4.836861;0.528259;8.39567e-13;0;0;8.39567e-13;-2.220446e-16;0;-5.632538e-17;0;0;0;0;1.347067e-17;-2.355153e-16;1.24493e-16;45;0;1.659906e-16;1.616876e-16;-2.220446e-16;-1.152714e-16;2.620685e-18;0;1.178921e-16;0.528259;-2.220446e-16;2.220446e-16;0
-0.169641;-4.836861;0.592853;8.39567e-13;0;0;8.39567e-13;0;-1.110223e-16;-2.408695e-17;0;0;0;0;5.000575e-18;-1.160229e-16;6.051173e-17;45;0;8.06823e-17;7.906817e-17;0;-2.438379e-17;-2.379011e-17;-1.110223e-16;5.936821e-19;0.592853;-1.110223e-16;1.110223e-16;0
-0.102475;-4.836861;0.658036;8.39567e-13;0;0;8.39567e-13;0;-3.330669e-16;6.952623e-18;0;0;0;0;1.450697e-19;-3.33212e-16;1.666785e-16;45;0;2.22238e-16;2.221897e-16;0;2.832333e-17;-1.441809e-17;-3.330669e-16;-4.274142e-17;0.658036;-3.330669e-16;3.330669e-16;0
-0.03531;-4.836861;0.73516;8.39567e-13;0;0;8.39567e-13;-1.110223e-16;-1.110223e-16;4.517392e-19;0;0;0;0;-1.105706e-16;-1.11474e-16;4.517392e-19;45;0;6.023189e-19;7.40167e-17;-1.110223e-16;-1.348682e-17;1.43903e-17;-1.110223e-16;2.787711e-17;0.73516;-2.220446e-16;2.220446e-16;0
0.031855;-4.836861;0.791352;8.39567e-13;0;0;8.39567e-13;-4.440892e-16;2.220446e-16;2.964884e-18;0;0;0;0;2.220578e-16;-4.441024e-16;3.330801e-16;45;0;4.441068e-16;3.916648e-16;-4.440892e-16;-2.884196e-17;3.477173e-17;2.220446e-16;6.361369e-17;0.791352;-2.220446e-16;2.220446e-16;0
0.099021;-4.836861;0.802163;8.39567e-13;0;0;8.39567e-13;-1.110223e-16;-1.110223e-16;-2.211163e-17;0;0;0;0;-8.891067e-17;-1.331339e-16;2.211163e-17;45;0;2.948217e-17;7.829495e-17;-1.110223e-16;-5.058964e-17;6.366379e-18;-1.110223e-16;5.695602e-17;0.802163;-2.220446e-16;2.220446e-16;0
0.166186;-4.836861;0.879458;8.39567e-13;0;0;8.39567e-13;-1.110223e-16;-3.330669e-16;-1.214806e-18;0;0;0;0;-1.110157e-16;-3.330736e-16;1.110289e-16;45;0;1.480386e-16;1.9583e-16;-1.110223e-16;-4.484665e-17;4.241704e-17;-3.330669e-16;8.726368e-17;0.879458;-4.440892e-16;4.440892e-16;0
0.233352;-4.836861;0.917926;8.39567e-13;0;0;8.39567e-13;-3.330669e-16;2.220446e-16;-2.46846e-17;0;0;0;0;2.231401e-16;-3.341624e-16;2.786513e-16;45;0;3.71535e-16;3.2388e-16;-3.330669e-16;-2.047526e-17;-2.889395e-17;2.220446e-16;-8.418689e-18;0.917926;-1.110223e-16;1.110223e-16;0
0.300517;-4.836861;0.92808;8.39567e-13;0;0;8.39567e-13;0;2.220446e-16;9.859601e-18;0;0;0;0;2.224815e-16;-4.369429e-19;1.114592e-16;45;0;1.486123e-16;1.484669e-16;0;9.910567e-18;9.808635e-18;2.220446e-16;-1.019314e-19;0.92808;2.220446e-16;-2.220446e-16;0
0.367682;-4.836861;0.962629;8.39567e-13;0;0;8.39567e-13;0;2.220446e-16;-2.01855e-17;0;0;0;0;2.238647e-16;-1.820092e-18;1.128424e-16;45;0;1.504565e-16;1.498535e-16;0;-2.102389e-17;-1.93471e-17;2.220446e-16;1.676792e-18;0.962629;2.220446e-16;-2.220446e-16;0
0.434848;-4.836861;0.980561;8.39567e-13;0;0;8.39567e-13;-1.110223e-16;-1.110223e-16;3.036464e-17;0;0;0;0;-8.065766e-17;-1.413869e-16;3.036464e-17;45;0;4.048619e-17;8.189963e-17;-1.110223e-16;5.045529e-17;1.027399e-17;-1.110223e-16;-4.01813e-17;0.980561;-2.220446e-16;2.220446e-16;0
0.502013;-4.836861;0.975662;8.39567e-13;0;0;8.39567e-13;0;0;-7.834365e-18;0;0;0;0;7.834365e-18;-7.834365e-18;7.834365e-18;45;0;1.044582e-17;9.046346e-18;0;-3.59254e-17;2.025668e-17;0;5.618208e-17;0.975662;0;0;0
0.569178;-4.836861;1.000847;8.39567e-13;0;0;8.39567e-13;0;-1.110223e-16;-4.813805e-18;0;0;0;0;2.083304e-19;-1.112306e-16;5.571948e-17;45;0;7.429264e-17;7.422329e-17;0;9.74678e-18;-1.937439e-17;-1.110223e-16;-2.912117e-17;1.000847;-1.110223e-16;1.110223e-16;0
0.636344;-4.836861;1.024032;8.39567e-13;0;0;8.39567e-13;-1.110223e-16;2.220446e-16;7.015195e-18;0;0;0;0;2.221923e-16;-1.1117e-16;1.666811e-16;45;0;2.222415e-16;1.959924e-16;-1.110223e-16;1.403039e-17;0;2.220446e-16;-1.403039e-17;1.024032;1.110223e-16;-1.110223e-16;0
0.703509;-4.836861;1.025371;8.39567e-13;0;0;8.39567e-13;-1.110223e-16;2.220446e-16;-3.268205e-17;0;0;0;0;2.252212e-16;-1.141989e-16;1.697101e-16;45;0;2.262801e-16;1.994281e-16;-1.110223e-16;2.563759e-18;-6.792785e-17;2.220446e-16;-7.049161e-17;1.025371;1.110223e-16;-1.110223e-16;0
0.770674;-4.836861;0.996231;8.39567e-13;0;0;8.39567e-13;-1.110223e-16;2.220446e-16;-5.906329e-18;0;0;0;0;2.221493e-16;-1.11127e-16;1.666382e-16;45;0;2.221842e-16;1.959437e-16;-1.110223e-16;-2.676213e-17;1.494947e-17;2.220446e-16;4.171161e-17;0.996231;1.110223e-16;-1.110223e-16;0
0.83784;-4.836861;0.990683;8.39567e-13;0;0;8.39567e-13;0;2.220446e-16;4.935986e-17;0;0;0;0;2.325227e-16;-1.04781e-17;1.215004e-16;45;0;1.620005e-16;1.586232e-16;0;4.273862e-17;5.59811e-17;2.220446e-16;1.324248e-17;0.990683;2.220446e-16;-2.220446e-16;0
0.905005;-4.836861;0.983048;8.39567e-13;0;0;8.39567e-13;-1.110223e-16;0;1.935735e-17;0;0;0;0;3.278261e-18;-1.143006e-16;5.878941e-17;45;0;7.838588e-17;7.73163e-17;-1.110223e-16;1.287794e-17;2.583676e-17;0;1.295882e-17;0.983048;-1.110223e-16;1.110223e-16;0
0.97217;-4.836861;0.947454;8.39567e-13;0;0;8.39567e-13;0;2.220446e-16;1.357065e-17;0;0;0;0;2.228709e-16;-8.263198e-19;1.118486e-16;45;0;1.491315e-16;1.488568e-16;0;1.77601e-17;9.381206e-18;2.220446e-16;-8.378898e-18;0.947454;2.220446e-16;-2.220446e-16;0
1.039336;-4.836861;0.913345;8.39567e-13;0;0;8.39567e-13;0;2.220446e-16;1.334367e-17;0;0;0;0;2.228436e-16;-7.990069e-19;1.118213e-16;45;0;1.490951e-16;1.488295e-16;0;2.668734e-17;0;2.220446e-16;-2.668734e-17;0.913345;2.220446e-16;-2.220446e-16;0
1.106501;-4.836861;0.898215;8.39567e-13;0;0;8.39567e-13;-1.110223e-16;2.220446e-16;-4.282645e-18;0;0;0;0;2.220997e-16;-1.110774e-16;1.665885e-16;45;0;2.22118e-16;1.958874e-16;-1.110223e-16;1.163076e-18;-9.728366e-18;2.220446e-16;-1.089144e-17;0.898215;1.110223e-16;-1.110223e-16;0
1.173667;-4.836861;0.870006;8.39567e-13;0;0;8.39567e-13;2.220446e-16;-1.110223e-16;-6.997644e-18;0;0;0;0;2.221916e-16;-1.111693e-16;1.666804e-16;45;0;2.222405e-16;1.959916e-16;2.220446e-16;7.129376e-18;-2.112467e-17;-1.110223e-16;-2.825404e-17;0.870006;1.110223e-16;-1.110223e-16;0
1.240832;-4.836861;0.810025;8.39567e-13;0;0;8.39567e-13;2.220446e-16;-3.330669e-16;1.890407e-17;0;0;0;0;2.226876e-16;-3.337099e-16;2.781988e-16;45;0;3.709317e-16;3.233609e-16;2.220446e-16;2.305549e-17;1.475266e-17;-3.330669e-16;-8.302828e-18;0.810025;-1.110223e-16;1.110223e-16;0
1.307997;-4.836861;0.760987;8.39567e-13;0;0;8.39567e-13;-1.110223e-16;2.220446e-16;1.704521e-17;0;0;0;0;2.229146e-16;-1.118923e-16;1.674035e-16;45;0;2.232047e-16;1.968116e-16;-1.110223e-16;2.59191e-17;8.171317e-18;2.220446e-16;-1.774778e-17;0.760987;1.110223e-16;-1.110223e-16;0
1.375163;-4.836861;0.705036;8.39567e-13;0;0;8.39567e-13;-2.220446e-16;0;2.341146e-17;0;0;0;0;2.44156e-18;-2.244862e-16;1.134639e-16;45;0;1.512852e-16;1.504779e-16;-2.220446e-16;3.540508e-17;1.141784e-17;0;-2.398724e-17;0.705036;-2.220446e-16;2.220446e-16;0
1.442328;-4.836861;0.607794;8.39567e-13;0;0;8.39567e-13;0;2.220446e-16;2.12884e-17;0;0;0;0;2.240672e-16;-2.02259e-18;1.130449e-16;45;0;1.507265e-16;1.500569e-16;0;2.578274e-17;1.679406e-17;2.220446e-16;-8.988674e-18;0.607794;2.220446e-16;-2.220446e-16;0
1.509493;-4.836861;0.503952;8.39567e-13;0;0;8.39567e-13;-4.440892e-16;2.220446e-16;1.284592e-17;0;0;0;0;2.222922e-16;-4.443369e-16;3.333145e-16;45;0;4.444194e-16;3.919307e-16;-4.440892e-16;1.769322e-17;7.99861e-18;2.220446e-16;-9.694611e-18;0.503952;-2.220446e-16;2.220446e-16;0
1.576659;-4.836861;0.435639;8.39567e-13;0;0;8.39567e-13;0;-2.220446e-16;2.673075e-17;0;0;0;0;3.172639e-18;-2.252172e-16;1.141949e-16;45;0;1.522599e-16;1.512135e-16;0;1.11002e-17;4.23613e-17;-2.220446e-16;3.126109e-17;0.435639;-2.220446e-16;2.220446e-16;0
-0.303971;-4.904026;0.403852;8.39567e-13;0;0;8.39567e-13;0;0;-2.652325e-17;0;0;0;0;2.652325e-17;-2.652325e-17;2.652325e-17;45;0;3.536434e-17;3.062642e-17;0;-4.207226e-17;-1.097425e-17;0;3.109801e-17;0.403852;0;0;0
-0.236806;-4.904026;0.521865;8.39567e-13;0;0;8.39567e-13;2.220446e-16;0;1.423694e-17;0;0;0;0;2.229537e-16;-9.091141e-19;1.119314e-16;45;0;1.492419e-16;1.489398e-16;2.220446e-16;2.284955e-17;5.624318e-18;0;-1.722524e-17;0.521865;2.220446e-16;-2.220446e-16;0
-0.169641;-4.904026;0.59166;8.39567e-13;0;0;8.39567e-13;2.220446e-16;-1.110223e-16;-9.587102e-18;0;0;0;0;2.223203e-16;-1.11298e-16;1.668092e-16;45;0;2.224122e-16;1.961376e-16;2.220446e-16;-3.353866e-17;1.436445e-17;-1.110223e-16;4.790311e-17;0.59166;1.110223e-16;-1.110223e-16;0
-0.102475;-4.904026;0.660729;8.39567e-13;0;0;8.39567e-13;0;-3.330669e-16;8.823081e-18;0;0;0;0;2.335633e-19;-3.333005e-16;1.66767e-16;45;0;2.22356e-16;2.222782e-16;0;1.085953e-17;6.786631e-18;-3.330669e-16;-4.072901e-18;0.660729;-3.330669e-16;3.330669e-16;0
-0.03531;-4.904026;0.747975;8.39567e-13;0;0;8.39567e-13;0;0;3.256184e-17;0;0;0;0;3.256184e-17;-3.256184e-17;3.256184e-17;45;0;4.341578e-17;3.759917e-17;0;4.180442e-17;2.331925e-17;0;-1.848518e-17;0.747975;0;0;0
0.031855;-4.904026;0.80391;8.39567e-13;0;0;8.39567e-13;4.440892e-16;-1.110223e-16;2.082395e-17;0;0;0;0;4.448693e-16;-1.118024e-16;2.783358e-16;45;0;3.711144e-16;3.4003e-16;4.440892e-16;5.905948e-17;-1.741157e-17;-1.110223e-16;-7.647106e-17;0.80391;3.330669e-16;-3.330669e-16;0
0.099021;-4.904026;0.810328;8.39567e-13;0;0;8.39567e-13;2.220446e-16;2.220446e-16;1.603484e-17;0;0;0;0;2.380794e-16;2.060098e-16;1.603484e-17;45;0;2.137979e-17;1.491832e-16;2.220446e-16;-2.257922e-17;5.46489e-17;2.220446e-16;7.722812e-17;0.810328;4.440892e-16;-4.440892e-16;0
0.166186;-4.904026;0.867454;8.39567e-13;0;0;8.39567e-13;2.220446e-16;0;-4.908159e-18;0;0;0;0;2.221531e-16;-1.084389e-19;1.111307e-16;45;0;1.481743e-16;1.481382e-16;2.220446e-16;8.59098e-18;-1.84073e-17;0;-2.699828e-17;0.867454;2.220446e-16;-2.220446e-16;0
0.233352;-4.904026;0.921513;8.39567e-13;0;0;8.39567e-13;-1.110223e-16;0;3.670372e-18;0;0;0;0;1.212093e-19;-1.111435e-16;5.563236e-17;45;0;7.417648e-17;7.413611e-17;-1.110223e-16;-7.824234e-18;1.516498e-17;0;2.298921e-17;0.921513;-1.110223e-16;1.110223e-16;0
0.300517;-4.904026;0.930078;8.39567e-13;0;0;8.39567e-13;2.220446e-16;2.220446e-16;-1.943468e-17;0;0;0;0;2.414793e-16;2.026099e-16;1.943468e-17;45;0;2.591291e-17;1.497211e-16;2.220446e-16;-2.892139e-17;-9.947975e-18;2.220446e-16;1.897341e-17;0.930078;4.440892e-16;-4.440892e-16;0
0.367682;-4.904026;0.956353;8.39567e-13;0;0;8.39567e-13;0;-3.330669e-16;7.687475e-18;0;0;0;0;1.773392e-19;-3.332443e-16;1.667108e-16;45;0;2.222811e-16;2.22222e-16;0;5.62521e-18;9.74974e-18;-3.330669e-16;4.124529e-18;0.956353;-3.330669e-16;3.330669e-16;0
0.434848;-4.904026;0.98458;8.39567e-13;0;0;8.39567e-13;-1.110223e-16;0;-2.489481e-17;0;0;0;0;5.326663e-18;-1.16349e-16;6.083781e-17;45;0;8.111708e-17;7.940111e-17;-1.110223e-16;-1.429376e-17;-3.549586e-17;0;-2.12021e-17;0.98458;-1.110223e-16;1.110223e-16;0
0.502013;-4.904026;0.95479;8.39567e-13;0;0;8.39567e-13;-1.110223e-16;2.220446e-16;4.366272e-18;0;0;0;0;2.221018e-16;-1.110795e-16;1.665907e-16;45;0;2.221209e-16;1.958898e-16;-1.110223e-16;8.732544e-18;0;2.220446e-16;-8.732544e-18;0.95479;1.110223e-16;-1.110223e-16;0
0.569178;-4.904026;0.981613;8.39567e-13;0;0;8.39567e-13;0;0;-7.277054e-18;0;0;0;0;7.277054e-18;-7.277054e-18;7.277054e-18;45;0;9.702739e-18;8.402819e-18;0;5.10821e-18;-1.966232e-17;0;-2.477053e-17;0.981613;0;0;0
0.636344;-4.904026;0.99627;8.39567e-13;0;0;8.39567e-13;0;-3.330669e-16;-8.41766e-18;0;0;0;0;2.126053e-19;-3.332795e-16;1.667461e-16;45;0;2.223281e-16;2.222572e-16;0;-2.691397e-17;1.007865e-17;-3.330669e-16;3.699263e-17;0.99627;-3.330669e-16;3.330669e-16;0
0.703509;-4.904026;1.031526;8.39567e-13;0;0;8.39567e-13;2.220446e-16;2.220446e-16;-6.094356e-19;0;0;0;0;2.22654e-16;2.214352e-16;6.094356e-19;45;0;8.125808e-19;1.480314e-16;2.220446e-16;7.838231e-18;-9.057102e-18;2.220446e-16;-1.689533e-17;1.031526;4.440892e-16;-4.440892e-16;0
0.770674;-4.904026;1.017224;8.39567e-13;0;0;8.39567e-13;0;2.220446e-16;-7.41309e-18;0;0;0;0;2.222918e-16;-2.472151e-19;1.112695e-16;45;0;1.483594e-16;1.48277e-16;0;5.282918e-18;-2.01091e-17;2.220446e-16;-2.539201e-17;1.017224;2.220446e-16;-2.220446e-16;0
0.83784;-4.904026;0.995027;8.39567e-13;0;0;8.39567e-13;2.220446e-16;0;3.78747e-18;0;0;0;0;2.221092e-16;-6.458502e-20;1.110869e-16;45;0;1.481158e-16;1.480943e-16;2.220446e-16;1.718722e-17;-9.612285e-18;0;-2.679951e-17;0.995027;2.220446e-16;-2.220446e-16;0
0.905005;-4.904026;0.973542;8.39567e-13;0;0;8.39567e-13;2.220446e-16;-3.330669e-16;-1.313955e-17;0;0;0;0;2.223554e-16;-3.333777e-16;2.778666e-16;45;0;3.704888e-16;3.229799e-16;2.220446e-16;-1.063228e-18;-2.521588e-17;-3.330669e-16;-2.415265e-17;0.973542;-1.110223e-16;1.110223e-16;0
0.97217;-4.904026;0.959216;8.39567e-13;0;0;8.39567e-13;2.220446e-16;0;5.173906e-18;0;0;0;0;2.221651e-16;-1.204928e-19;1.111428e-16;45;0;1.481904e-16;1.481502e-16;2.220446e-16;-1.853655e-17;2.888436e-17;0;4.742091e-17;0.959216;2.220446e-16;-2.220446e-16;0
1.039336;-4.904026;0.943381;8.39567e-13;0;0;8.39567e-13;0;0;4.106547e-17;0;0;0;0;4.106547e-17;-4.106547e-17;4.106547e-17;45;0;5.475397e-17;4.741832e-17;0;5.469293e-17;2.743802e-17;0;-2.725492e-17;0.943381;0;0;0
1.106501;-4.904026;0.911839;8.39567e-13;0;0;8.39567e-13;2.220446e-16;0;2.558137e-17;0;0;0;0;2.249537e-16;-2.909073e-18;1.139314e-16;45;0;1.519085e-16;1.509482e-16;2.220446e-16;3.299007e-17;1.817268e-17;0;-1.481739e-17;0.911839;2.220446e-16;-2.220446e-16;0
1.173667;-4.904026;0.873254;8.39567e-13;0;0;8.39567e-13;0;-1.110223e-16;-6.111947e-19;0;0;0;0;3.364617e-21;-1.110257e-16;5.551451e-17;45;0;7.401936e-17;7.401823e-17;0;4.796228e-17;-4.918468e-17;-1.110223e-16;-9.714696e-17;0.873254;-1.110223e-16;1.110223e-16;0
1.240832;-4.904026;0.801344;8.39567e-13;0;0;8.39567e-13;2.220446e-16;-1.110223e-16;3.053946e-17;0;0;0;0;2.248217e-16;-1.137994e-16;1.693105e-16;45;0;2.257474e-16;1.989747e-16;2.220446e-16;2.055402e-17;4.052489e-17;-1.110223e-16;1.997087e-17;0.801344;1.110223e-16;-1.110223e-16;0
1.307997;-4.904026;0.757105;8.39567e-13;0;0;8.39567e-13;0;-1.110223e-16;-2.068747e-17;0;0;0;0;3.72954e-18;-1.147518e-16;5.924069e-17;45;0;7.898759e-17;7.777422e-17;0;-1.375706e-18;-3.999924e-17;-1.110223e-16;-3.862354e-17;0.757105;-1.110223e-16;1.110223e-16;0
1.375163;-4.904026;0.700298;8.39567e-13;0;0;8.39567e-13;-2.220446e-16;2.220446e-16;1.375604e-17;0;0;0;0;2.224703e-16;-2.224703e-16;2.224703e-16;45;0;2.966271e-16;2.568866e-16;-2.220446e-16;7.476284e-17;-4.725076e-17;2.220446e-16;-1.220136e-16;0.700298;0;0;0
1.442328;-4.904026;0.602809;8.39567e-13;0;0;8.39567e-13;-2.220446e-16;2.220446e-16;-1.217985e-17;0;0;0;0;2.223784e-16;-2.223784e-16;2.223784e-16;45;0;2.965045e-16;2.567805e-16;-2.220446e-16;-1.854909e-17;-5.810603e-18;2.220446e-16;1.273849e-17;0.602809;0;0;0
1.509493;-4.904026;0.508516;8.39567e-13;0;0;8.39567e-13;6.661338e-16;2.220446e-16;-4.765192e-17;0;0;0;0;6.711894e-16;2.16989e-16;2.271002e-16;45;0;3.028003e-16;3.954962e-16;6.661338e-16;-7.584707e-17;-1.945678e-17;2.220446e-16;5.639029e-17;0.508516;8.881784e-16;-8.881784e-16;0
1.576659;-4.904026;0.446328;8.39567e-13;0;0;8.39567e-13;4.440892e-16;0;-2.52241e-18;0;0;0;0;4.441036e-16;-1.432673e-20;2.220589e-16;45;0;2.960786e-16;2.960738e-16;4.440892e-16;-3.641272e-17;3.13679e-17;0;6.778061e-17;0.446328;4.440892e-16;-4.440892e-16;0
-0.303971;-4.971192;0.377542;8.39567e-13;0;0;8.39567e-13;4.440892e-16;-2.220446e-16;4.852043e-19;0;0;0;0;4.440896e-16;-2.220449e-16;3.330673e-16;45;0;4.440897e-16;3.916503e-16;4.440892e-16;-1.275413e-17;1.372454e-17;-2.220446e-16;2.647867e-17;0.377542;2.220446e-16;-2.220446e-16;0
-0.236806;-4.971192;0.491491;8.39567e-13;0;0;8.39567e-13;0;0;1.256116e-18;0;0;0;0;1.256116e-18;-1.256116e-18;1.256116e-18;45;0;1.674822e-18;1.450438e-18;0;-3.263071e-18;5.775303e-18;0;9.038375e-18;0.491491;0;0;0
-0.169641;-4.971192;0.572526;8.39567e-13;0;0;8.39567e-13;0;0;5.9469e-17;0;0;0;0;5.9469e-17;-5.9469e-17;5.9469e-17;45;0;7.9292e-17;6.866889e-17;0;7.240741e-17;4.653059e-17;0;-2.587683e-17;0.572526;0;0;0
-0.102475;-4.971192;0.628646;8.39567e-13;0;0;8.39567e-13;0;2.220446e-16;-2.031505e-17;0;0;0;0;2.238879e-16;-1.843338e-18;1.128656e-16;45;0;1.504875e-16;1.498769e-16;0;-3.731963e-17;-3.31047e-18;2.220446e-16;3.400916e-17;0.628646;2.220446e-16;-2.220446e-16;0
-0.03531;-4.971192;0.720745;8.39567e-13;0;0;8.39567e-13;-2.220446e-16;0;5.617513e-18;0;0;0;0;1.420268e-19;-2.221866e-16;1.111643e-16;45;0;1.482191e-16;1.481718e-16;-2.220446e-16;2.971384e-17;-1.847882e-17;0;-4.819266e-17;0.720745;-2.220446e-16;2.220446e-16;0
0.031855;-4.971192;0.82775;8.39567e-13;0;0;8.39567e-13;0;0;-8.629235e-18;0;0;0;0;8.629235e-18;-8.629235e-18;8.629235e-18;45;0;1.150565e-17;9.964182e-18;0;-7.616544e-18;-9.641925e-18;0;-2.02538e-18;0.82775;0;0;0
0.099021;-4.971192;0.848523;8.39567e-13;0;0;8.39567e-13;2.220446e-16;2.220446e-16;7.009128e-18;0;0;0;0;2.290537e-16;2.150355e-16;7.009128e-18;45;0;9.345505e-18;1.482508e-16;2.220446e-16;-3.81071e-17;5.212536e-17;2.220446e-16;9.023245e-17;0.848523;4.440892e-16;-4.440892e-16;0
0.166186;-4.971192;0.869309;8.39567e-13;0;0;8.39567e-13;-1.110223e-16;0;1.582442e-18;0;0;0;0;2.255054e-20;-1.110449e-16;5.55337e-17;45;0;7.404493e-17;7.403742e-17;-1.110223e-16;-1.003059e-17;1.319547e-17;0;2.322607e-17;0.869309;-1.110223e-16;1.110223e-16;0
0.233352;-4.971192;0.91536;8.39567e-13;0;0;8.39567e-13;2.220446e-16;2.220446e-16;2.418012e-17;0;0;0;0;2.462247e-16;1.978645e-16;2.418012e-17;45;0;3.224016e-17;1.506399e-16;2.220446e-16;5.064644e-17;-2.286203e-18;2.220446e-16;-5.293264e-17;0.91536;4.440892e-16;-4.440892e-16;0
0.300517;-4.971192;0.939817;8.39567e-13;0;0;8.39567e-13;2.220446e-16;-1.110223e-16;-6.423993e-18;0;0;0;0;2.221685e-16;-1.111462e-16;1.666573e-16;45;0;2.222097e-16;1.959654e-16;2.220446e-16;-2.975882e-18;-9.872104e-18;-1.110223e-16;-6.896223e-18;0.939817;1.110223e-16;-1.110223e-16;0
0.367682;-4.971192;0.950781;8.39567e-13;0;0;8.39567e-13;0;0;1.332218e-17;0;0;0;0;1.332218e-17;-1.332218e-17;1.332218e-17;45;0;1.776291e-17;1.538313e-17;0;-8.619438e-18;3.526381e-17;0;4.388325e-17;0.950781;0;0;0
0.434848;-4.971192;0.962338;8.39567e-13;0;0;8.39567e-13;-1.110223e-16;2.220446e-16;-4.063386e-17;0;0;0;0;2.269302e-16;-1.159079e-16;1.714191e-16;45;0;2.285588e-16;2.013675e-16;-1.110223e-16;-1.867071e-17;-6.259701e-17;2.220446e-16;-4.39263e-17;0.962338;1.110223e-16;-1.110223e-16;0
0.502013;-4.971192;0.957409;8.39567e-13;0;0;8.39567e-13;-1.110223e-16;0;-4.52406e-18;0;0;0;0;1.840463e-19;-1.112063e-16;5.56952e-17;45;0;7.426027e-17;7.419899e-17;-1.110223e-16;-1.160069e-17;2.552572e-18;0;1.415327e-17;0.957409;-1.110223e-16;1.110223e-16;0
0.569178;-4.971192;1.0023;8.39567e-13;0;0;8.39567e-13;-1.110223e-16;0;2.867689e-18;0;0;0;0;7.40226e-20;-1.110963e-16;5.558517e-17;45;0;7.411356e-17;7.408891e-17;-1.110223e-16;-8.489522e-18;1.42249e-17;0;2.271442e-17;1.0023;-1.110223e-16;1.110223e-16;0
0.636344;-4.971192;0.993863;8.39567e-13;0;0;8.39567e-13;2.220446e-16;0;-1.696722e-17;0;0;0;0;2.233337e-16;-1.289042e-18;1.123113e-16;45;0;1.497485e-16;1.493206e-16;2.220446e-16;1.126142e-17;-4.519585e-17;0;-5.645727e-17;0.993863;2.220446e-16;-2.220446e-16;0
0.703509;-4.971192;0.99146;8.39567e-13;0;0;8.39567e-13;-1.110223e-16;0;5.595815e-18;0;0;0;0;2.813308e-19;-1.113036e-16;5.579249e-17;45;0;7.438997e-17;7.429638e-17;-1.110223e-16;2.150241e-17;-1.031078e-17;0;-3.181319e-17;0.99146;-1.110223e-16;1.110223e-16;0
0.770674;-4.971192;0.969542;8.39567e-13;0;0;8.39567e-13;0;2.220446e-16;-2.415291e-18;0;0;0;0;2.220709e-16;-2.626923e-20;1.110486e-16;45;0;1.480648e-16;1.48056e-16;0;2.991091e-19;-5.129691e-18;2.220446e-16;-5.4288e-18;0.969542;2.220446e-16;-2.220446e-16;0
0.83784;-4.971192;0.98572;8.39567e-13;0;0;8.39567e-13;2.220446e-16;0;2.093276e-17;0;0;0;0;2.240007e-16;-1.956156e-18;1.129785e-16;45;0;1.506379e-16;1.499901e-16;2.220446e-16;1.999607e-17;2.186945e-17;0;1.873383e-18;0.98572;2.220446e-16;-2.220446e-16;0
0.905005;-4.971192;1.001858;8.39567e-13;0;0;8.39567e-13;0;0;-1.761142e-17;0;0;0;0;1.761142e-17;-1.761142e-17;1.761142e-17;45;0;2.348189e-17;2.033591e-17;0;2.1216e-18;-3.734444e-17;0;-3.946603e-17;1.001858;0;0;0
0.97217;-4.971192;0.988184;8.39567e-13;0;0;8.39567e-13;-1.110223e-16;-1.110223e-16;-2.869238e-17;0;0;0;0;-8.232992e-17;-1.397147e-16;2.869238e-17;45;0;3.82565e-17;8.109174e-17;-1.110223e-16;-6.412677e-17;6.742017e-18;-1.110223e-16;7.086879e-17;0.988184;-2.220446e-16;2.220446e-16;0
1.039336;-4.971192;0.921487;8.39567e-13;0;0;8.39567e-13;2.220446e-16;-1.110223e-16;-6.277843e-18;0;0;0;0;2.221629e-16;-1.111406e-16;1.666517e-16;45;0;2.222023e-16;1.959591e-16;2.220446e-16;-4.315886e-18;-8.239799e-18;-1.110223e-16;-3.923914e-18;0.921487;1.110223e-16;-1.110223e-16;0
1.106501;-4.971192;0.863456;8.39567e-13;0;0;8.39567e-13;0;0;1.900366e-18;0;0;0;0;1.900366e-18;-1.900366e-18;1.900366e-18;45;0;2.533822e-18;2.194354e-18;0;-5.14875e-18;8.949483e-18;0;1.409823e-17;0.863456;0;0;0
1.173667;-4.971192;0.840822;8.39567e-13;0;0;8.39567e-13;2.220446e-16;2.220446e-16;-1.772143e-17;0;0;0;0;2.39766e-16;2.043232e-16;1.772143e-17;45;0;2.362857e-17;1.494374e-16;2.220446e-16;8.799838e-18;-4.42427e-17;2.220446e-16;-5.304254e-17;0.840822;4.440892e-16;-4.440892e-16;0
1.240832;-4.971192;0.79372;8.39567e-13;0;0;8.39567e-13;-4.440892e-16;0;6.24207e-17;0;0;0;0;8.606973e-18;-4.526962e-16;2.306516e-16;45;0;3.075354e-16;3.04707e-16;-4.440892e-16;9.132885e-17;3.351255e-17;0;-5.78163e-17;0.79372;-4.440892e-16;4.440892e-16;0
1.307997;-4.971192;0.770026;8.39567e-13;0;0;8.39567e-13;0;0;-4.766981e-17;0;0;0;0;4.766981e-17;-4.766981e-17;4.766981e-17;45;0;6.355975e-17;5.504436e-17;0;-4.523754e-17;-5.010208e-17;0;-4.864538e-18;0.770026;0;0;0
1.375163;-4.971192;0.725139;8.39567e-13;0;0;8.39567e-13;0;0;-3.438506e-18;0;0;0;0;3.438506e-18;-3.438506e-18;3.438506e-18;45;0;4.584675e-18;3.970445e-18;0;-1.010216e-17;3.225153e-18;0;1.332732e-17;0.725139;0;0;0
1.442328;-4.971192;0.624027;8.39567e-13;0;0;8.39567e-13;-2.220446e-16;-3.330669e-16;2.009936e-17;0;0;0;0;-2.185179e-16;-3.365936e-16;5.903789e-17;45;0;7.871718e-17;1.971955e-16;-2.220446e-16;2.076731e-17;1.943141e-17;-3.330669e-16;-1.3359e-18;0.624027;-5.551115e-16;5.551115e-16;0
1.509493;-4.971192;0.525266;8.39567e-13;0;0;8.39567e-13;2.220446e-16;-1.110223e-16;1.584164e-17;0;0;0;0;2.227964e-16;-1.117741e-16;1.672852e-16;45;0;2.23047e-16;1.966774e-16;2.220446e-16;3.168328e-17;0;-1.110223e-16;-3.168328e-17;0.525266;1.110223e-16;-1.110223e-16;0
1.576659;-4.971192;0.454642;8.39567e-13;0;0;8.39567e-13;2.220446e-16;-2.220446e-16;1.678757e-17;0;0;0;0;2.226783e-16;-2.226783e-16;2.226783e-16;45;0;2.969044e-16;2.571268e-16;2.220446e-16;-6.656741e-17;1.001425e-16;-2.220446e-16;1.6671e-16;0.454642;0;0;0
-0.303971;-5.038357;0.378453;8.39567e-13;0;0;8.39567e-13;-2.220446e-16;0;6.133538e-17;0;0;0;0;1.58161e-17;-2.378607e-16;1.268384e-16;45;0;1.691179e-16;1.641001e-16;-2.220446e-16;7.121025e-17;5.146052e-17;0;-1.974973e-17;0.378453;-2.220446e-16;2.220446e-16;0
-0.236806;-5.038357;0.508226;8.39567e-13;0;0;8.39567e-13;4.440892e-16;0;3.726445e-17;0;0;0;0;4.471944e-16;-3.105226e-18;2.251498e-16;45;0;3.001998e-16;2.991701e-16;4.440892e-16;7.724743e-17;-2.718521e-18;0;-7.996595e-17;0.508226;4.440892e-16;-4.440892e-16;0
-0.169641;-5.038357;0.583279;8.39567e-13;0;0;8.39567e-13;2.220446e-16;0;6.348722e-18;0;0;0;0;2.22226e-16;-1.813752e-19;1.112037e-16;45;0;1.482716e-16;1.482112e-16;2.220446e-16;3.375771e-17;-2.106027e-17;0;-5.481798e-17;0.583279;2.220446e-16;-2.220446e-16;0
-0.102475;-5.038357;0.645192;8.39567e-13;0;0;8.39567e-13;0;-1.110223e-16;8.683039e-18;0;0;0;0;6.749955e-19;-1.116973e-16;5.618614e-17;45;0;7.491486e-17;7.469088e-17;0;3.079675e-17;-1.343068e-17;-1.110223e-16;-4.422743e-17;0.645192;-1.110223e-16;1.110223e-16;0
-0.03531;-5.038357;0.741087;8.39567e-13;0;0;8.39567e-13;2.220446e-16;-3.330669e-16;3.061542e-17;0;0;0;0;2.23728e-16;-3.347503e-16;2.792392e-16;45;0;3.723189e-16;3.245544e-16;2.220446e-16;4.143704e-17;1.979379e-17;-3.330669e-16;-2.164326e-17;0.741087;-1.110223e-16;1.110223e-16;0
0.031855;-5.038357;0.803307;8.39567e-13;0;0;8.39567e-13;-2.220446e-16;-1.110223e-16;-3.192277e-17;0;0;0;0;-1.024979e-16;-2.30569e-16;6.403555e-17;45;0;8.538073e-17;1.333917e-16;-2.220446e-16;-4.732075e-17;-1.652479e-17;-1.110223e-16;3.079596e-17;0.803307;-3.330669e-16;3.330669e-16;0
0.099021;-5.038357;0.828042;8.39567e-13;0;0;8.39567e-13;2.220446e-16;2.220446e-16;2.355642e-17;0;0;0;0;2.45601e-16;1.984882e-16;2.355642e-17;45;0;3.140856e-17;1.505081e-16;2.220446e-16;3.829077e-17;8.822074e-18;2.220446e-16;-2.94687e-17;0.828042;4.440892e-16;-4.440892e-16;0
0.166186;-5.038357;0.881538;8.39567e-13;0;0;8.39567e-13;-3.330669e-16;-1.110223e-16;-5.004567e-17;0;0;0;0;-1.00264e-16;-3.438252e-16;1.217806e-16;45;0;1.623742e-16;2.041735e-16;-3.330669e-16;-6.945642e-17;-3.063492e-17;-1.110223e-16;3.88215e-17;0.881538;-4.440892e-16;4.440892e-16;0
0.233352;-5.038357;0.915006;8.39567e-13;0;0;8.39567e-13;2.220446e-16;2.220446e-16;7.848234e-18;0;0;0;0;2.298928e-16;2.141964e-16;7.848234e-18;45;0;1.046431e-17;1.483069e-16;2.220446e-16;8.73886e-18;6.957609e-18;2.220446e-16;-1.781251e-18;0.915006;4.440892e-16;-4.440892e-16;0
0.300517;-5.038357;0.956301;8.39567e-13;0;0;8.39567e-13;2.220446e-16;-1.110223e-16;-3.206264e-18;0;0;0;0;2.220755e-16;-1.110532e-16;1.665643e-16;45;0;2.220858e-16;1.958599e-16;2.220446e-16;-1.421232e-17;7.799789e-18;-1.110223e-16;2.20121e-17;0.956301;1.110223e-16;-1.110223e-16;0
0.367682;-5.038357;0.974644;8.39567e-13;0;0;8.39567e-13;0;-1.110223e-16;-3.326484e-17;0;0;0;0;9.2039e-18;-1.202262e-16;6.471505e-17;45;0;8.628674e-17;8.338825e-17;0;-6.90555e-17;2.525809e-18;-1.110223e-16;7.158131e-17;0.974644;-1.110223e-16;1.110223e-16;0
0.434848;-5.038357;0.977987;8.39567e-13;0;0;8.39567e-13;2.220446e-16;2.220446e-16;1.969946e-17;0;0;0;0;2.417441e-16;2.023451e-16;1.969946e-17;45;0;2.626595e-17;1.497672e-16;2.220446e-16;2.521624e-17;1.418268e-17;2.220446e-16;-1.103356e-17;0.977987;4.440892e-16;-4.440892e-16;0
0.502013;-5.038357;0.978225;8.39567e-13;0;0;8.39567e-13;0;2.220446e-16;1.156006e-17;0;0;0;0;2.226448e-16;-6.002157e-19;1.116225e-16;45;0;1.4883e-16;1.486304e-16;0;1.667746e-17;6.442655e-18;2.220446e-16;-1.02348e-17;0.978225;2.220446e-16;-2.220446e-16;0
0.569178;-5.038357;0.978689;8.39567e-13;0;0;8.39567e-13;0;-1.110223e-16;-1.542465e-17;0;0;0;0;2.103151e-18;-1.131255e-16;5.76143e-17;45;0;7.681907e-17;7.61277e-17;0;1.165239e-17;-4.25017e-17;-1.110223e-16;-5.415409e-17;0.978689;-1.110223e-16;1.110223e-16;0
0.636344;-5.038357;0.978658;8.39567e-13;0;0;8.39567e-13;-3.330669e-16;0;-3.173375e-17;0;0;0;0;2.99655e-18;-3.360634e-16;1.6953e-16;45;0;2.2604e-16;2.250478e-16;-3.330669e-16;-3.453135e-17;-2.893615e-17;0;5.595197e-18;0.978658;-3.330669e-16;3.330669e-16;0
0.703509;-5.038357;0.993878;8.39567e-13;0;0;8.39567e-13;2.220446e-16;0;-4.710248e-18;0;0;0;0;2.221445e-16;-9.98739e-20;1.111222e-16;45;0;1.481629e-16;1.481296e-16;2.220446e-16;-1.680002e-18;-7.740494e-18;0;-6.060492e-18;0.993878;2.220446e-16;-2.220446e-16;0
0.770674;-5.038357;0.971106;8.39567e-13;0;0;8.39567e-13;0;-3.330669e-16;2.21204e-18;0;0;0;0;1.469046e-20;-3.330816e-16;1.665481e-16;45;0;2.220642e-16;2.220593e-16;0;-2.646108e-17;3.088516e-17;-3.330669e-16;5.734625e-17;0.971106;-3.330669e-16;3.330669e-16;0
0.83784;-5.038357;0.985825;8.39567e-13;0;0;8.39567e-13;0;-1.110223e-16;-5.523343e-19;0;0;0;0;2.747787e-21;-1.110251e-16;5.55139e-17;45;0;7.401853e-17;7.401762e-17;0;-1.234934e-17;1.124467e-17;-1.110223e-16;2.359402e-17;0.985825;-1.110223e-16;1.110223e-16;0
0.905005;-5.038357;0.998986;8.39567e-13;0;0;8.39567e-13;2.220446e-16;0;-4.648354e-17;0;0;0;0;2.313829e-16;-9.338286e-18;1.203606e-16;45;0;1.604808e-16;1.574604e-16;2.220446e-16;-2.862349e-17;-6.434359e-17;0;-3.57201e-17;0.998986;2.220446e-16;-2.220446e-16;0
0.97217;-5.038357;0.971119;8.39567e-13;0;0;8.39567e-13;0;-3.330669e-16;-3.49093e-18;0;0;0;0;3.6585e-20;-3.331035e-16;1.6657e-16;45;0;2.220934e-16;2.220812e-16;0;2.521513e-17;-3.219699e-17;-3.330669e-16;-5.741212e-17;0.971119;-3.330669e-16;3.330669e-16;0
1.039336;-5.038357;0.917193;8.39567e-13;0;0;8.39567e-13;-1.110223e-16;2.220446e-16;1.270459e-17;0;0;0;0;2.225285e-16;-1.115062e-16;1.670174e-16;45;0;2.226898e-16;1.963737e-16;-1.110223e-16;4.226884e-17;-1.685966e-17;2.220446e-16;-5.91285e-17;0.917193;1.110223e-16;-1.110223e-16;0
1.106501;-5.038357;0.883;8.39567e-13;0;0;8.39567e-13;-3.330669e-16;0;-1.366086e-17;0;0;0;0;5.593657e-19;-3.336263e-16;1.670928e-16;45;0;2.227904e-16;2.226042e-16;-3.330669e-16;-8.50827e-18;-1.881345e-17;0;-1.030518e-17;0.883;-3.330669e-16;3.330669e-16;0
1.173667;-5.038357;0.88254;8.39567e-13;0;0;8.39567e-13;-1.110223e-16;-1.110223e-16;2.094199e-17;0;0;0;0;-9.008031e-17;-1.319643e-16;2.094199e-17;45;0;2.792265e-17;7.786499e-17;-1.110223e-16;4.810089e-18;3.707389e-17;-1.110223e-16;3.22638e-17;0.88254;-2.220446e-16;2.220446e-16;0
1.240832;-5.038357;0.838178;8.39567e-13;0;0;8.39567e-13;0;0;-4.281514e-17;0;0;0;0;4.281514e-17;-4.281514e-17;4.281514e-17;45;0;5.708686e-17;4.943867e-17;0;-5.225992e-17;-3.337036e-17;0;1.888956e-17;0.838178;0;0;0
1.307997;-5.038357;0.778532;8.39567e-13;0;0;8.39567e-13;-2.220446e-16;2.220446e-16;2.652869e-17;0;0;0;0;2.236237e-16;-2.236237e-16;2.236237e-16;45;0;2.98165e-16;2.582184e-16;-2.220446e-16;2.788319e-17;2.517419e-17;2.220446e-16;-2.709e-18;0.778532;0;0;0
1.375163;-5.038357;0.687138;8.39567e-13;0;0;8.39567e-13;-2.220446e-16;2.220446e-16;-3.853439e-17;0;0;0;0;2.253635e-16;-2.253635e-16;2.253635e-16;45;0;3.004847e-16;2.602273e-16;-2.220446e-16;-9.612383e-17;1.905505e-17;2.220446e-16;1.151789e-16;0.687138;0;0;0
1.442328;-5.038357;0.60114;8.39567e-13;0;0;8.39567e-13;0;0;-1.059895e-17;0;0;0;0;1.059895e-17;-1.059895e-17;1.059895e-17;45;0;1.413194e-17;1.223862e-17;0;1.203457e-17;-3.323248e-17;0;-4.526705e-17;0.60114;0;0;0
1.509493;-5.038357;0.541418;8.39567e-13;0;0;8.39567e-13;2.220446e-16;2.220446e-16;4.643894e-17;0;0;0;0;2.684836e-16;1.756057e-16;4.643894e-17;45;0;6.191858e-17;1.574428e-16;2.220446e-16;9.635152e-17;-3.473639e-18;2.220446e-16;-9.982516e-17;0.541418;4.440892e-16;-4.440892e-16;0
1.576659;-5.038357;0.466174;8.39567e-13;0;0;8.39567e-13;2.220446e-16;0;-6.192236e-17;0;0;0;0;2.381456e-16;-1.610099e-17;1.271233e-16;45;0;1.694977e-16;1.643938e-16;2.220446e-16;-5.889513e-18;-1.179552e-16;0;-1.120657e-16;0.466174;2.220446e-16;-2.220446e-16;0
-0.303971;-5.105522;0.355676;8.39567e-13;0;0;8.39567e-13;2.220446e-16;0;-8.009131e-17;0;0;0;0;2.479185e-16;-2.58739e-17;1.368962e-16;45;0;1.825283e-16;1.745441e-16;2.220446e-16;-1.22484e-16;-3.769865e-17;0;8.478533e-17;0.355676;2.220446e-16;-2.220446e-16;0
-0.236806;-5.105522;0.504907;8.39567e-13;0;0;8.39567e-13;-4.440892e-16;0;4.598871e-17;0;0;0;0;4.712464e-18;-4.488017e-16;2.267571e-16;45;0;3.023427e-16;3.007842e-16;-4.440892e-16;7.323191e-17;1.874552e-17;0;-5.448639e-17;0.504907;-4.440892e-16;4.440892e-16;0
-0.169641;-5.105522;0.592715;8.39567e-13;0;0;8.39567e-13;0;0;-3.822978e-17;0;0;0;0;3.822978e-17;-3.822978e-17;3.822978e-17;45;0;5.097304e-17;4.414395e-17;0;-6.964272e-17;-6.816838e-18;0;6.282589e-17;0.592715;0;0;0
-0.102475;-5.105522;0.669445;8.39567e-13;0;0;8.39567e-13;0;-1.110223e-16;-4.40467e-17;0;0;0;0;1.53521e-17;-1.263744e-16;7.086325e-17;45;0;9.448433e-17;8.980544e-17;0;-5.931041e-17;-2.878299e-17;-1.110223e-16;3.052742e-17;0.669445;-1.110223e-16;1.110223e-16;0
-0.03531;-5.105522;0.740387;8.39567e-13;0;0;8.39567e-13;0;-1.110223e-16;-6.582906e-18;0;0;0;0;3.889612e-19;-1.114113e-16;5.590011e-17;45;0;7.453349e-17;7.440417e-17;0;-7.558611e-18;-5.607201e-18;-1.110223e-16;1.95141e-18;0.740387;-1.110223e-16;1.110223e-16;0
0.031855;-5.105522;0.785121;8.39567e-13;0;0;8.39567e-13;4.440892e-16;-1.110223e-16;-8.850547e-19;0;0;0;0;4.440906e-16;-1.110237e-16;2.775572e-16;45;0;3.700762e-16;3.391803e-16;4.440892e-16;6.746574e-18;-8.516683e-18;-1.110223e-16;-1.526326e-17;0.785121;3.330669e-16;-3.330669e-16;0
0.099021;-5.105522;0.825288;8.39567e-13;0;0;8.39567e-13;-1.110223e-16;2.220446e-16;-2.080001e-17;0;0;0;0;2.233385e-16;-1.123162e-16;1.678274e-16;45;0;2.237699e-16;1.972923e-16;-1.110223e-16;-4.93884e-17;7.788378e-18;2.220446e-16;5.717678e-17;0.825288;1.110223e-16;-1.110223e-16;0
0.166186;-5.105522;0.900355;8.39567e-13;0;0;8.39567e-13;2.220446e-16;-1.110223e-16;-6.451688e-18;0;0;0;0;2.221695e-16;-1.111472e-16;1.666584e-16;45;0;2.222112e-16;1.959666e-16;2.220446e-16;-1.290338e-17;0;-1.110223e-16;1.290338e-17;0.900355;1.110223e-16;-1.110223e-16;0
0.233352;-5.105522;0.912898;8.39567e-13;0;0;8.39567e-13;2.220446e-16;2.220446e-16;-1.161371e-17;0;0;0;0;2.336583e-16;2.104309e-16;1.161371e-17;45;0;1.548495e-17;1.486359e-16;2.220446e-16;1.181211e-17;-3.503953e-17;2.220446e-16;-4.685165e-17;0.912898;4.440892e-16;-4.440892e-16;0
0.300517;-5.105522;0.937682;8.39567e-13;0;0;8.39567e-13;-1.110223e-16;2.220446e-16;-1.574683e-17;0;0;0;0;2.227874e-16;-1.117651e-16;1.672763e-16;45;0;2.230351e-16;1.966673e-16;-1.110223e-16;2.676901e-17;-5.826268e-17;2.220446e-16;-8.503169e-17;0.937682;1.110223e-16;-1.110223e-16;0
0.367682;-5.105522;0.960104;8.39567e-13;0;0;8.39567e-13;0;2.220446e-16;-7.985313e-18;0;0;0;0;2.223314e-16;-2.868026e-19;1.113091e-16;45;0;1.484121e-16;1.483166e-16;0;-2.552896e-17;9.558333e-18;2.220446e-16;3.508729e-17;0.960104;2.220446e-16;-2.220446e-16;0
0.434848;-5.105522;0.98319;8.39567e-13;0;0;8.39567e-13;0;2.220446e-16;-7.793869e-18;0;0;0;0;2.223178e-16;-2.732323e-19;1.112955e-16;45;0;1.48394e-16;1.483031e-16;0;-4.175237e-18;-1.14125e-17;2.220446e-16;-7.237265e-18;0.98319;2.220446e-16;-2.220446e-16;0
0.502013;-5.105522;0.976929;8.39567e-13;0;0;8.39567e-13;2.220446e-16;0;-2.582202e-17;0;0;0;0;2.250079e-16;-2.963347e-18;1.139856e-16;45;0;1.519809e-16;1.510028e-16;2.220446e-16;-1.605445e-17;-3.558959e-17;0;-1.953515e-17;0.976929;2.220446e-16;-2.220446e-16;0
0.569178;-5.105522;0.983283;8.39567e-13;0;0;8.39567e-13;0;0;-4.017704e-17;0;0;0;0;4.017704e-17;-4.017704e-17;4.017704e-17;45;0;5.356939e-17;4.639245e-17;0;-4.357724e-17;-3.677684e-17;0;6.800399e-18;0.983283;0;0;0
0.636344;-5.105522;0.985623;8.39567e-13;0;0;8.39567e-13;2.220446e-16;0;1.694713e-18;0;0;0;0;2.220575e-16;-1.293382e-20;1.110352e-16;45;0;1.48047e-16;1.480427e-16;2.220446e-16;3.660146e-17;-3.321203e-17;0;-6.981348e-17;0.985623;2.220446e-16;-2.220446e-16;0
0.703509;-5.105522;1.009676;8.39567e-13;0;0;8.39567e-13;0;0;-1.52704e-17;0;0;0;0;1.52704e-17;-1.52704e-17;1.52704e-17;45;0;2.036054e-17;1.763274e-17;0;-1.50623e-17;-1.547851e-17;0;-4.162074e-19;1.009676;0;0;0
0.770674;-5.105522;1.003617;8.39567e-13;0;0;8.39567e-13;0;2.220446e-16;1.388354e-17;0;0;0;0;2.229093e-16;-8.647134e-19;1.11887e-16;45;0;1.491827e-16;1.488953e-16;0;2.109743e-18;2.565734e-17;2.220446e-16;2.354759e-17;1.003617;2.220446e-16;-2.220446e-16;0
0.83784;-5.105522;0.990104;8.39567e-13;0;0;8.39567e-13;0;-1.110223e-16;-1.44424e-18;0;0;0;0;1.878432e-20;-1.110411e-16;5.552994e-17;45;0;7.403991e-17;7.403365e-17;0;-1.449136e-17;1.160288e-17;-1.110223e-16;2.609424e-17;0.990104;-1.110223e-16;1.110223e-16;0
0.905005;-5.105522;0.967032;8.39567e-13;0;0;8.39567e-13;0;-1.110223e-16;3.606612e-17;0;0;0;0;1.068744e-17;-1.217097e-16;6.619859e-17;45;0;8.826478e-17;8.492676e-17;0;3.487066e-17;3.726158e-17;-1.110223e-16;2.39092e-18;0.967032;-1.110223e-16;1.110223e-16;0
0.97217;-5.105522;0.975998;8.39567e-13;0;0;8.39567e-13;-1.110223e-16;0;3.979341e-18;0;0;0;0;1.424477e-19;-1.111647e-16;5.56536e-17;45;0;7.42048e-17;7.415736e-17;-1.110223e-16;-1.662597e-17;2.458465e-17;0;4.121062e-17;0.975998;-1.110223e-16;1.110223e-16;0
1.039336;-5.105522;0.952097;8.39567e-13;0;0;8.39567e-13;-1.110223e-16;2.220446e-16;-2.325772e-17;0;0;0;0;2.236608e-16;-1.126385e-16;1.681497e-16;45;0;2.241996e-16;1.976579e-16;-1.110223e-16;-1.980313e-17;-2.671231e-17;2.220446e-16;-6.909189e-18;0.952097;1.110223e-16;-1.110223e-16;0
1.106501;-5.105522;0.915629;8.39567e-13;0;0;8.39567e-13;2.220446e-16;-1.110223e-16;7.318166e-17;0;0;0;0;2.374148e-16;-1.263925e-16;1.819037e-16;45;0;2.425382e-16;2.132795e-16;2.220446e-16;3.677391e-17;1.095894e-16;-1.110223e-16;7.281551e-17;0.915629;1.110223e-16;-1.110223e-16;0
1.173667;-5.105522;0.869174;8.39567e-13;0;0;8.39567e-13;2.220446e-16;0;4.883069e-18;0;0;0;0;2.221519e-16;-1.073336e-19;1.111296e-16;45;0;1.481728e-16;1.481371e-16;2.220446e-16;-8.809397e-18;1.857554e-17;0;2.738493e-17;0.869174;2.220446e-16;-2.220446e-16;0
1.240832;-5.105522;0.840662;8.39567e-13;0;0;8.39567e-13;0;-1.110223e-16;9.611589e-18;0;0;0;0;8.25964e-19;-1.118483e-16;5.633711e-17;45;0;7.511615e-17;7.484235e-17;0;1.272751e-17;6.495669e-18;-1.110223e-16;-6.23184e-18;0.840662;-1.110223e-16;1.110223e-16;0
1.307997;-5.105522;0.783617;8.39567e-13;0;0;8.39567e-13;0;-1.110223e-16;1.386878e-17;0;0;0;0;1.70625e-18;-1.127286e-16;5.72174e-17;45;0;7.628987e-17;7.572752e-17;0;1.399871e-17;1.373885e-17;-1.110223e-16;-2.598572e-19;0.783617;-1.110223e-16;1.110223e-16;0
1.375163;-5.105522;0.68302;8.39567e-13;0;0;8.39567e-13;4.440892e-16;-1.110223e-16;1.268308e-18;0;0;0;0;4.440921e-16;-1.110252e-16;2.775586e-16;45;0;3.700782e-16;3.391819e-16;4.440892e-16;2.536616e-18;0;-1.110223e-16;-2.536616e-18;0.68302;3.330669e-16;-3.330669e-16;0
1.442328;-5.105522;0.613125;8.39567e-13;0;0;8.39567e-13;-1.110223e-16;4.440892e-16;-2.092463e-17;0;0;0;0;4.448768e-16;-1.118099e-16;2.783434e-16;45;0;3.711245e-16;3.400382e-16;-1.110223e-16;1.377771e-17;-5.562697e-17;4.440892e-16;-6.940468e-17;0.613125;3.330669e-16;-3.330669e-16;0
1.509493;-5.105522;0.549026;8.39567e-13;0;0;8.39567e-13;0;-1.110223e-16;3.540479e-17;0;0;0;0;1.032947e-17;-1.213518e-16;6.584062e-17;45;0;8.778749e-17;8.455491e-17;0;1.161427e-17;5.919532e-17;-1.110223e-16;4.758106e-17;0.549026;-1.110223e-16;1.110223e-16;0
1.576659;-5.105522;0.461269;8.39567e-13;0;0;8.39567e-13;2.220446e-16;2.220446e-16;2.859374e-17;0;0;0;0;2.506383e-16;1.934509e-16;2.859374e-17;45;0;3.812499e-17;1.516672e-16;2.220446e-16;4.105782e-18;5.30817e-17;2.220446e-16;4.897591e-17;0.461269;4.440892e-16;-4.440892e-16;0
-0.303971;-5.172688;0.360694;8.39567e-13;0;0;8.39567e-13;0;-2.220446e-16;-6.463381e-17;0;0;0;0;1.744357e-17;-2.394882e-16;1.284659e-16;45;0;1.712878e-16;1.657795e-16;0;-1.23762e-16;-5.505576e-18;-2.220446e-16;1.182565e-16;0.360694;-2.220446e-16;2.220446e-16;0
-0.236806;-5.172688;0.524162;8.39567e-13;0;0;8.39567e-13;-1.110223e-16;-3.330669e-16;4.636553e-19;0;0;0;0;-1.110213e-16;-3.330679e-16;1.110233e-16;45;0;1.48031e-16;1.958257e-16;-1.110223e-16;1.82921e-17;-1.736479e-17;-3.330669e-16;-3.565689e-17;0.524162;-4.440892e-16;4.440892e-16;0
-0.169641;-5.172688;0.577717;8.39567e-13;0;0;8.39567e-13;-1.110223e-16;2.220446e-16;-1.242962e-17;0;0;0;0;2.225078e-16;-1.114855e-16;1.669967e-16;45;0;2.226622e-16;1.963502e-16;-1.110223e-16;-3.972447e-17;1.486523e-17;2.220446e-16;5.45897e-17;0.577717;1.110223e-16;-1.110223e-16;0
-0.102475;-5.172688;0.658277;8.39567e-13;0;0;8.39567e-13;0;-3.330669e-16;-5.523702e-17;0;0;0;0;8.921724e-18;-3.419886e-16;1.754552e-16;45;0;2.339402e-16;2.310238e-16;0;-9.036329e-17;-2.011074e-17;-3.330669e-16;7.025255e-17;0.658277;-3.330669e-16;3.330669e-16;0
-0.03531;-5.172688;0.738234;8.39567e-13;0;0;8.39567e-13;2.220446e-16;0;-3.688738e-17;0;0;0;0;2.280122e-16;-5.967571e-18;1.169899e-16;45;0;1.559865e-16;1.540358e-16;2.220446e-16;-4.738994e-17;-2.638482e-17;0;2.100512e-17;0.738234;2.220446e-16;-2.220446e-16;0
0.031855;-5.172688;0.774441;8.39567e-13;0;0;8.39567e-13;2.220446e-16;2.220446e-16;2.975098e-18;0;0;0;0;2.250197e-16;2.190695e-16;2.975098e-18;45;0;3.966798e-18;1.480696e-16;2.220446e-16;-9.781158e-18;1.573136e-17;2.220446e-16;2.551251e-17;0.774441;4.440892e-16;-4.440892e-16;0
0.099021;-5.172688;0.848364;8.39567e-13;0;0;8.39567e-13;0;0;-2.279668e-17;0;0;0;0;2.279668e-17;-2.279668e-17;2.279668e-17;45;0;3.039557e-17;2.632334e-17;0;-4.559336e-17;0;0;4.559336e-17;0.848364;0;0;0
0.166186;-5.172688;0.915688;8.39567e-13;0;0;8.39567e-13;0;0;3.491349e-17;0;0;0;0;3.491349e-17;-3.491349e-17;3.491349e-17;45;0;4.655132e-17;4.031462e-17;0;5.145501e-17;1.837196e-17;0;-3.308304e-17;0.915688;0;0;0
0.233352;-5.172688;0.903127;8.39567e-13;0;0;8.39567e-13;2.220446e-16;2.220446e-16;-4.172653e-17;0;0;0;0;2.637711e-16;1.803181e-16;4.172653e-17;45;0;5.563537e-17;1.556736e-16;2.220446e-16;-4.816537e-17;-3.528769e-17;2.220446e-16;1.287768e-17;0.903127;4.440892e-16;-4.440892e-16;0
0.300517;-5.172688;0.896546;8.39567e-13;0;0;8.39567e-13;0;0;-1.243742e-17;0;0;0;0;1.243742e-17;-1.243742e-17;1.243742e-17;45;0;1.658323e-17;1.436149e-17;0;-4.973758e-18;-1.990108e-17;0;-1.492732e-17;0.896546;0;0;0
0.367682;-5.172688;0.930999;8.39567e-13;0;0;8.39567e-13;0;-1.110223e-16;-4.166358e-18;0;0;0;0;1.561323e-19;-1.111784e-16;5.566728e-17;45;0;7.422304e-17;7.417106e-17;0;-2.594172e-17;1.7609e-17;-1.110223e-16;4.355072e-17;0.930999;-1.110223e-16;1.110223e-16;0
0.434848;-5.172688;0.995626;8.39567e-13;0;0;8.39567e-13;0;0;1.108507e-17;0;0;0;0;1.108507e-17;-1.108507e-17;1.108507e-17;45;0;1.478009e-17;1.279993e-17;0;-3.735764e-18;2.59059e-17;0;2.964166e-17;0.995626;0;0;0
0.502013;-5.172688;0.996928;8.39567e-13;0;0;8.39567e-13;-1.110223e-16;-3.330669e-16;-1.936114e-17;0;0;0;0;-1.093468e-16;-3.347424e-16;1.126979e-16;45;0;1.502638e-16;1.97097e-16;-1.110223e-16;6.45362e-18;-4.51759e-17;-3.330669e-16;-5.162952e-17;0.996928;-4.440892e-16;4.440892e-16;0
0.569178;-5.172688;0.996325;8.39567e-13;0;0;8.39567e-13;0;0;-4.748708e-17;0;0;0;0;4.748708e-17;-4.748708e-17;4.748708e-17;45;0;6.331611e-17;5.483336e-17;0;-2.977484e-17;-6.519933e-17;0;-3.542449e-17;0.996325;0;0;0
0.636344;-5.172688;0.997807;8.39567e-13;0;0;8.39567e-13;2.220446e-16;0;-1.142935e-17;0;0;0;0;2.226314e-16;-5.867548e-19;1.116091e-16;45;0;1.488121e-16;1.486169e-16;2.220446e-16;-2.318057e-17;3.218695e-19;0;2.350244e-17;0.997807;2.220446e-16;-2.220446e-16;0
0.703509;-5.172688;1.004614;8.39567e-13;0;0;8.39567e-13;-1.110223e-16;-1.110223e-16;3.158466e-17;0;0;0;0;-7.943763e-17;-1.42607e-16;3.158466e-17;45;0;4.211289e-17;8.251256e-17;-1.110223e-16;2.251192e-17;4.065741e-17;-1.110223e-16;1.814549e-17;1.004614;-2.220446e-16;2.220446e-16;0
0.770674;-5.172688;0.995963;8.39567e-13;0;0;8.39567e-13;-4.440892e-16;-3.330669e-16;3.220128e-17;0;0;0;0;-3.244032e-16;-4.527529e-16;6.417484e-17;45;0;8.556646e-17;2.694423e-16;-4.440892e-16;4.120565e-17;2.319692e-17;-3.330669e-16;-1.800873e-17;0.995963;-7.771561e-16;7.771561e-16;0
0.83784;-5.172688;0.99363;8.39567e-13;0;0;8.39567e-13;0;0;-1.007695e-17;0;0;0;0;1.007695e-17;-1.007695e-17;1.007695e-17;45;0;1.343593e-17;1.163585e-17;0;-2.402737e-17;3.873476e-18;0;2.790084e-17;0.99363;0;0;0
0.905005;-5.172688;0.997984;8.39567e-13;0;0;8.39567e-13;-3.330669e-16;2.220446e-16;-1.108691e-17;0;0;0;0;2.222659e-16;-3.332882e-16;2.777771e-16;45;0;3.703695e-16;3.228772e-16;-3.330669e-16;-4.14393e-18;-1.802989e-17;2.220446e-16;-1.388596e-17;0.997984;-1.110223e-16;1.110223e-16;0
0.97217;-5.172688;0.98782;8.39567e-13;0;0;8.39567e-13;2.220446e-16;0;1.299051e-17;0;0;0;0;2.22802e-16;-7.574135e-19;1.117797e-16;45;0;1.490396e-16;1.487878e-16;2.220446e-16;-1.117468e-17;3.71557e-17;0;4.833038e-17;0.98782;2.220446e-16;-2.220446e-16;0
1.039336;-5.172688;0.930186;8.39567e-13;0;0;8.39567e-13;-1.110223e-16;-1.110223e-16;-3.35558e-17;0;0;0;0;-7.74665e-17;-1.445781e-16;3.35558e-17;45;0;4.474107e-17;8.354354e-17;-1.110223e-16;-1.667313e-17;-5.043848e-17;-1.110223e-16;-3.376535e-17;0.930186;-2.220446e-16;2.220446e-16;0
1.106501;-5.172688;0.893906;8.39567e-13;0;0;8.39567e-13;-1.110223e-16;-1.110223e-16;-5.348821e-17;0;0;0;0;-5.753409e-17;-1.645105e-16;5.348821e-17;45;0;7.131762e-17;9.639944e-17;-1.110223e-16;-5.330968e-17;-5.366675e-17;-1.110223e-16;-3.570658e-19;0.893906;-2.220446e-16;2.220446e-16;0
1.173667;-5.172688;0.854438;8.39567e-13;0;0;8.39567e-13;2.220446e-16;0;-1.704809e-17;0;0;0;0;2.233459e-16;-1.301289e-18;1.123236e-16;45;0;1.497648e-16;1.493329e-16;2.220446e-16;-1.494987e-17;-1.914632e-17;0;-4.196444e-18;0.854438;2.220446e-16;-2.220446e-16;0
1.240832;-5.172688;0.835858;8.39567e-13;0;0;8.39567e-13;-1.110223e-16;2.220446e-16;3.072632e-19;0;0;0;0;2.220449e-16;-1.110226e-16;1.665337e-16;45;0;2.22045e-16;1.958253e-16;-1.110223e-16;-5.220793e-19;1.136606e-18;2.220446e-16;1.658685e-18;0.835858;1.110223e-16;-1.110223e-16;0
1.307997;-5.172688;0.787628;8.39567e-13;0;0;8.39567e-13;2.220446e-16;-3.330669e-16;3.697379e-17;0;0;0;0;2.244964e-16;-3.355188e-16;2.800076e-16;45;0;3.733435e-16;3.25436e-16;2.220446e-16;4.456484e-17;2.938274e-17;-3.330669e-16;-1.518209e-17;0.787628;-1.110223e-16;1.110223e-16;0
1.375163;-5.172688;0.715797;8.39567e-13;0;0;8.39567e-13;-2.220446e-16;2.220446e-16;3.329415e-17;0;0;0;0;2.245269e-16;-2.245269e-16;2.245269e-16;45;0;2.993691e-16;2.592613e-16;-2.220446e-16;9.420367e-17;-2.761537e-17;2.220446e-16;-1.21819e-16;0.715797;0;0;0
1.442328;-5.172688;0.657084;8.39567e-13;0;0;8.39567e-13;4.440892e-16;0;-6.396932e-17;0;0;0;0;4.531201e-16;-9.03088e-18;2.310755e-16;45;0;3.081006e-16;3.051349e-16;4.440892e-16;-1.471351e-16;1.919649e-17;0;1.663316e-16;0.657084;4.440892e-16;-4.440892e-16;0
1.509493;-5.172688;0.557348;8.39567e-13;0;0;8.39567e-13;0;0;-2.097814e-17;0;0;0;0;2.097814e-17;-2.097814e-17;2.097814e-17;45;0;2.797086e-17;2.422347e-17;0;-3.621088e-17;-5.745403e-18;0;3.046548e-17;0.557348;0;0;0
1.576659;-5.172688;0.451222;8.39567e-13;0;0;8.39567e-13;-2.220446e-16;0;-1.045291e-17;0;0;0;0;4.909923e-19;-2.225356e-16;1.115133e-16;45;0;1.486844e-16;1.48521e-16;-2.220446e-16;-8.524361e-17;6.433779e-17;0;1.495814e-16;0.451222;-2.220446e-16;2.220446e-16;0
-0.303971;-5.239853;0.351571;8.39567e-13;0;0;8.39567e-13;2.220446e-16;-2.220446e-16;5.363108e-18;0;0;0;0;2.221094e-16;-2.221094e-16;2.221094e-16;45;0;2.961458e-16;2.564698e-16;2.220446e-16;-5.693888e-18;1.64201e-17;-2.220446e-16;2.211399e-17;0.351571;0;0;0
-0.236806;-5.239853;0.515703;8.39567e-13;0;0;8.39567e-13;-1.110223e-16;0;2.838048e-18;0;0;0;0;7.250131e-20;-1.110948e-16;5.558365e-17;45;0;7.411154e-17;7.408738e-17;-1.110223e-16;2.55443e-19;5.420654e-18;0;5.165211e-18;0.515703;-1.110223e-16;1.110223e-16;0
-0.169641;-5.239853;0.587422;8.39567e-13;0;0;8.39567e-13;0;-3.330669e-16;4.586541e-18;0;0;0;0;6.314758e-20;-3.331301e-16;1.665966e-16;45;0;2.221288e-16;2.221078e-16;0;4.382942e-17;-3.465634e-17;-3.330669e-16;-7.848576e-17;0.587422;-3.330669e-16;3.330669e-16;0
-0.102475;-5.239853;0.662766;8.39567e-13;0;0;8.39567e-13;0;-1.110223e-16;-5.476951e-18;0;0;0;0;2.695346e-19;-1.112918e-16;5.578069e-17;45;0;7.437425e-17;7.428456e-17;0;-1.443423e-17;3.480331e-18;-1.110223e-16;1.791456e-17;0.662766;-1.110223e-16;1.110223e-16;0
-0.03531;-5.239853;0.74492;8.39567e-13;0;0;8.39567e-13;0;-1.110223e-16;-5.645384e-17;0;0;0;0;2.366286e-17;-1.346852e-16;7.917401e-17;45;0;1.055653e-16;9.86285e-17;0;-8.943284e-17;-2.347484e-17;-1.110223e-16;6.595799e-17;0.74492;-1.110223e-16;1.110223e-16;0
0.031855;-5.239853;0.810753;8.39567e-13;0;0;8.39567e-13;-2.220446e-16;2.220446e-16;2.190915e-17;0;0;0;0;2.231229e-16;-2.231229e-16;2.231229e-16;45;0;2.974972e-16;2.576401e-16;-2.220446e-16;3.264915e-17;1.116915e-17;2.220446e-16;-2.148e-17;0.810753;0;0;0
0.099021;-5.239853;0.870501;8.39567e-13;0;0;8.39567e-13;-2.220446e-16;-1.110223e-16;9.631543e-18;0;0;0;0;-1.101929e-16;-2.22874e-16;5.634052e-17;45;0;7.51207e-17;1.28679e-16;-2.220446e-16;2.343613e-17;-4.173049e-18;-1.110223e-16;-2.760918e-17;0.870501;-3.330669e-16;3.330669e-16;0
0.166186;-5.239853;0.885256;8.39567e-13;0;0;8.39567e-13;0;-1.110223e-16;1.075307e-17;0;0;0;0;1.031899e-18;-1.120542e-16;5.654305e-17;45;0;7.539074e-17;7.504913e-17;0;4.073997e-17;-1.923382e-17;-1.110223e-16;-5.997378e-17;0.885256;-1.110223e-16;1.110223e-16;0
0.233352;-5.239853;0.906905;8.39567e-13;0;0;8.39567e-13;2.220446e-16;2.220446e-16;4.147301e-17;0;0;0;0;2.635176e-16;1.805716e-16;4.147301e-17;45;0;5.529734e-17;1.555833e-16;2.220446e-16;5.285304e-17;3.009297e-17;2.220446e-16;-2.276007e-17;0.906905;4.440892e-16;-4.440892e-16;0
0.300517;-5.239853;0.914504;8.39567e-13;0;0;8.39567e-13;-3.330669e-16;2.220446e-16;-8.406303e-18;0;0;0;0;2.221719e-16;-3.331942e-16;2.77683e-16;45;0;3.70244e-16;3.227693e-16;-3.330669e-16;-2.697785e-17;1.016524e-17;2.220446e-16;3.714309e-17;0.914504;-1.110223e-16;1.110223e-16;0
0.367682;-5.239853;0.936364;8.39567e-13;0;0;8.39567e-13;0;0;-1.539457e-17;0;0;0;0;1.539457e-17;-1.539457e-17;1.539457e-17;45;0;2.052609e-17;1.777612e-17;0;-2.015358e-17;-1.063556e-17;0;9.518025e-18;0.936364;0;0;0
0.434848;-5.239853;0.976538;8.39567e-13;0;0;8.39567e-13;0;0;4.476862e-18;0;0;0;0;4.476862e-18;-4.476862e-18;4.476862e-18;45;0;5.969149e-18;5.169435e-18;0;8.953723e-18;0;0;-8.953723e-18;0.976538;0;0;0
0.502013;-5.239853;1.004237;8.39567e-13;0;0;8.39567e-13;2.220446e-16;0;-2.573127e-17;0;0;0;0;2.249874e-16;-2.942823e-18;1.139651e-16;45;0;1.519535e-16;1.509821e-16;2.220446e-16;-2.079218e-17;-3.067036e-17;0;-9.878184e-18;1.004237;2.220446e-16;-2.220446e-16;0
0.569178;-5.239853;0.991997;8.39567e-13;0;0;8.39567e-13;-1.110223e-16;2.220446e-16;-2.115945e-18;0;0;0;0;2.220581e-16;-1.110357e-16;1.665469e-16;45;0;2.220625e-16;1.958402e-16;-1.110223e-16;1.378246e-17;-1.801435e-17;2.220446e-16;-3.179681e-17;0.991997;1.110223e-16;-1.110223e-16;0
0.636344;-5.239853;0.981673;8.39567e-13;0;0;8.39567e-13;-1.110223e-16;2.220446e-16;-1.614933e-18;0;0;0;0;2.220524e-16;-1.110301e-16;1.665413e-16;45;0;2.22055e-16;1.958338e-16;-1.110223e-16;-9.524769e-18;6.294904e-18;2.220446e-16;1.581967e-17;0.981673;1.110223e-16;-1.110223e-16;0
0.703509;-5.239853;0.990326;8.39567e-13;0;0;8.39567e-13;-1.110223e-16;0;-2.069779e-17;0;0;0;0;3.733145e-18;-1.147554e-16;5.92443e-17;45;0;7.899239e-17;7.777788e-17;-1.110223e-16;-6.203701e-18;-3.519189e-17;0;-2.898819e-17;0.990326;-1.110223e-16;1.110223e-16;0
0.770674;-5.239853;0.988998;8.39567e-13;0;0;8.39567e-13;2.220446e-16;-1.110223e-16;-4.490623e-18;0;0;0;0;2.221051e-16;-1.110828e-16;1.66594e-16;45;0;2.221253e-16;1.958936e-16;2.220446e-16;-1.671793e-17;7.736687e-18;-1.110223e-16;2.445462e-17;0.988998;1.110223e-16;-1.110223e-16;0
0.83784;-5.239853;0.999218;8.39567e-13;0;0;8.39567e-13;2.220446e-16;2.220446e-16;5.678938e-18;0;0;0;0;2.277235e-16;2.163657e-16;5.678938e-18;45;0;7.571917e-18;1.481749e-16;2.220446e-16;-1.849586e-17;2.985374e-17;2.220446e-16;4.83496e-17;0.999218;4.440892e-16;-4.440892e-16;0
0.905005;-5.239853;1.008764;8.39567e-13;0;0;8.39567e-13;0;-1.110223e-16;1.08517e-17;0;0;0;0;1.050739e-18;-1.12073e-16;5.656189e-17;45;0;7.541586e-17;7.506806e-17;0;1.464364e-17;7.059763e-18;-1.110223e-16;-7.583881e-18;1.008764;-1.110223e-16;1.110223e-16;0
0.97217;-5.239853;0.985909;8.39567e-13;0;0;8.39567e-13;-3.330669e-16;0;-1.971155e-18;0;0;0;0;1.166527e-20;-3.330786e-16;1.665451e-16;45;0;2.220602e-16;2.220563e-16;-3.330669e-16;3.259303e-17;-3.653534e-17;0;-6.912837e-17;0.985909;-3.330669e-16;3.330669e-16;0
1.039336;-5.239853;0.919303;8.39567e-13;0;0;8.39567e-13;0;0;-3.258261e-17;0;0;0;0;3.258261e-17;-3.258261e-17;3.258261e-17;45;0;4.344348e-17;3.762316e-17;0;-4.522133e-17;-1.994389e-17;0;2.527745e-17;0.919303;0;0;0
1.106501;-5.239853;0.86213;8.39567e-13;0;0;8.39567e-13;0;2.220446e-16;-4.801956e-17;0;0;0;0;2.319844e-16;-9.939796e-18;1.209621e-16;45;0;1.612828e-16;1.580737e-16;0;-3.45958e-17;-6.144331e-17;2.220446e-16;-2.684752e-17;0.86213;2.220446e-16;-2.220446e-16;0
1.173667;-5.239853;0.856112;8.39567e-13;0;0;8.39567e-13;0;0;-1.853236e-17;0;0;0;0;1.853236e-17;-1.853236e-17;1.853236e-17;45;0;2.470981e-17;2.139933e-17;0;-1.222636e-17;-2.483836e-17;0;-1.261199e-17;0.856112;0;0;0
1.240832;-5.239853;0.844374;8.39567e-13;0;0;8.39567e-13;0;-1.110223e-16;-4.236767e-17;0;0;0;0;1.432084e-17;-1.253431e-16;6.9832e-17;45;0;9.310933e-17;8.872181e-17;0;-5.31011e-17;-3.163424e-17;-1.110223e-16;2.146687e-17;0.844374;-1.110223e-16;1.110223e-16;0
1.307997;-5.239853;0.789355;8.39567e-13;0;0;8.39567e-13;2.220446e-16;0;-1.321501e-17;0;0;0;0;2.228283e-16;-7.837267e-19;1.11806e-16;45;0;1.490747e-16;1.488141e-16;2.220446e-16;4.267707e-18;-3.069773e-17;0;-3.496543e-17;0.789355;2.220446e-16;-2.220446e-16;0
1.375163;-5.239853;0.715358;8.39567e-13;0;0;8.39567e-13;2.220446e-16;-3.330669e-16;-1.901041e-17;0;0;0;0;2.226949e-16;-3.337172e-16;2.78206e-16;45;0;3.709414e-16;3.233693e-16;2.220446e-16;-7.223498e-17;3.421416e-17;-3.330669e-16;1.064491e-16;0.715358;-1.110223e-16;1.110223e-16;0
1.442328;-5.239853;0.630273;8.39567e-13;0;0;8.39567e-13;0;2.220446e-16;3.74531e-17;0;0;0;0;2.281918e-16;-6.147176e-18;1.171695e-16;45;0;1.56226e-16;1.542178e-16;0;5.055689e-17;2.434931e-17;2.220446e-16;-2.620758e-17;0.630273;2.220446e-16;-2.220446e-16;0
1.509493;-5.239853;0.533053;8.39567e-13;0;0;8.39567e-13;2.220446e-16;2.220446e-16;2.025057e-17;0;0;0;0;2.422952e-16;2.01794e-16;2.025057e-17;45;0;2.700076e-17;1.498652e-16;2.220446e-16;3.499644e-17;5.504697e-18;2.220446e-16;-2.949174e-17;0.533053;4.440892e-16;-4.440892e-16;0
1.576659;-5.239853;0.414515;8.39567e-13;0;0;8.39567e-13;0;2.220446e-16;-4.842634e-17;0;0;0;0;2.321465e-16;-1.010186e-17;1.211242e-16;45;0;1.614989e-16;1.582391e-16;0;-1.517741e-16;5.492145e-17;2.220446e-16;2.066956e-16;0.414515;2.220446e-16;-2.220446e-16;0
-0.303971;-5.307018;0.336593;8.39567e-13;0;0;8.39567e-13;2.220446e-16;0;3.923161e-17;0;0;0;0;2.287723e-16;-6.727734e-18;1.1775e-16;45;0;1.57e-16;1.548062e-16;2.220446e-16;4.811887e-17;3.034435e-17;0;-1.777452e-17;0.336593;2.220446e-16;-2.220446e-16;0
-0.236806;-5.307018;0.514365;8.39567e-13;0;0;8.39567e-13;4.440892e-16;0;6.818783e-18;0;0;0;0;4.441939e-16;-1.046746e-19;2.221493e-16;45;0;2.96199e-16;2.961641e-16;4.440892e-16;3.004564e-17;-1.640808e-17;0;-4.645373e-17;0.514365;4.440892e-16;-4.440892e-16;0
-0.169641;-5.307018;0.615084;8.39567e-13;0;0;8.39567e-13;-2.220446e-16;-1.110223e-16;-3.778472e-17;0;0;0;0;-9.938308e-17;-2.336838e-16;6.715038e-17;45;0;8.953383e-17;1.354185e-16;-2.220446e-16;-5.256678e-17;-2.300266e-17;-1.110223e-16;2.956412e-17;0.615084;-3.330669e-16;3.330669e-16;0
-0.102475;-5.307018;0.671812;8.39567e-13;0;0;8.39567e-13;-1.110223e-16;2.220446e-16;-1.800032e-17;0;0;0;0;2.230146e-16;-1.119923e-16;1.675034e-16;45;0;2.233379e-16;1.969249e-16;-1.110223e-16;-5.099015e-17;1.498952e-17;2.220446e-16;6.597966e-17;0.671812;1.110223e-16;-1.110223e-16;0
-0.03531;-5.307018;0.718801;8.39567e-13;0;0;8.39567e-13;-1.110223e-16;-1.110223e-16;2.056764e-18;0;0;0;0;-1.089655e-16;-1.130791e-16;2.056764e-18;45;0;2.742351e-18;7.405296e-17;-1.110223e-16;2.729779e-19;3.840549e-18;-1.110223e-16;3.567571e-18;0.718801;-2.220446e-16;2.220446e-16;0
0.031855;-5.307018;0.78764;8.39567e-13;0;0;8.39567e-13;0;-1.110223e-16;2.377168e-17;0;0;0;0;4.875775e-18;-1.158981e-16;6.038692e-17;45;0;8.05159e-17;7.894085e-17;0;3.257391e-17;1.496946e-17;-1.110223e-16;-1.760445e-17;0.78764;-1.110223e-16;1.110223e-16;0
0.099021;-5.307018;0.851236;8.39567e-13;0;0;8.39567e-13;-3.330669e-16;-3.330669e-16;-2.142273e-17;0;0;0;0;-3.116442e-16;-3.544896e-16;2.142273e-17;45;0;2.856364e-17;2.234183e-16;-3.330669e-16;9.909941e-18;-5.275541e-17;-3.330669e-16;-6.266534e-17;0.851236;-6.661338e-16;6.661338e-16;0
0.166186;-5.307018;0.85174;8.39567e-13;0;0;8.39567e-13;2.220446e-16;0;-1.403284e-17;0;0;0;0;2.22928e-16;-8.833373e-19;1.119056e-16;45;0;1.492075e-16;1.48914e-16;2.220446e-16;-6.205036e-18;-2.186064e-17;0;-1.565561e-17;0.85174;2.220446e-16;-2.220446e-16;0
0.233352;-5.307018;0.926591;8.39567e-13;0;0;8.39567e-13;0;0;-1.57964e-17;0;0;0;0;1.57964e-17;-1.57964e-17;1.57964e-17;45;0;2.106186e-17;1.824011e-17;0;-2.255144e-17;-9.041352e-18;0;1.351009e-17;0.926591;0;0;0
0.300517;-5.307018;0.938724;8.39567e-13;0;0;8.39567e-13;0;0;7.770777e-18;0;0;0;0;7.770777e-18;-7.770777e-18;7.770777e-18;45;0;1.036104e-17;8.972921e-18;0;2.068411e-17;-5.142556e-18;0;-2.582667e-17;0.938724;0;0;0
0.367682;-5.307018;0.931954;8.39567e-13;0;0;8.39567e-13;2.220446e-16;0;-1.263236e-17;0;0;0;0;2.22761e-16;-7.163574e-19;1.117387e-16;45;0;1.489849e-16;1.487467e-16;2.220446e-16;1.03493e-17;-3.561402e-17;0;-4.596332e-17;0.931954;2.220446e-16;-2.220446e-16;0
0.434848;-5.307018;0.942386;8.39567e-13;0;0;8.39567e-13;2.220446e-16;0;3.395291e-17;0;0;0;0;2.271203e-16;-5.075724e-18;1.16098e-16;45;0;1.547974e-16;1.531335e-16;2.220446e-16;6.093987e-17;6.965951e-18;0;-5.397392e-17;0.942386;2.220446e-16;-2.220446e-16;0
0.502013;-5.307018;0.986868;8.39567e-13;0;0;8.39567e-13;2.220446e-16;0;5.625718e-18;0;0;0;0;2.22187e-16;-1.424417e-19;1.111647e-16;45;0;1.482197e-16;1.481722e-16;2.220446e-16;1.409661e-17;-2.845177e-18;0;-1.694179e-17;0.986868;2.220446e-16;-2.220446e-16;0
0.569178;-5.307018;0.982949;8.39567e-13;0;0;8.39567e-13;-1.110223e-16;2.220446e-16;8.376024e-18;0;0;0;0;2.222551e-16;-1.112328e-16;1.66744e-16;45;0;2.223253e-16;1.960636e-16;-1.110223e-16;6.445388e-18;1.030666e-17;2.220446e-16;3.861272e-18;0.982949;1.110223e-16;-1.110223e-16;0
0.636344;-5.307018;0.98671;8.39567e-13;0;0;8.39567e-13;0;0;4.442926e-18;0;0;0;0;4.442926e-18;-4.442926e-18;4.442926e-18;45;0;5.923902e-18;5.130249e-18;0;2.167494e-17;-1.278909e-17;0;-3.446403e-17;0.98671;0;0;0
0.703509;-5.307018;0.98132;8.39567e-13;0;0;8.39567e-13;0;2.220446e-16;-5.32085e-17;0;0;0;0;2.341365e-16;-1.209186e-17;1.231142e-16;45;0;1.641522e-16;1.602737e-16;0;-5.576686e-17;-5.065014e-17;2.220446e-16;5.116731e-18;0.98132;2.220446e-16;-2.220446e-16;0
0.770674;-5.307018;0.977109;8.39567e-13;0;0;8.39567e-13;0;2.220446e-16;1.511403e-17;0;0;0;0;2.230687e-16;-1.024052e-18;1.120464e-16;45;0;1.493951e-16;1.49055e-16;0;2.123822e-18;2.810424e-17;2.220446e-16;2.598041e-17;0.977109;2.220446e-16;-2.220446e-16;0
0.83784;-5.307018;1.001907;8.39567e-13;0;0;8.39567e-13;0;-1.110223e-16;-6.445096e-17;0;0;0;0;2.955008e-17;-1.405724e-16;8.506123e-17;45;0;1.13415e-16;1.049608e-16;0;-9.57272e-17;-3.31747e-17;-1.110223e-16;6.25525e-17;1.001907;-1.110223e-16;1.110223e-16;0
0.905005;-5.307018;0.99069;8.39567e-13;0;0;8.39567e-13;0;2.220446e-16;2.496083e-17;0;0;0;0;2.248159e-16;-2.771346e-18;1.137936e-16;45;0;1.517249e-16;1.508096e-16;0;1.278551e-17;3.713614e-17;2.220446e-16;2.435063e-17;0.99069;2.220446e-16;-2.220446e-16;0
0.97217;-5.307018;0.978032;8.39567e-13;0;0;8.39567e-13;0;0;-1.999914e-17;0;0;0;0;1.999914e-17;-1.999914e-17;1.999914e-17;45;0;2.666552e-17;2.309302e-17;0;-1.111577e-17;-2.888251e-17;0;-1.776673e-17;0.978032;0;0;0
1.039336;-5.307018;0.952184;8.39567e-13;0;0;8.39567e-13;2.220446e-16;2.220446e-16;-2.143117e-17;0;0;0;0;2.434758e-16;2.006134e-16;2.143117e-17;45;0;2.857489e-17;1.50084e-16;2.220446e-16;-8.342167e-18;-3.452018e-17;2.220446e-16;-2.617801e-17;0.952184;4.440892e-16;-4.440892e-16;0
1.106501;-5.307018;0.902092;8.39567e-13;0;0;8.39567e-13;-2.220446e-16;-1.110223e-16;1.130663e-16;0;0;0;0;-4.057525e-17;-2.924916e-16;1.259582e-16;45;0;1.679443e-16;1.829752e-16;-2.220446e-16;1.238055e-16;1.02327e-16;-1.110223e-16;-2.147852e-17;0.902092;-3.330669e-16;3.330669e-16;0
1.173667;-5.307018;0.863336;8.39567e-13;0;0;8.39567e-13;-3.330669e-16;0;1.985058e-17;0;0;0;0;1.178909e-18;-3.342458e-16;1.677124e-16;45;0;2.236165e-16;2.232245e-16;-3.330669e-16;5.802648e-17;-1.832532e-17;0;-7.63518e-17;0.863336;-3.330669e-16;3.330669e-16;0
1.240832;-5.307018;0.832749;8.39567e-13;0;0;8.39567e-13;2.220446e-16;2.220446e-16;-5.414182e-18;0;0;0;0;2.274588e-16;2.166304e-16;5.414182e-18;45;0;7.218909e-18;1.481617e-16;2.220446e-16;2.480931e-17;-3.563767e-17;2.220446e-16;-6.044698e-17;0.832749;4.440892e-16;-4.440892e-16;0
1.307997;-5.307018;0.789605;8.39567e-13;0;0;8.39567e-13;-1.110223e-16;0;1.985162e-17;0;0;0;0;3.442855e-18;-1.144652e-16;5.8954e-17;45;0;7.860534e-17;7.748323e-17;-1.110223e-16;-6.108918e-18;4.581216e-17;0;5.192108e-17;0.789605;-1.110223e-16;1.110223e-16;0
1.375163;-5.307018;0.734403;8.39567e-13;0;0;8.39567e-13;0;0;1.543467e-17;0;0;0;0;1.543467e-17;-1.543467e-17;1.543467e-17;45;0;2.057956e-17;1.782242e-17;0;4.089395e-17;-1.002462e-17;0;-5.091857e-17;0.734403;0;0;0
1.442328;-5.307018;0.638901;8.39567e-13;0;0;8.39567e-13;-3.330669e-16;-3.330669e-16;6.80548e-17;0;0;0;0;-2.650121e-16;-4.011217e-16;6.80548e-17;45;0;9.073973e-17;2.3554e-16;-3.330669e-16;1.183726e-16;1.7737e-17;-3.330669e-16;-1.006356e-16;0.638901;-6.661338e-16;6.661338e-16;0
1.509493;-5.307018;0.529708;8.39567e-13;0;0;8.39567e-13;-2.220446e-16;2.220446e-16;-3.1615e-17;0;0;0;0;2.24284e-16;-2.24284e-16;2.24284e-16;45;0;2.990454e-16;2.589809e-16;-2.220446e-16;-7.481444e-17;1.158444e-17;2.220446e-16;8.639887e-17;0.529708;0;0;0
1.576659;-5.307018;0.434134;8.39567e-13;0;0;8.39567e-13;6.661338e-16;-2.220446e-16;-2.315573e-16;0;0;0;0;7.228779e-16;-2.787887e-16;5.008333e-16;45;0;6.677777e-16;5.969574e-16;6.661338e-16;-4.016283e-16;-6.148622e-17;-2.220446e-16;3.401421e-16;0.434134;4.440892e-16;-4.440892e-16;0
-0.303971;-5.374184;0.379919;8.39567e-13;0;0;8.39567e-13;2.220446e-16;2.220446e-16;2.028284e-17;0;0;0;0;2.423274e-16;2.017618e-16;2.028284e-17;45;0;2.704379e-17;1.49871e-16;2.220446e-16;-5.923844e-17;9.980413e-17;2.220446e-16;1.590426e-16;0.379919;4.440892e-16;-4.440892e-16;0
-0.236806;-5.374184;0.520147;8.39567e-13;0;0;8.39567e-13;0;-1.110223e-16;-2.937208e-17;0;0;0;0;7.291768e-18;-1.183141e-16;6.280292e-17;45;0;8.373723e-17;8.141556e-17;0;-4.30025e-17;-1.574165e-17;-1.110223e-16;2.726085e-17;0.520147;-1.110223e-16;1.110223e-16;0
-0.169641;-5.374184;0.59131;8.39567e-13;0;0;8.39567e-13;0;-1.110223e-16;1.981567e-17;0;0;0;0;3.430757e-18;-1.144531e-16;5.894191e-17;45;0;7.858921e-17;7.747095e-17;0;2.347785e-17;1.615349e-17;-1.110223e-16;-7.324358e-18;0.59131;-1.110223e-16;1.110223e-16;0
-0.102475;-5.374184;0.685566;8.39567e-13;0;0;8.39567e-13;2.220446e-16;2.220446e-16;-3.26003e-18;0;0;0;0;2.253046e-16;2.187846e-16;3.26003e-18;45;0;4.346706e-18;1.480776e-16;2.220446e-16;2.700123e-19;-6.790072e-18;2.220446e-16;-7.060084e-18;0.685566;4.440892e-16;-4.440892e-16;0
-0.03531;-5.374184;0.73855;8.39567e-13;0;0;8.39567e-13;-1.110223e-16;-1.110223e-16;-7.258028e-18;0;0;0;0;-1.037643e-16;-1.182803e-16;7.258028e-18;45;0;9.67737e-18;7.448785e-17;-1.110223e-16;-4.185733e-17;2.734128e-17;-1.110223e-16;6.919861e-17;0.73855;-2.220446e-16;2.220446e-16;0
0.031855;-5.374184;0.772741;8.39567e-13;0;0;8.39567e-13;2.220446e-16;2.220446e-16;3.303995e-19;0;0;0;0;2.22375e-16;2.217142e-16;3.303995e-19;45;0;4.405326e-19;1.480302e-16;2.220446e-16;-3.032001e-17;3.098081e-17;2.220446e-16;6.130083e-17;0.772741;4.440892e-16;-4.440892e-16;0
0.099021;-5.374184;0.846552;8.39567e-13;0;0;8.39567e-13;-1.110223e-16;0;-3.33569e-17;0;0;0;0;9.251267e-18;-1.202736e-16;6.476242e-17;45;0;8.634989e-17;8.343727e-17;-1.110223e-16;-2.592326e-17;-4.079055e-17;0;-1.486729e-17;0.846552;-1.110223e-16;1.110223e-16;0
0.166186;-5.374184;0.883048;8.39567e-13;0;0;8.39567e-13;0;0;4.303173e-17;0;0;0;0;4.303173e-17;-4.303173e-17;4.303173e-17;45;0;5.737563e-17;4.968876e-17;0;6.045861e-17;2.560484e-17;0;-3.485377e-17;0.883048;0;0;0
0.233352;-5.374184;0.943442;8.39567e-13;0;0;8.39567e-13;2.220446e-16;0;-3.865989e-17;0;0;0;0;2.285831e-16;-6.538484e-18;1.175608e-16;45;0;1.567477e-16;1.546143e-16;2.220446e-16;3.095199e-18;-8.041498e-17;0;-8.351018e-17;0.943442;2.220446e-16;-2.220446e-16;0
0.300517;-5.374184;0.94746;8.39567e-13;0;0;8.39567e-13;2.220446e-16;2.220446e-16;1.677928e-18;0;0;0;0;2.237225e-16;2.203667e-16;1.677928e-18;45;0;2.237237e-18;1.480424e-16;2.220446e-16;8.163318e-19;2.539524e-18;2.220446e-16;1.723192e-18;0.94746;4.440892e-16;-4.440892e-16;0
0.367682;-5.374184;0.955313;8.39567e-13;0;0;8.39567e-13;2.220446e-16;2.220446e-16;3.69707e-17;0;0;0;0;2.590153e-16;1.850739e-16;3.69707e-17;45;0;4.929427e-17;1.540625e-16;2.220446e-16;1.434824e-17;5.959316e-17;2.220446e-16;4.524492e-17;0.955313;4.440892e-16;-4.440892e-16;0
0.434848;-5.374184;0.977763;8.39567e-13;0;0;8.39567e-13;0;0;-2.966127e-17;0;0;0;0;2.966127e-17;-2.966127e-17;2.966127e-17;45;0;3.954836e-17;3.424989e-17;0;-3.991767e-17;-1.940487e-17;0;2.05128e-17;0.977763;0;0;0
0.502013;-5.374184;1.009836;8.39567e-13;0;0;8.39567e-13;2.220446e-16;0;2.959947e-17;0;0;0;0;2.259226e-16;-3.878003e-18;1.149003e-16;45;0;1.532004e-16;1.519242e-16;2.220446e-16;3.862194e-17;2.0577e-17;0;-1.804494e-17;1.009836;2.220446e-16;-2.220446e-16;0
0.569178;-5.374184;0.982971;8.39567e-13;0;0;8.39567e-13;0;-3.330669e-16;1.62767e-17;0;0;0;0;7.93538e-19;-3.338604e-16;1.67327e-16;45;0;2.231027e-16;2.228386e-16;0;-8.597837e-18;4.115124e-17;-3.330669e-16;4.974907e-17;0.982971;-3.330669e-16;3.330669e-16;0
0.636344;-5.374184;0.988808;8.39567e-13;0;0;8.39567e-13;2.220446e-16;2.220446e-16;-3.584868e-17;0;0;0;0;2.578933e-16;1.861959e-16;3.584868e-17;45;0;4.779824e-17;1.537085e-16;2.220446e-16;-5.928967e-18;-6.57684e-17;2.220446e-16;-5.983944e-17;0.988808;4.440892e-16;-4.440892e-16;0
0.703509;-5.374184;0.97737;8.39567e-13;0;0;8.39567e-13;-1.110223e-16;-1.110223e-16;1.015146e-17;0;0;0;0;-1.008708e-16;-1.211738e-16;1.015146e-17;45;0;1.353528e-17;7.493733e-17;-1.110223e-16;-1.90714e-17;3.937432e-17;-1.110223e-16;5.844572e-17;0.97737;-2.220446e-16;2.220446e-16;0
0.770674;-5.374184;0.98206;8.39567e-13;0;0;8.39567e-13;0;0;-1.376986e-17;0;0;0;0;1.376986e-17;-1.376986e-17;1.376986e-17;45;0;1.835982e-17;1.590007e-17;0;2.901968e-18;-3.04417e-17;0;-3.334366e-17;0.98206;0;0;0
0.83784;-5.374184;1.003636;8.39567e-13;0;0;8.39567e-13;2.220446e-16;-1.110223e-16;-1.997945e-17;0;0;0;0;2.232388e-16;-1.122165e-16;1.677277e-16;45;0;2.236369e-16;1.971792e-16;2.220446e-16;1.047305e-17;-5.043195e-17;-1.110223e-16;-6.0905e-17;1.003636;1.110223e-16;-1.110223e-16;0
0.905005;-5.374184;1.020409;8.39567e-13;0;0;8.39567e-13;2.220446e-16;-1.110223e-16;-8.578437e-20;0;0;0;0;2.220446e-16;-1.110223e-16;1.665335e-16;45;0;2.220446e-16;1.95825e-16;2.220446e-16;-5.30941e-18;5.137841e-18;-1.110223e-16;1.044725e-17;1.020409;1.110223e-16;-1.110223e-16;0
0.97217;-5.374184;0.999135;8.39567e-13;0;0;8.39567e-13;2.220446e-16;2.220446e-16;-1.8739e-17;0;0;0;0;2.407836e-16;2.033056e-16;1.8739e-17;45;0;2.498533e-17;1.496028e-16;2.220446e-16;-1.790739e-17;-1.957061e-17;2.220446e-16;-1.66322e-18;0.999135;4.440892e-16;-4.440892e-16;0
1.039336;-5.374184;0.981596;8.39567e-13;0;0;8.39567e-13;0;2.220446e-16;5.28391e-18;0;0;0;0;2.221703e-16;-1.256681e-19;1.11148e-16;45;0;1.481973e-16;1.481554e-16;0;-8.069814e-18;1.863763e-17;2.220446e-16;2.670745e-17;0.981596;2.220446e-16;-2.220446e-16;0
1.106501;-5.374184;0.947811;8.39567e-13;0;0;8.39567e-13;0;-1.110223e-16;1.135027e-16;0;0;0;0;7.083892e-17;-1.818612e-16;1.263501e-16;45;0;1.684668e-16;1.505169e-16;0;1.101544e-16;1.16851e-16;-1.110223e-16;6.696614e-18;0.947811;-1.110223e-16;1.110223e-16;0
1.173667;-5.374184;0.891688;8.39567e-13;0;0;8.39567e-13;4.440892e-16;0;-4.808862e-18;0;0;0;0;4.441413e-16;-5.206712e-20;2.220967e-16;45;0;2.961289e-16;2.961115e-16;4.440892e-16;-2.656795e-17;1.695023e-17;0;4.351818e-17;0.891688;4.440892e-16;-4.440892e-16;0
1.240832;-5.374184;0.843196;8.39567e-13;0;0;8.39567e-13;2.220446e-16;0;-2.122341e-17;0;0;0;0;2.24055e-16;-2.010368e-18;1.130327e-16;45;0;1.507102e-16;1.500446e-16;2.220446e-16;-5.104187e-17;8.595058e-18;0;5.963693e-17;0.843196;2.220446e-16;-2.220446e-16;0
1.307997;-5.374184;0.793198;8.39567e-13;0;0;8.39567e-13;2.220446e-16;0;-4.057329e-17;0;0;0;0;2.292261e-16;-7.181519e-18;1.182038e-16;45;0;1.576051e-16;1.552666e-16;2.220446e-16;-8.114658e-17;0;0;8.114658e-17;0.793198;2.220446e-16;-2.220446e-16;0
1.375163;-5.374184;0.72301;8.39567e-13;0;0;8.39567e-13;0;2.220446e-16;-2.264498e-17;0;0;0;0;2.243305e-16;-2.285891e-18;1.133082e-16;45;0;1.510776e-16;1.503214e-16;0;-1.805731e-17;-2.723265e-17;2.220446e-16;-9.17534e-18;0.72301;2.220446e-16;-2.220446e-16;0
1.442328;-5.374184;0.636205;8.39567e-13;0;0;8.39567e-13;2.220446e-16;0;-3.849139e-17;0;0;0;0;2.285278e-16;-6.483183e-18;1.175055e-16;45;0;1.56674e-16;1.545582e-16;2.220446e-16;-7.072816e-17;-6.254625e-18;0;6.447353e-17;0.636205;2.220446e-16;-2.220446e-16;0
1.509493;-5.374184;0.554802;8.39567e-13;0;0;8.39567e-13;-2.220446e-16;0;6.109841e-17;0;0;0;0;1.570167e-17;-2.377463e-16;1.26724e-16;45;0;1.689653e-16;1.639822e-16;-2.220446e-16;1.35059e-16;-1.286221e-17;0;-1.479212e-16;0.554802;-2.220446e-16;2.220446e-16;0
1.576659;-5.374184;0.49029;8.39567e-13;0;0;8.39567e-13;-1.110223e-16;4.440892e-16;6.348799e-18;0;0;0;0;4.441618e-16;-1.110949e-16;2.776284e-16;45;0;3.701711e-16;3.39258e-16;-1.110223e-16;9.306119e-17;-8.036359e-17;4.440892e-16;-1.734248e-16;0.49029;3.330669e-16;-3.330669e-16;0
-0.303971;-5.441349;0.422096;8.39567e-13;0;0;8.39567e-13;2.220446e-16;2.220446e-16;-2.652e-17;0;0;0;0;2.485646e-16;1.955246e-16;2.652e-17;45;0;3.536e-17;1.51164e-16;2.220446e-16;-7.452997e-17;2.148998e-17;2.220446e-16;9.601995e-17;0.422096;4.440892e-16;-4.440892e-16;0
-0.236806;-5.441349;0.508518;8.39567e-13;0;0;8.39567e-13;2.220446e-16;2.220446e-16;4.136845e-17;0;0;0;0;2.634131e-16;1.806762e-16;4.136845e-17;45;0;5.515793e-17;1.555461e-16;2.220446e-16;5.917278e-17;2.356412e-17;2.220446e-16;-3.560865e-17;0.508518;4.440892e-16;-4.440892e-16;0
-0.169641;-5.441349;0.594842;8.39567e-13;0;0;8.39567e-13;-4.440892e-16;-3.330669e-16;-2.012691e-17;0;0;0;0;-3.295308e-16;-4.476253e-16;5.904728e-17;45;0;7.87297e-17;2.678745e-16;-4.440892e-16;-2.777215e-17;-1.248168e-17;-3.330669e-16;1.529047e-17;0.594842;-7.771561e-16;7.771561e-16;0
-0.102475;-5.441349;0.683446;8.39567e-13;0;0;8.39567e-13;0;-1.110223e-16;6.789314e-18;0;0;0;0;4.136437e-19;-1.114359e-16;5.592479e-17;45;0;7.456639e-17;7.44289e-17;0;1.825326e-17;-4.674633e-18;-1.110223e-16;-2.292789e-17;0.683446;-1.110223e-16;1.110223e-16;0
-0.03531;-5.441349;0.718715;8.39567e-13;0;0;8.39567e-13;2.220446e-16;0;-8.72904e-17;0;0;0;0;2.522511e-16;-3.020647e-17;1.412288e-16;45;0;1.88305e-16;1.790874e-16;2.220446e-16;-9.621572e-17;-7.836507e-17;0;1.785065e-17;0.718715;2.220446e-16;-2.220446e-16;0
0.031855;-5.441349;0.76866;8.39567e-13;0;0;8.39567e-13;2.220446e-16;0;-1.759259e-17;0;0;0;0;2.234298e-16;-1.385219e-18;1.124075e-16;45;0;1.498767e-16;1.494171e-16;2.220446e-16;-2.751145e-17;-7.673726e-18;0;1.983773e-17;0.76866;2.220446e-16;-2.220446e-16;0
0.099021;-5.441349;0.83757;8.39567e-13;0;0;8.39567e-13;0;0;-4.557002e-17;0;0;0;0;4.557002e-17;-4.557002e-17;4.557002e-17;45;0;6.076002e-17;5.261972e-17;0;-2.792616e-17;-6.321388e-17;0;-3.528771e-17;0.83757;0;0;0
0.166186;-5.441349;0.880681;8.39567e-13;0;0;8.39567e-13;-1.110223e-16;0;1.410013e-18;0;0;0;0;1.790465e-20;-1.110402e-16;5.552906e-17;45;0;7.403874e-17;7.403277e-17;-1.110223e-16;2.820026e-18;0;0;-2.820026e-18;0.880681;-1.110223e-16;1.110223e-16;0
0.233352;-5.441349;0.921155;8.39567e-13;0;0;8.39567e-13;4.440892e-16;2.220446e-16;-1.287961e-17;0;0;0;0;4.448338e-16;2.213e-16;1.117669e-16;45;0;1.490225e-16;2.56826e-16;4.440892e-16;2.641101e-18;-2.840033e-17;2.220446e-16;-3.104143e-17;0.921155;6.661338e-16;-6.661338e-16;0
0.300517;-5.441349;0.942332;8.39567e-13;0;0;8.39567e-13;2.220446e-16;2.220446e-16;-3.786754e-17;0;0;0;0;2.599121e-16;1.841771e-16;3.786754e-17;45;0;5.049006e-17;1.543526e-16;2.220446e-16;-5.650842e-17;-1.922667e-17;2.220446e-16;3.728175e-17;0.942332;4.440892e-16;-4.440892e-16;0
0.367682;-5.441349;0.996022;8.39567e-13;0;0;8.39567e-13;-3.330669e-16;0;2.330539e-18;0;0;0;0;1.630647e-20;-3.330832e-16;1.665498e-16;45;0;2.220663e-16;2.220609e-16;-3.330669e-16;8.036138e-18;-3.37506e-18;0;-1.14112e-17;0.996022;-3.330669e-16;3.330669e-16;0
0.434848;-5.441349;1.018065;8.39567e-13;0;0;8.39567e-13;2.220446e-16;2.220446e-16;-1.754092e-17;0;0;0;0;2.395855e-16;2.045037e-16;1.754092e-17;45;0;2.338789e-17;1.49409e-16;2.220446e-16;9.992447e-18;-4.507429e-17;2.220446e-16;-5.506673e-17;1.018065;4.440892e-16;-4.440892e-16;0
0.502013;-5.441349;1.008399;8.39567e-13;0;0;8.39567e-13;2.220446e-16;0;2.24355e-17;0;0;0;0;2.242888e-16;-2.244212e-18;1.132665e-16;45;0;1.51022e-16;1.502795e-16;2.220446e-16;3.647453e-17;8.396474e-18;0;-2.807805e-17;1.008399;2.220446e-16;-2.220446e-16;0
0.569178;-5.441349;1.010731;8.39567e-13;0;0;8.39567e-13;0;0;-1.217621e-17;0;0;0;0;1.217621e-17;-1.217621e-17;1.217621e-17;45;0;1.623494e-17;1.405987e-17;0;-1.914899e-18;-2.243751e-17;0;-2.052262e-17;1.010731;0;0;0
0.636344;-5.441349;1.00441;8.39567e-13;0;0;8.39567e-13;-1.110223e-16;0;8.245492e-18;0;0;0;0;6.090416e-19;-1.116313e-16;5.612019e-17;45;0;7.482692e-17;7.462474e-17;-1.110223e-16;-9.306724e-18;2.579771e-17;0;3.510443e-17;1.00441;-1.110223e-16;1.110223e-16;0
0.703509;-5.441349;0.996304;8.39567e-13;0;0;8.39567e-13;0;4.440892e-16;-2.721883e-17;0;0;0;0;4.457512e-16;-1.662059e-18;2.237067e-16;45;0;2.982756e-16;2.977231e-16;0;-1.058508e-17;-4.385258e-17;4.440892e-16;-3.326751e-17;0.996304;4.440892e-16;-4.440892e-16;0
0.770674;-5.441349;1.016231;8.39567e-13;0;0;8.39567e-13;-1.110223e-16;0;3.298619e-17;0;0;0;0;9.061106e-18;-1.200834e-16;6.457226e-17;45;0;8.609634e-17;8.324053e-17;-1.110223e-16;4.54846e-17;2.048777e-17;0;-2.499683e-17;1.016231;-1.110223e-16;1.110223e-16;0
0.83784;-5.441349;1.019526;8.39567e-13;0;0;8.39567e-13;-1.110223e-16;-1.110223e-16;8.662533e-18;0;0;0;0;-1.023598e-16;-1.196848e-16;8.662533e-18;45;0;1.155004e-17;7.468771e-17;-1.110223e-16;-6.505314e-19;1.79756e-17;-1.110223e-16;1.862613e-17;1.019526;-2.220446e-16;2.220446e-16;0
0.905005;-5.441349;1.038862;8.39567e-13;0;0;8.39567e-13;-4.440892e-16;2.220446e-16;-8.380175e-18;0;0;0;0;2.2215e-16;-4.441946e-16;3.331723e-16;45;0;4.442298e-16;3.917694e-16;-4.440892e-16;3.13378e-17;-4.809815e-17;2.220446e-16;-7.943595e-17;1.038862;-2.220446e-16;2.220446e-16;0
0.97217;-5.441349;0.998308;8.39567e-13;0;0;8.39567e-13;2.220446e-16;0;-3.516694e-17;0;0;0;0;2.274812e-16;-5.436554e-18;1.164589e-16;45;0;1.552785e-16;1.534984e-16;2.220446e-16;-3.165429e-17;-3.867959e-17;0;-7.025303e-18;0.998308;2.220446e-16;-2.220446e-16;0
1.039336;-5.441349;0.977278;8.39567e-13;0;0;8.39567e-13;0;0;-2.423565e-18;0;0;0;0;2.423565e-18;-2.423565e-18;2.423565e-18;45;0;3.231419e-18;2.798491e-18;0;-1.083581e-19;-4.738771e-18;0;-4.630413e-18;0.977278;0;0;0
1.106501;-5.441349;0.933974;8.39567e-13;0;0;8.39567e-13;-5.551115e-16;2.220446e-16;-1.56622e-17;0;0;0;0;2.223601e-16;-5.55427e-16;3.888936e-16;45;0;5.185248e-16;4.625764e-16;-5.551115e-16;-7.340706e-17;4.208266e-17;2.220446e-16;1.154897e-16;0.933974;-3.330669e-16;3.330669e-16;0
1.173667;-5.441349;0.88466;8.39567e-13;0;0;8.39567e-13;-2.220446e-16;2.220446e-16;-2.037635e-17;0;0;0;0;2.229776e-16;-2.229776e-16;2.229776e-16;45;0;2.973035e-16;2.574723e-16;-2.220446e-16;-3.213285e-17;-8.619849e-18;2.220446e-16;2.3513e-17;0.88466;0;0;0
1.240832;-5.441349;0.854793;8.39567e-13;0;0;8.39567e-13;0;0;-1.074115e-17;0;0;0;0;1.074115e-17;-1.074115e-17;1.074115e-17;45;0;1.432153e-17;1.240281e-17;0;-1.718235e-17;-4.299936e-18;0;1.288242e-17;0.854793;0;0;0
1.307997;-5.441349;0.805296;8.39567e-13;0;0;8.39567e-13;2.220446e-16;0;9.272375e-19;0;0;0;0;2.220485e-16;-3.871989e-21;1.110262e-16;45;0;1.480349e-16;1.480336e-16;2.220446e-16;-3.260363e-17;3.445811e-17;0;6.706175e-17;0.805296;2.220446e-16;-2.220446e-16;0
1.375163;-5.441349;0.731628;8.39567e-13;0;0;8.39567e-13;0;2.220446e-16;-2.029897e-17;0;0;0;0;2.23885e-16;-1.840445e-18;1.128627e-16;45;0;1.504837e-16;1.498739e-16;0;-4.773138e-17;7.133445e-18;2.220446e-16;5.486483e-17;0.731628;2.220446e-16;-2.220446e-16;0
1.442328;-5.441349;0.663271;8.39567e-13;0;0;8.39567e-13;-4.440892e-16;0;-2.225819e-18;0;0;0;0;1.115574e-20;-4.441004e-16;2.220557e-16;45;0;2.960744e-16;2.960706e-16;-4.440892e-16;-2.396304e-17;1.95114e-17;0;4.347443e-17;0.663271;-4.440892e-16;4.440892e-16;0
1.509493;-5.441349;0.573938;8.39567e-13;0;0;8.39567e-13;-6.661338e-16;0;4.279543e-17;0;0;0;0;2.738116e-18;-6.68872e-16;3.35805e-16;45;0;4.4774e-16;4.468301e-16;-6.661338e-16;6.626813e-17;1.932274e-17;0;-4.694539e-17;0.573938;-6.661338e-16;6.661338e-16;0
1.576659;-5.441349;0.496332;8.39567e-13;0;0;8.39567e-13;-1.110223e-16;0;-4.426303e-18;0;0;0;0;1.761909e-19;-1.111985e-16;5.568734e-17;45;0;7.424979e-17;7.419113e-17;-1.110223e-16;-3.367287e-17;2.482026e-17;0;5.849312e-17;0.496332;-1.110223e-16;1.110223e-16;0
-0.303971;-5.508514;0.392217;8.39567e-13;0;0;8.39567e-13;2.220446e-16;0;-2.184616e-17;0;0;0;0;2.241736e-16;-2.128953e-18;1.131513e-16;45;0;1.508683e-16;1.501637e-16;2.220446e-16;1.989849e-17;-6.359082e-17;0;-8.34893e-17;0.392217;2.220446e-16;-2.220446e-16;0
-0.236806;-5.508514;0.500201;8.39567e-13;0;0;8.39567e-13;2.220446e-16;-1.110223e-16;1.658973e-17;0;0;0;0;2.228689e-16;-1.118466e-16;1.673577e-16;45;0;2.231436e-16;1.967597e-16;2.220446e-16;3.605076e-17;-2.87129e-18;-1.110223e-16;-3.892205e-17;0.500201;1.110223e-16;-1.110223e-16;0
-0.169641;-5.508514;0.609316;8.39567e-13;0;0;8.39567e-13;0;-1.110223e-16;-1.112458e-17;0;0;0;0;1.103725e-18;-1.12126e-16;5.661487e-17;45;0;7.54865e-17;7.512129e-17;0;-1.269776e-18;-2.097939e-17;-1.110223e-16;-1.970961e-17;0.609316;-1.110223e-16;1.110223e-16;0
-0.102475;-5.508514;0.691562;8.39567e-13;0;0;8.39567e-13;-2.220446e-16;-3.330669e-16;-5.12638e-17;0;0;0;0;-2.019948e-16;-3.531168e-16;7.5561e-17;45;0;1.00748e-16;2.045761e-16;-2.220446e-16;-6.370113e-17;-3.882647e-17;-3.330669e-16;2.487465e-17;0.691562;-5.551115e-16;5.551115e-16;0
-0.03531;-5.508514;0.703675;8.39567e-13;0;0;8.39567e-13;-1.110223e-16;0;-1.466388e-17;0;0;0;0;1.904155e-18;-1.129265e-16;5.741531e-17;45;0;7.655374e-17;7.592698e-17;-1.110223e-16;-2.932777e-17;0;0;2.932777e-17;0.703675;-1.110223e-16;1.110223e-16;0
0.031855;-5.508514;0.769484;8.39567e-13;0;0;8.39567e-13;2.220446e-16;0;2.244129e-17;0;0;0;0;2.2429e-16;-2.245359e-18;1.132677e-16;45;0;1.510236e-16;1.502807e-16;2.220446e-16;4.488258e-17;0;0;-4.488258e-17;0.769484;2.220446e-16;-2.220446e-16;0
0.099021;-5.508514;0.836513;8.39567e-13;0;0;8.39567e-13;-1.110223e-16;2.220446e-16;-2.751848e-17;0;0;0;0;2.243029e-16;-1.132806e-16;1.687918e-16;45;0;2.250557e-16;1.983862e-16;-1.110223e-16;-6.316657e-17;8.129615e-18;2.220446e-16;7.129619e-17;0.836513;1.110223e-16;-1.110223e-16;0
0.166186;-5.508514;0.882685;8.39567e-13;0;0;8.39567e-13;4.440892e-16;-1.110223e-16;-1.521749e-19;0;0;0;0;4.440893e-16;-1.110223e-16;2.775558e-16;45;0;3.700744e-16;3.391788e-16;4.440892e-16;1.502032e-17;-1.532467e-17;-1.110223e-16;-3.034499e-17;0.882685;3.330669e-16;-3.330669e-16;0
0.233352;-5.508514;0.923012;8.39567e-13;0;0;8.39567e-13;-1.110223e-16;-1.110223e-16;4.237105e-18;0;0;0;0;-1.067852e-16;-1.152594e-16;4.237105e-18;45;0;5.649474e-18;7.41764e-17;-1.110223e-16;1.059858e-18;7.414352e-18;-1.110223e-16;6.354494e-18;0.923012;-2.220446e-16;2.220446e-16;0
0.300517;-5.508514;0.921215;8.39567e-13;0;0;8.39567e-13;0;-1.110223e-16;1.182327e-17;0;0;0;0;1.245149e-18;-1.122675e-16;5.67563e-17;45;0;7.567507e-17;7.526345e-17;0;4.304706e-18;1.934183e-17;-1.110223e-16;1.503713e-17;0.921215;-1.110223e-16;1.110223e-16;0
0.367682;-5.508514;0.958585;8.39567e-13;0;0;8.39567e-13;0;0;6.798111e-18;0;0;0;0;6.798111e-18;-6.798111e-18;6.798111e-18;45;0;9.064148e-18;7.849783e-18;0;-4.340389e-18;1.793661e-17;0;2.2277e-17;0.958585;0;0;0
0.434848;-5.508514;1.0027;8.39567e-13;0;0;8.39567e-13;-1.110223e-16;2.220446e-16;-2.675522e-17;0;0;0;0;2.241802e-16;-1.131579e-16;1.68669e-16;45;0;2.24892e-16;1.98247e-16;-1.110223e-16;-1.369715e-17;-3.981329e-17;2.220446e-16;-2.611615e-17;1.0027;1.110223e-16;-1.110223e-16;0
0.502013;-5.508514;1.001293;8.39567e-13;0;0;8.39567e-13;0;-1.110223e-16;-1.020639e-17;0;0;0;0;9.304842e-19;-1.119528e-16;5.644164e-17;45;0;7.525552e-17;7.494728e-17;0;-5.449596e-19;-1.986781e-17;-1.110223e-16;-1.932285e-17;1.001293;-1.110223e-16;1.110223e-16;0
0.569178;-5.508514;1.018735;8.39567e-13;0;0;8.39567e-13;2.220446e-16;2.220446e-16;9.631335e-18;0;0;0;0;2.31676e-16;2.124133e-16;9.631335e-18;45;0;1.284178e-17;1.484469e-16;2.220446e-16;-6.203889e-18;2.546656e-17;2.220446e-16;3.167045e-17;1.018735;4.440892e-16;-4.440892e-16;0
0.636344;-5.508514;1.032273;8.39567e-13;0;0;8.39567e-13;0;2.220446e-16;3.972829e-18;0;0;0;0;2.221157e-16;-7.105923e-20;1.110934e-16;45;0;1.481245e-16;1.481008e-16;0;5.363101e-18;2.582557e-18;2.220446e-16;-2.780544e-18;1.032273;2.220446e-16;-2.220446e-16;0
0.703509;-5.508514;1.028448;8.39567e-13;0;0;8.39567e-13;2.220446e-16;0;-1.488088e-17;0;0;0;0;2.230374e-16;-9.9284e-19;1.120151e-16;45;0;1.493535e-16;1.490237e-16;2.220446e-16;2.48005e-17;-5.456225e-17;0;-7.936275e-17;1.028448;2.220446e-16;-2.220446e-16;0
0.770674;-5.508514;1.039476;8.39567e-13;0;0;8.39567e-13;-1.110223e-16;2.220446e-16;-9.634643e-18;0;0;0;0;2.223231e-16;-1.113008e-16;1.668119e-16;45;0;2.224159e-16;1.961407e-16;-1.110223e-16;-1.459189e-17;-4.677397e-18;2.220446e-16;9.914493e-18;1.039476;1.110223e-16;-1.110223e-16;0
0.83784;-5.508514;1.02003;8.39567e-13;0;0;8.39567e-13;-1.110223e-16;0;-2.233075e-17;0;0;0;0;4.323206e-18;-1.153455e-16;5.983435e-17;45;0;7.977914e-17;7.837783e-17;-1.110223e-16;-8.719995e-18;-3.594151e-17;0;-2.722151e-17;1.02003;-1.110223e-16;1.110223e-16;0
0.905005;-5.508514;1.009772;8.39567e-13;0;0;8.39567e-13;0;2.220446e-16;3.848929e-17;0;0;0;0;2.285271e-16;-6.482495e-18;1.175048e-16;45;0;1.566731e-16;1.545576e-16;0;2.756397e-17;4.941462e-17;2.220446e-16;2.185065e-17;1.009772;2.220446e-16;-2.220446e-16;0
0.97217;-5.508514;0.974639;8.39567e-13;0;0;8.39567e-13;-1.110223e-16;2.220446e-16;1.370861e-17;0;0;0;0;2.226079e-16;-1.115856e-16;1.670967e-16;45;0;2.227956e-16;1.964637e-16;-1.110223e-16;7.857615e-18;1.95596e-17;2.220446e-16;1.170198e-17;0.974639;1.110223e-16;-1.110223e-16;0
1.039336;-5.508514;0.978472;8.39567e-13;0;0;8.39567e-13;-3.330669e-16;2.220446e-16;-3.837893e-17;0;0;0;0;2.246855e-16;-3.357078e-16;2.801966e-16;45;0;3.735955e-16;3.256528e-16;-3.330669e-16;-2.877809e-17;-4.797977e-17;2.220446e-16;-1.920168e-17;0.978472;-1.110223e-16;1.110223e-16;0
1.106501;-5.508514;0.92937;8.39567e-13;0;0;8.39567e-13;0;0;1.112781e-17;0;0;0;0;1.112781e-17;-1.112781e-17;1.112781e-17;45;0;1.483707e-17;1.284928e-17;0;9.451917e-18;1.280369e-17;0;3.351777e-18;0.92937;0;0;0
1.173667;-5.508514;0.872776;8.39567e-13;0;0;8.39567e-13;2.220446e-16;2.220446e-16;-2.174553e-19;0;0;0;0;2.222621e-16;2.218272e-16;2.174553e-19;45;0;2.899404e-19;1.4803e-16;2.220446e-16;-1.352901e-17;1.309409e-17;2.220446e-16;2.66231e-17;0.872776;4.440892e-16;-4.440892e-16;0
1.240832;-5.508514;0.838079;8.39567e-13;0;0;8.39567e-13;0;-3.330669e-16;-7.411974e-18;0;0;0;0;1.648623e-19;-3.332318e-16;1.666983e-16;45;0;2.222644e-16;2.222095e-16;0;-2.763692e-17;1.281297e-17;-3.330669e-16;4.044989e-17;0.838079;-3.330669e-16;3.330669e-16;0
1.307997;-5.508514;0.780379;8.39567e-13;0;0;8.39567e-13;0;0;-3.766104e-17;0;0;0;0;3.766104e-17;-3.766104e-17;3.766104e-17;45;0;5.021472e-17;4.348722e-17;0;-6.296509e-17;-1.235699e-17;0;5.060809e-17;0.780379;0;0;0
1.375163;-5.508514;0.734642;8.39567e-13;0;0;8.39567e-13;-3.330669e-16;-1.110223e-16;-2.112047e-17;0;0;0;0;-1.090312e-16;-3.35058e-16;1.130134e-16;45;0;1.506845e-16;1.973377e-16;-3.330669e-16;2.289756e-18;-4.45307e-17;-1.110223e-16;-4.682045e-17;0.734642;-4.440892e-16;4.440892e-16;0
1.442328;-5.508514;0.664505;8.39567e-13;0;0;8.39567e-13;-2.220446e-16;0;-5.049508e-17;0;0;0;0;1.09437e-17;-2.329883e-16;1.21966e-16;45;0;1.626213e-16;1.590989e-16;-2.220446e-16;-7.197124e-17;-2.901893e-17;0;4.295231e-17;0.664505;-2.220446e-16;2.220446e-16;0
1.509493;-5.508514;0.56602;8.39567e-13;0;0;8.39567e-13;0;-1.110223e-16;-2.855352e-17;0;0;0;0;6.913134e-18;-1.179354e-16;6.242428e-17;45;0;8.323238e-17;8.102636e-17;0;-4.490288e-17;-1.220416e-17;-1.110223e-16;3.269872e-17;0.56602;-1.110223e-16;1.110223e-16;0
1.576659;-5.508514;0.476834;8.39567e-13;0;0;8.39567e-13;2.220446e-16;-2.220446e-16;2.47121e-17;0;0;0;0;2.234155e-16;-2.234155e-16;2.234155e-16;45;0;2.978874e-16;2.57978e-16;2.220446e-16;4.078771e-17;8.636487e-18;-2.220446e-16;-3.215123e-17;0.476834;0;0;0
-0.303971;-5.57568;0.423591;8.39567e-13;0;0;8.39567e-13;-1.110223e-16;-2.220446e-16;3.004776e-18;0;0;0;0;-1.10941e-16;-2.221259e-16;5.559241e-17;45;0;7.412322e-17;1.282445e-16;-1.110223e-16;-1.150959e-17;1.751914e-17;-2.220446e-16;2.902873e-17;0.423591;-3.330669e-16;3.330669e-16;0
-0.236806;-5.57568;0.510104;8.39567e-13;0;0;8.39567e-13;4.440892e-16;-1.110223e-16;1.973129e-17;0;0;0;0;4.447897e-16;-1.117228e-16;2.782562e-16;45;0;3.710083e-16;3.399431e-16;4.440892e-16;2.162859e-17;1.783399e-17;-1.110223e-16;-3.794605e-18;0.510104;3.330669e-16;-3.330669e-16;0
-0.169641;-5.57568;0.606942;8.39567e-13;0;0;8.39567e-13;-4.440892e-16;-1.110223e-16;-1.196281e-17;0;0;0;0;-1.105932e-16;-4.445183e-16;1.669626e-16;45;0;2.226167e-16;2.672217e-16;-4.440892e-16;-1.93664e-17;-4.559221e-18;-1.110223e-16;1.480718e-17;0.606942;-5.551115e-16;5.551115e-16;0
-0.102475;-5.57568;0.698751;8.39567e-13;0;0;8.39567e-13;0;0;-1.468467e-17;0;0;0;0;1.468467e-17;-1.468467e-17;1.468467e-17;45;0;1.957956e-17;1.69564e-17;0;-1.461167e-17;-1.475767e-17;0;-1.460093e-19;0.698751;0;0;0
-0.03531;-5.57568;0.737694;8.39567e-13;0;0;8.39567e-13;-2.220446e-16;-3.330669e-16;-4.038954e-17;0;0;0;0;-2.089059e-16;-3.462056e-16;6.864986e-17;45;0;9.153314e-17;2.01302e-16;-2.220446e-16;-4.842946e-17;-3.234961e-17;-3.330669e-16;1.607985e-17;0.737694;-5.551115e-16;5.551115e-16;0
0.031855;-5.57568;0.806123;8.39567e-13;0;0;8.39567e-13;-1.110223e-16;2.220446e-16;-2.185494e-17;0;0;0;0;2.234725e-16;-1.124502e-16;1.679614e-16;45;0;2.239485e-16;1.974443e-16;-1.110223e-16;-7.454337e-17;3.083349e-17;2.220446e-16;1.053769e-16;0.806123;1.110223e-16;-1.110223e-16;0
0.099021;-5.57568;0.847549;8.39567e-13;0;0;8.39567e-13;2.220446e-16;-3.330669e-16;-2.264372e-17;0;0;0;0;2.229667e-16;-3.33989e-16;2.784779e-16;45;0;3.713039e-16;3.236811e-16;2.220446e-16;-3.646232e-17;-8.825121e-18;-3.330669e-16;2.76372e-17;0.847549;-1.110223e-16;1.110223e-16;0
0.166186;-5.57568;0.879368;8.39567e-13;0;0;8.39567e-13;0;0;1.174087e-17;0;0;0;0;1.174087e-17;-1.174087e-17;1.174087e-17;45;0;1.565449e-17;1.355719e-17;0;5.221213e-17;-2.873039e-17;0;-8.094251e-17;0.879368;0;0;0
0.233352;-5.57568;0.925627;8.39567e-13;0;0;8.39567e-13;-1.110223e-16;0;-7.260471e-18;0;0;0;0;4.727961e-19;-1.114951e-16;5.598395e-17;45;0;7.464526e-17;7.448816e-17;-1.110223e-16;-2.385265e-17;9.331711e-18;0;3.318436e-17;0.925627;-1.110223e-16;1.110223e-16;0
0.300517;-5.57568;0.932567;8.39567e-13;0;0;8.39567e-13;-1.110223e-16;-3.330669e-16;-8.236016e-19;0;0;0;0;-1.110192e-16;-3.3307e-16;1.110254e-16;45;0;1.480338e-16;1.958272e-16;-1.110223e-16;1.73863e-17;-1.90335e-17;-3.330669e-16;-3.64198e-17;0.932567;-4.440892e-16;4.440892e-16;0
0.367682;-5.57568;0.967627;8.39567e-13;0;0;8.39567e-13;-1.110223e-16;-1.110223e-16;-3.475045e-17;0;0;0;0;-7.627186e-17;-1.457728e-16;3.475045e-17;45;0;4.633393e-17;8.41922e-17;-1.110223e-16;-3.223865e-17;-3.726224e-17;-1.110223e-16;-5.02359e-18;0.967627;-2.220446e-16;2.220446e-16;0
0.434848;-5.57568;0.984686;8.39567e-13;0;0;8.39567e-13;2.220446e-16;-1.110223e-16;1.41331e-17;0;0;0;0;2.226432e-16;-1.116209e-16;1.671321e-16;45;0;2.228428e-16;1.965038e-16;2.220446e-16;1.824315e-17;1.002305e-17;-1.110223e-16;-8.220108e-18;0.984686;1.110223e-16;-1.110223e-16;0
0.502013;-5.57568;1.009536;8.39567e-13;0;0;8.39567e-13;2.220446e-16;2.220446e-16;2.117882e-17;0;0;0;0;2.432234e-16;2.008658e-16;2.117882e-17;45;0;2.823842e-17;1.500362e-16;2.220446e-16;1.20277e-17;3.032994e-17;2.220446e-16;1.830224e-17;1.009536;4.440892e-16;-4.440892e-16;0
0.569178;-5.57568;1.02397;8.39567e-13;0;0;8.39567e-13;0;0;1.253695e-17;0;0;0;0;1.253695e-17;-1.253695e-17;1.253695e-17;45;0;1.671593e-17;1.447642e-17;0;2.125686e-17;3.81703e-18;0;-1.743983e-17;1.02397;0;0;0
0.636344;-5.57568;1.038756;8.39567e-13;0;0;8.39567e-13;0;0;-2.394637e-17;0;0;0;0;2.394637e-17;-2.394637e-17;2.394637e-17;45;0;3.19285e-17;2.765089e-17;0;-4.139338e-19;-4.747882e-17;0;-4.706488e-17;1.038756;0;0;0
0.703509;-5.57568;1.028134;8.39567e-13;0;0;8.39567e-13;2.220446e-16;-1.110223e-16;-8.212358e-18;0;0;0;0;2.22247e-16;-1.112247e-16;1.667358e-16;45;0;2.223144e-16;1.960544e-16;2.220446e-16;-3.17223e-18;-1.325249e-17;-1.110223e-16;-1.008026e-17;1.028134;1.110223e-16;-1.110223e-16;0
0.770674;-5.57568;1.016322;8.39567e-13;0;0;8.39567e-13;2.220446e-16;0;-6.120334e-18;0;0;0;0;2.222132e-16;-1.6857e-19;1.111909e-16;45;0;1.482545e-16;1.481983e-16;2.220446e-16;-1.86034e-17;6.362738e-18;0;2.496614e-17;1.016322;2.220446e-16;-2.220446e-16;0
0.83784;-5.57568;1.00305;8.39567e-13;0;0;8.39567e-13;-1.110223e-16;2.220446e-16;-1.914151e-17;0;0;0;0;2.231411e-16;-1.121188e-16;1.676299e-16;45;0;2.235066e-16;1.970684e-16;-1.110223e-16;-2.570554e-17;-1.257748e-17;2.220446e-16;1.312806e-17;1.00305;1.110223e-16;-1.110223e-16;0
0.905005;-5.57568;0.995973;8.39567e-13;0;0;8.39567e-13;-1.110223e-16;0;-7.446934e-18;0;0;0;0;4.972834e-19;-1.115196e-16;5.600843e-17;45;0;7.467791e-17;7.451271e-17;-1.110223e-16;-5.072725e-18;-9.821144e-18;0;-4.748419e-18;0.995973;-1.110223e-16;1.110223e-16;0
0.97217;-5.57568;0.962185;8.39567e-13;0;0;8.39567e-13;-3.330669e-16;0;-2.133395e-17;0;0;0;0;1.360944e-18;-3.344279e-16;1.678944e-16;45;0;2.238592e-16;2.234069e-16;-3.330669e-16;-1.329249e-17;-2.937541e-17;0;-1.608292e-17;0.962185;-3.330669e-16;3.330669e-16;0
1.039336;-5.57568;0.945812;8.39567e-13;0;0;8.39567e-13;0;0;3.378651e-17;0;0;0;0;3.378651e-17;-3.378651e-17;3.378651e-17;45;0;4.504868e-17;3.90133e-17;0;2.800279e-17;3.957023e-17;0;1.156743e-17;0.945812;0;0;0
1.106501;-5.57568;0.921807;8.39567e-13;0;0;8.39567e-13;2.220446e-16;0;-4.366761e-17;0;0;0;0;2.303237e-16;-8.279047e-18;1.193013e-16;45;0;1.590685e-16;1.563819e-16;2.220446e-16;-7.285071e-17;-1.448451e-17;0;5.83662e-17;0.921807;2.220446e-16;-2.220446e-16;0
1.173667;-5.57568;0.893841;8.39567e-13;0;0;8.39567e-13;0;2.220446e-16;-2.770746e-19;0;0;0;0;2.220449e-16;-3.457422e-22;1.110226e-16;45;0;1.480302e-16;1.480301e-16;0;2.645819e-17;-2.701234e-17;2.220446e-16;-5.347053e-17;0.893841;2.220446e-16;-2.220446e-16;0
1.240832;-5.57568;0.857901;8.39567e-13;0;0;8.39567e-13;4.440892e-16;-1.110223e-16;-1.005234e-17;0;0;0;0;4.442712e-16;-1.112043e-16;2.777377e-16;45;0;3.70317e-16;3.393773e-16;4.440892e-16;-2.866774e-17;8.563062e-18;-1.110223e-16;3.72308e-17;0.857901;3.330669e-16;-3.330669e-16;0
1.307997;-5.57568;0.802111;8.39567e-13;0;0;8.39567e-13;-3.330669e-16;-4.440892e-16;3.304077e-17;0;0;0;0;-3.239779e-16;-4.531782e-16;6.460016e-17;45;0;8.613354e-17;2.695778e-16;-3.330669e-16;6.608154e-17;0;-4.440892e-16;-6.608154e-17;0.802111;-7.771561e-16;7.771561e-16;0
1.375163;-5.57568;0.734842;8.39567e-13;0;0;8.39567e-13;0;0;1.616552e-17;0;0;0;0;1.616552e-17;-1.616552e-17;1.616552e-17;45;0;2.155403e-17;1.866634e-17;0;3.233105e-17;0;0;-3.233105e-17;0.734842;0;0;0
1.442328;-5.57568;0.654218;8.39567e-13;0;0;8.39567e-13;0;-1.110223e-16;-2.084567e-17;0;0;0;0;3.78497e-18;-1.148073e-16;5.929612e-17;45;0;7.906149e-17;7.783052e-17;0;-5.92429e-17;1.755156e-17;-1.110223e-16;7.679446e-17;0.654218;-1.110223e-16;1.110223e-16;0
1.509493;-5.57568;0.564806;8.39567e-13;0;0;8.39567e-13;0;0;4.907596e-17;0;0;0;0;4.907596e-17;-4.907596e-17;4.907596e-17;45;0;6.543461e-17;5.666804e-17;0;8.255053e-17;1.560139e-17;0;-6.694914e-17;0.564806;0;0;0
1.576659;-5.57568;0.467375;8.39567e-13;0;0;8.39567e-13;2.220446e-16;-3.330669e-16;2.20619e-17;0;0;0;0;2.2292e-16;-3.339423e-16;2.784312e-16;45;0;3.712416e-16;3.236275e-16;2.220446e-16;5.627203e-17;-1.214824e-17;-3.330669e-16;-6.842027e-17;0.467375;-1.110223e-16;1.110223e-16;0
-0.303971;-5.642845;0.433318;8.39567e-13;0;0;8.39567e-13;-3.330669e-16;2.220446e-16;-4.845828e-17;0;0;0;0;2.26243e-16;-3.372653e-16;2.817542e-16;45;0;3.756722e-16;3.274397e-16;-3.330669e-16;-1.492469e-16;5.233035e-17;2.220446e-16;2.015773e-16;0.433318;-1.110223e-16;1.110223e-16;0
-0.236806;-5.642845;0.523484;8.39567e-13;0;0;8.39567e-13;0;2.220446e-16;2.897928e-17;0;0;0;0;2.257644e-16;-3.719801e-18;1.147421e-16;45;0;1.529895e-16;1.517647e-16;0;4.481582e-17;1.314275e-17;2.220446e-16;-3.167307e-17;0.523484;2.220446e-16;-2.220446e-16;0
-0.169641;-5.642845;0.610198;8.39567e-13;0;0;8.39567e-13;0;-1.110223e-16;3.083229e-18;0;0;0;0;8.55592e-20;-1.111079e-16;5.559671e-17;45;0;7.412895e-17;7.410044e-17;0;3.825799e-17;-3.209153e-17;-1.110223e-16;-7.034951e-17;0.610198;-1.110223e-16;1.110223e-16;0
-0.102475;-5.642845;0.68942;8.39567e-13;0;0;8.39567e-13;-1.110223e-16;2.220446e-16;-4.760845e-18;0;0;0;0;2.221126e-16;-1.110903e-16;1.666015e-16;45;0;2.221353e-16;1.959021e-16;-1.110223e-16;-3.365972e-17;2.413803e-17;2.220446e-16;5.779776e-17;0.68942;1.110223e-16;-1.110223e-16;0
-0.03531;-5.642845;0.749484;8.39567e-13;0;0;8.39567e-13;0;2.220446e-16;1.989387e-17;0;0;0;0;2.238129e-16;-1.768289e-18;1.127906e-16;45;0;1.503875e-16;1.498015e-16;0;4.28648e-18;3.550125e-17;2.220446e-16;3.121477e-17;0.749484;2.220446e-16;-2.220446e-16;0
0.031855;-5.642845;0.805852;8.39567e-13;0;0;8.39567e-13;0;2.220446e-16;2.449641e-17;0;0;0;0;2.24715e-16;-2.670378e-18;1.136927e-16;45;0;1.515902e-16;1.50708e-16;0;1.558784e-17;3.340498e-17;2.220446e-16;1.781714e-17;0.805852;2.220446e-16;-2.220446e-16;0
0.099021;-5.642845;0.854741;8.39567e-13;0;0;8.39567e-13;0;2.220446e-16;-9.374805e-18;0;0;0;0;2.224397e-16;-3.951047e-19;1.114174e-16;45;0;1.485565e-16;1.48425e-16;0;-1.763683e-17;-1.11278e-18;2.220446e-16;1.652405e-17;0.854741;2.220446e-16;-2.220446e-16;0
0.166186;-5.642845;0.868691;8.39567e-13;0;0;8.39567e-13;0;0;-1.218502e-17;0;0;0;0;1.218502e-17;-1.218502e-17;1.218502e-17;45;0;1.624669e-17;1.407004e-17;0;-3.254903e-17;8.179004e-18;0;4.072804e-17;0.868691;0;0;0
0.233352;-5.642845;0.940505;8.39567e-13;0;0;8.39567e-13;2.220446e-16;0;2.416689e-17;0;0;0;0;2.246444e-16;-2.599835e-18;1.136221e-16;45;0;1.514962e-16;1.506371e-16;2.220446e-16;-4.657836e-18;5.299161e-17;0;5.764945e-17;0.940505;2.220446e-16;-2.220446e-16;0
0.300517;-5.642845;0.969374;8.39567e-13;0;0;8.39567e-13;-3.330669e-16;-1.110223e-16;-7.082918e-17;0;0;0;0;-9.035283e-17;-3.537364e-16;1.316918e-16;45;0;1.75589e-16;2.122179e-16;-3.330669e-16;-4.998546e-17;-9.167291e-17;-1.110223e-16;-4.168745e-17;0.969374;-4.440892e-16;4.440892e-16;0
0.367682;-5.642845;1.025527;8.39567e-13;0;0;8.39567e-13;0;-1.110223e-16;-3.915618e-17;0;0;0;0;1.242039e-17;-1.234427e-16;6.793154e-17;45;0;9.057538e-17;8.67322e-17;0;-2.244952e-17;-5.586283e-17;-1.110223e-16;-3.341331e-17;1.025527;-1.110223e-16;1.110223e-16;0
0.434848;-5.642845;1.016102;8.39567e-13;0;0;8.39567e-13;0;-3.330669e-16;-1.907959e-17;0;0;0;0;1.089402e-18;-3.341563e-16;1.676229e-16;45;0;2.234971e-16;2.231349e-16;0;4.499504e-19;-3.860912e-17;-3.330669e-16;-3.905907e-17;1.016102;-3.330669e-16;3.330669e-16;0
0.502013;-5.642845;1.020804;8.39567e-13;0;0;8.39567e-13;0;0;1.003643e-17;0;0;0;0;1.003643e-17;-1.003643e-17;1.003643e-17;45;0;1.338191e-17;1.158908e-17;0;9.908695e-18;1.016417e-17;0;2.554791e-19;1.020804;0;0;0
0.569178;-5.642845;1.02985;8.39567e-13;0;0;8.39567e-13;2.220446e-16;2.220446e-16;-4.080959e-17;0;0;0;0;2.628542e-16;1.81235e-16;4.080959e-17;45;0;5.441279e-17;1.553492e-16;2.220446e-16;-3.905251e-17;-4.256668e-17;2.220446e-16;-3.514177e-18;1.02985;4.440892e-16;-4.440892e-16;0
0.636344;-5.642845;1.021775;8.39567e-13;0;0;8.39567e-13;2.220446e-16;-3.330669e-16;-1.784457e-17;0;0;0;0;2.226176e-16;-3.3364e-16;2.781288e-16;45;0;3.708384e-16;3.232807e-16;2.220446e-16;-1.747113e-17;-1.821802e-17;-3.330669e-16;-7.468949e-19;1.021775;-1.110223e-16;1.110223e-16;0
0.703509;-5.642845;1.038053;8.39567e-13;0;0;8.39567e-13;0;0;-4.056596e-17;0;0;0;0;4.056596e-17;-4.056596e-17;4.056596e-17;45;0;5.408794e-17;4.684153e-17;0;-1.971271e-17;-6.141921e-17;0;-4.170649e-17;1.038053;0;0;0
0.770674;-5.642845;1.047395;8.39567e-13;0;0;8.39567e-13;-1.110223e-16;2.220446e-16;-3.284126e-17;0;0;0;0;2.252519e-16;-1.142296e-16;1.697408e-16;45;0;2.263211e-16;1.99463e-16;-1.110223e-16;-2.536584e-17;-4.031669e-17;2.220446e-16;-1.495085e-17;1.047395;1.110223e-16;-1.110223e-16;0
0.83784;-5.642845;1.00948;8.39567e-13;0;0;8.39567e-13;0;0;2.13408e-17;0;0;0;0;2.13408e-17;-2.13408e-17;2.13408e-17;45;0;2.84544e-17;2.464223e-17;0;1.373608e-17;2.894551e-17;0;1.520943e-17;1.00948;0;0;0
0.905005;-5.642845;0.992093;8.39567e-13;0;0;8.39567e-13;0;2.220446e-16;5.870103e-18;0;0;0;0;2.221997e-16;-1.550772e-19;1.111774e-16;45;0;1.482365e-16;1.481848e-16;0;3.144551e-17;-1.970531e-17;2.220446e-16;-5.115082e-17;0.992093;2.220446e-16;-2.220446e-16;0
0.97217;-5.642845;0.963614;8.39567e-13;0;0;8.39567e-13;2.220446e-16;0;3.944239e-17;0;0;0;0;2.288427e-16;-6.798128e-18;1.178204e-16;45;0;1.570939e-16;1.548776e-16;2.220446e-16;4.914024e-17;2.974454e-17;0;-1.93957e-17;0.963614;2.220446e-16;-2.220446e-16;0
1.039336;-5.642845;0.951236;8.39567e-13;0;0;8.39567e-13;2.220446e-16;-3.330669e-16;-9.070665e-18;0;0;0;0;2.221928e-16;-3.332151e-16;2.777039e-16;45;0;3.702719e-16;3.227933e-16;2.220446e-16;-2.81424e-17;1.000108e-17;-3.330669e-16;3.814348e-17;0.951236;-1.110223e-16;1.110223e-16;0
1.106501;-5.642845;0.933914;8.39567e-13;0;0;8.39567e-13;-3.330669e-16;-1.110223e-16;2.950469e-17;0;0;0;0;-1.071687e-16;-3.369205e-16;1.148759e-16;45;0;1.531679e-16;1.987665e-16;-3.330669e-16;5.900938e-17;0;-1.110223e-16;-5.900938e-17;0.933914;-4.440892e-16;4.440892e-16;0
1.173667;-5.642845;0.894415;8.39567e-13;0;0;8.39567e-13;0;0;8.548305e-18;0;0;0;0;8.548305e-18;-8.548305e-18;8.548305e-18;45;0;1.139774e-17;9.870732e-18;0;-9.756962e-18;2.685357e-17;0;3.661053e-17;0.894415;0;0;0
1.240832;-5.642845;0.851021;8.39567e-13;0;0;8.39567e-13;0;2.220446e-16;-1.265063e-17;0;0;0;0;2.22763e-16;-7.184249e-19;1.117407e-16;45;0;1.489876e-16;1.487487e-16;0;9.621842e-18;-3.492311e-17;2.220446e-16;-4.454495e-17;0.851021;2.220446e-16;-2.220446e-16;0
1.307997;-5.642845;0.820239;8.39567e-13;0;0;8.39567e-13;-1.110223e-16;-3.330669e-16;4.357213e-17;0;0;0;0;-1.027782e-16;-3.41311e-16;1.192664e-16;45;0;1.590219e-16;2.02185e-16;-1.110223e-16;5.598636e-17;3.11579e-17;-3.330669e-16;-2.482846e-17;0.820239;-4.440892e-16;4.440892e-16;0
1.375163;-5.642845;0.749935;8.39567e-13;0;0;8.39567e-13;2.220446e-16;-1.110223e-16;5.001107e-18;0;0;0;0;2.221197e-16;-1.110974e-16;1.666085e-16;45;0;2.221447e-16;1.959101e-16;2.220446e-16;-3.482798e-18;1.348501e-17;-1.110223e-16;1.696781e-17;0.749935;1.110223e-16;-1.110223e-16;0
1.442328;-5.642845;0.663593;8.39567e-13;0;0;8.39567e-13;-2.220446e-16;2.220446e-16;3.560204e-17;0;0;0;0;2.248807e-16;-2.248807e-16;2.248807e-16;45;0;2.998409e-16;2.596698e-16;-2.220446e-16;7.120407e-17;0;2.220446e-16;-7.120407e-17;0.663593;0;0;0
1.509493;-5.642845;0.577236;8.39567e-13;0;0;8.39567e-13;2.220446e-16;-2.220446e-16;-8.57751e-18;0;0;0;0;2.222102e-16;-2.222102e-16;2.222102e-16;45;0;2.962803e-16;2.565863e-16;2.220446e-16;-6.575058e-17;4.859556e-17;-2.220446e-16;1.143461e-16;0.577236;0;0;0
1.576659;-5.642845;0.461517;8.39567e-13;0;0;8.39567e-13;4.440892e-16;2.220446e-16;-9.190411e-17;0;0;0;0;4.77193e-16;1.889409e-16;1.44126e-16;45;0;1.921681e-16;2.774892e-16;4.440892e-16;-1.237455e-16;-6.00627e-17;2.220446e-16;6.368281e-17;0.461517;6.661338e-16;-6.661338e-16;0
-0.236806;-5.71001;0.53532;8.39567e-13;0;0;8.39567e-13;0;0;-4.407764e-17;0;0;0;0;4.407764e-17;-4.407764e-17;4.407764e-17;45;0;5.877018e-17;5.089647e-17;0;-8.815528e-17;0;0;8.815528e-17;0.53532;0;0;0
-0.169641;-5.71001;0.612355;8.39567e-13;0;0;8.39567e-13;2.220446e-16;-2.220446e-16;1.831784e-17;0;0;0;0;2.227989e-16;-2.227989e-16;2.227989e-16;45;0;2.970652e-16;2.57266e-16;2.220446e-16;6.471621e-17;-2.808054e-17;-2.220446e-16;-9.279675e-17;0.612355;0;0;0
-0.102475;-5.71001;0.692191;8.39567e-13;0;0;8.39567e-13;0;0;-1.249643e-18;0;0;0;0;1.249643e-18;-1.249643e-18;1.249643e-18;45;0;1.666191e-18;1.442963e-18;0;1.835035e-17;-2.084963e-17;0;-3.919998e-17;0.692191;0;0;0
-0.03531;-5.71001;0.758268;8.39567e-13;0;0;8.39567e-13;2.220446e-16;-4.440892e-16;2.407969e-18;0;0;0;0;2.220533e-16;-4.440979e-16;3.330756e-16;45;0;4.441008e-16;3.916597e-16;2.220446e-16;6.801486e-17;-6.319892e-17;-4.440892e-16;-1.312138e-16;0.758268;-2.220446e-16;2.220446e-16;0
0.031855;-5.71001;0.802719;8.39567e-13;0;0;8.39567e-13;2.220446e-16;0;-4.61213e-17;0;0;0;0;2.312435e-16;-9.198851e-18;1.202212e-16;45;0;1.602949e-16;1.573183e-16;2.220446e-16;-6.655006e-17;-2.569254e-17;0;4.085751e-17;0.802719;2.220446e-16;-2.220446e-16;0
0.099021;-5.71001;0.83172;8.39567e-13;0;0;8.39567e-13;0;-1.110223e-16;3.44814e-17;0;0;0;0;9.837567e-18;-1.208599e-16;6.534872e-17;45;0;8.713163e-17;8.404457e-17;0;3.378119e-17;3.518161e-17;-1.110223e-16;1.400417e-18;0.83172;-1.110223e-16;1.110223e-16;0
0.166186;-5.71001;0.913857;8.39567e-13;0;0;8.39567e-13;2.220446e-16;0;-3.588903e-17;0;0;0;0;2.277012e-16;-5.656634e-18;1.166789e-16;45;0;1.555719e-16;1.537211e-16;2.220446e-16;-6.791139e-17;-3.86667e-18;0;6.404472e-17;0.913857;2.220446e-16;-2.220446e-16;0
0.233352;-5.71001;0.960207;8.39567e-13;0;0;8.39567e-13;2.220446e-16;0;-5.272033e-17;0;0;0;0;2.339263e-16;-1.188166e-17;1.22904e-16;45;0;1.63872e-16;1.600585e-16;2.220446e-16;-5.697208e-17;-4.846857e-17;0;8.503522e-18;0.960207;2.220446e-16;-2.220446e-16;0
0.300517;-5.71001;0.957698;8.39567e-13;0;0;8.39567e-13;-1.110223e-16;0;1.644222e-17;0;0;0;0;2.383878e-18;-1.134062e-16;5.789503e-17;45;0;7.719337e-17;7.641114e-17;-1.110223e-16;3.288443e-17;0;0;-3.288443e-17;0.957698;-1.110223e-16;1.110223e-16;0
0.367682;-5.71001;1.004222;8.39567e-13;0;0;8.39567e-13;0;-1.110223e-16;-1.514734e-17;0;0;0;0;2.02953e-18;-1.130518e-16;5.754068e-17;45;0;7.672091e-17;7.605343e-17;0;-3.029469e-17;0;-1.110223e-16;3.029469e-17;1.004222;-1.110223e-16;1.110223e-16;0
0.434848;-5.71001;1.011359;8.39567e-13;0;0;8.39567e-13;2.220446e-16;2.220446e-16;1.735105e-18;0;0;0;0;2.237797e-16;2.203095e-16;1.735105e-18;45;0;2.313473e-18;1.480433e-16;2.220446e-16;-1.187803e-17;1.534824e-17;2.220446e-16;2.722627e-17;1.011359;4.440892e-16;-4.440892e-16;0
0.502013;-5.71001;1.027106;8.39567e-13;0;0;8.39567e-13;-1.110223e-16;-1.110223e-16;-1.47713e-17;0;0;0;0;-9.6251e-17;-1.257936e-16;1.47713e-17;45;0;1.969507e-17;7.595474e-17;-1.110223e-16;-2.310062e-18;-2.723254e-17;-1.110223e-16;-2.492248e-17;1.027106;-2.220446e-16;2.220446e-16;0
0.569178;-5.71001;1.04636;8.39567e-13;0;0;8.39567e-13;0;0;-3.639619e-18;0;0;0;0;3.639619e-18;-3.639619e-18;3.639619e-18;45;0;4.852825e-18;4.20267e-18;0;-1.146175e-18;-6.133063e-18;0;-4.986888e-18;1.04636;0;0;0
0.636344;-5.71001;1.024348;8.39567e-13;0;0;8.39567e-13;-1.110223e-16;-1.110223e-16;2.596222e-17;0;0;0;0;-8.506009e-17;-1.369845e-16;2.596222e-17;45;0;3.461629e-17;7.98556e-17;-1.110223e-16;2.676024e-17;2.51642e-17;-1.110223e-16;-1.596035e-18;1.024348;-2.220446e-16;2.220446e-16;0
0.703509;-5.71001;1.050092;8.39567e-13;0;0;8.39567e-13;-1.110223e-16;0;-7.571896e-18;0;0;0;0;5.140353e-19;-1.115363e-16;5.602519e-17;45;0;7.470025e-17;7.45295e-17;-1.110223e-16;-1.262317e-17;-2.520618e-18;0;1.010256e-17;1.050092;-1.110223e-16;1.110223e-16;0
0.770674;-5.71001;1.064697;8.39567e-13;0;0;8.39567e-13;-4.440892e-16;-3.330669e-16;-1.72912e-17;0;0;0;0;-3.304362e-16;-4.467199e-16;5.814184e-17;45;0;7.752245e-17;2.676103e-16;-4.440892e-16;-1.314386e-17;-2.143855e-17;-3.330669e-16;-8.294693e-18;1.064697;-7.771561e-16;7.771561e-16;0
0.83784;-5.71001;1.022606;8.39567e-13;0;0;8.39567e-13;0;2.220446e-16;2.946572e-17;0;0;0;0;2.258882e-16;-3.84362e-18;1.148659e-16;45;0;1.531546e-16;1.518896e-16;0;4.473567e-17;1.419577e-17;2.220446e-16;-3.05399e-17;1.022606;2.220446e-16;-2.220446e-16;0
0.905005;-5.71001;0.997785;8.39567e-13;0;0;8.39567e-13;2.220446e-16;0;-5.548879e-17;0;0;0;0;2.35139e-16;-1.30944e-17;1.241167e-16;45;0;1.654889e-16;1.613014e-16;2.220446e-16;-8.584275e-17;-2.513483e-17;0;6.070792e-17;0.997785;2.220446e-16;-2.220446e-16;0
0.97217;-5.71001;0.989121;8.39567e-13;0;0;8.39567e-13;-3.330669e-16;0;3.56144e-17;0;0;0;0;3.765628e-18;-3.368325e-16;1.702991e-16;45;0;2.270654e-16;2.258207e-16;-3.330669e-16;2.085199e-17;5.037682e-17;0;2.952483e-17;0.989121;-3.330669e-16;3.330669e-16;0
1.039336;-5.71001;0.97974;8.39567e-13;0;0;8.39567e-13;2.220446e-16;0;-1.34541e-17;0;0;0;0;2.228568e-16;-8.122374e-19;1.118345e-16;45;0;1.491127e-16;1.488427e-16;2.220446e-16;-2.690819e-17;0;0;2.690819e-17;0.97974;2.220446e-16;-2.220446e-16;0
1.106501;-5.71001;0.953489;8.39567e-13;0;0;8.39567e-13;0;2.220446e-16;1.771216e-17;0;0;0;0;2.234486e-16;-1.403994e-18;1.124263e-16;45;0;1.499017e-16;1.494359e-16;0;1.190067e-17;2.352364e-17;2.220446e-16;1.162297e-17;0.953489;2.220446e-16;-2.220446e-16;0
1.173667;-5.71001;0.920511;8.39567e-13;0;0;8.39567e-13;-3.330669e-16;-1.110223e-16;4.639654e-17;0;0;0;0;-1.017176e-16;-3.423716e-16;1.20327e-16;45;0;1.60436e-16;2.030212e-16;-3.330669e-16;6.959115e-17;2.320192e-17;-1.110223e-16;-4.638924e-17;0.920511;-4.440892e-16;4.440892e-16;0
1.240832;-5.71001;0.885113;8.39567e-13;0;0;8.39567e-13;2.220446e-16;0;5.99595e-17;0;0;0;0;2.372011e-16;-1.515651e-17;1.261788e-16;45;0;1.682384e-16;1.634207e-16;2.220446e-16;8.494287e-17;3.497614e-17;0;-4.996673e-17;0.885113;2.220446e-16;-2.220446e-16;0
1.307997;-5.71001;0.831678;8.39567e-13;0;0;8.39567e-13;2.220446e-16;0;-3.249452e-17;0;0;0;0;2.267022e-16;-4.657623e-18;1.156799e-16;45;0;1.542399e-16;1.52711e-16;2.220446e-16;-2.762697e-17;-3.736206e-17;0;-9.735098e-18;0.831678;2.220446e-16;-2.220446e-16;0
1.375163;-5.71001;0.7526;8.39567e-13;0;0;8.39567e-13;0;2.220446e-16;-7.432491e-18;0;0;0;0;2.222931e-16;-2.485094e-19;1.112708e-16;45;0;1.483611e-16;1.482783e-16;0;1.913525e-17;-3.400023e-17;2.220446e-16;-5.313549e-17;0.7526;2.220446e-16;-2.220446e-16;0
1.442328;-5.71001;0.676425;8.39567e-13;0;0;8.39567e-13;0;-1.110223e-16;-4.797263e-17;0;0;0;0;1.785683e-17;-1.288791e-16;7.336798e-17;45;0;9.782398e-17;9.244835e-17;0;-8.21386e-17;-1.380666e-17;-1.110223e-16;6.833193e-17;0.676425;-1.110223e-16;1.110223e-16;0
1.509493;-5.71001;0.61164;8.39567e-13;0;0;8.39567e-13;2.220446e-16;-2.220446e-16;3.352441e-17;0;0;0;0;2.245611e-16;-2.245611e-16;2.245611e-16;45;0;2.994148e-16;2.593008e-16;2.220446e-16;-2.867556e-17;9.572436e-17;-2.220446e-16;1.243999e-16;0.61164;0;0;0
-0.169641;-5.777176;0.617445;8.39567e-13;0;0;8.39567e-13;-3.330669e-16;-4.440892e-16;-2.263821e-16;0;0;0;0;-1.554894e-16;-6.216668e-16;2.330887e-16;45;0;3.107849e-16;3.735618e-16;-3.330669e-16;-3.586333e-16;-9.413086e-17;-4.440892e-16;2.645024e-16;0.617445;-7.771561e-16;7.771561e-16;0
-0.102475;-5.777176;0.69807;8.39567e-13;0;0;8.39567e-13;-1.110223e-16;2.220446e-16;-1.626157e-17;0;0;0;0;2.228367e-16;-1.118144e-16;1.673255e-16;45;0;2.231007e-16;1.967231e-16;-1.110223e-16;-4.791211e-17;1.538898e-17;2.220446e-16;6.330108e-17;0.69807;1.110223e-16;-1.110223e-16;0
-0.03531;-5.777176;0.775153;8.39567e-13;0;0;8.39567e-13;0;2.220446e-16;6.235027e-17;0;0;0;0;2.383546e-16;-1.630997e-17;1.273323e-16;45;0;1.697764e-16;1.646093e-16;0;1.247005e-16;0;2.220446e-16;-1.247005e-16;0.775153;2.220446e-16;-2.220446e-16;0
0.031855;-5.777176;0.808003;8.39567e-13;0;0;8.39567e-13;0;2.220446e-16;4.927607e-17;0;0;0;0;2.324887e-16;-1.044408e-17;1.214664e-16;45;0;1.619552e-16;1.585885e-16;0;1.091782e-16;-1.062605e-17;2.220446e-16;-1.198042e-16;0.808003;2.220446e-16;-2.220446e-16;0
0.099021;-5.777176;0.833337;8.39567e-13;0;0;8.39567e-13;0;0;-6.023052e-17;0;0;0;0;6.023052e-17;-6.023052e-17;6.023052e-17;45;0;8.030736e-17;6.954821e-17;0;-5.921429e-17;-6.124675e-17;0;-2.032453e-18;0.833337;0;0;0
0.166186;-5.777176;0.898214;8.39567e-13;0;0;8.39567e-13;2.220446e-16;-1.110223e-16;-1.822955e-17;0;0;0;0;2.230394e-16;-1.120171e-16;1.675282e-16;45;0;2.23371e-16;1.96953e-16;2.220446e-16;-4.568064e-17;9.221538e-18;-1.110223e-16;5.490218e-17;0.898214;1.110223e-16;-1.110223e-16;0
0.233352;-5.777176;0.925714;8.39567e-13;0;0;8.39567e-13;0;-4.440892e-16;-2.464319e-17;0;0;0;0;1.363303e-18;-4.454525e-16;2.234079e-16;45;0;2.978772e-16;2.974238e-16;0;-7.136517e-17;2.207879e-17;-4.440892e-16;9.344397e-17;0.925714;-4.440892e-16;4.440892e-16;0
0.300517;-5.777176;0.945775;8.39567e-13;0;0;8.39567e-13;0;-1.110223e-16;-8.577631e-17;0;0;0;0;4.666058e-17;-1.576829e-16;1.021717e-16;45;0;1.36229e-16;1.236459e-16;0;-1.715526e-16;0;-1.110223e-16;1.715526e-16;0.945775;-1.110223e-16;1.110223e-16;0
0.367682;-5.777176;0.988643;8.39567e-13;0;0;8.39567e-13;-1.110223e-16;2.220446e-16;7.970528e-18;0;0;0;0;2.222352e-16;-1.112129e-16;1.667241e-16;45;0;2.222988e-16;1.960411e-16;-1.110223e-16;1.594106e-17;0;2.220446e-16;-1.594106e-17;0.988643;1.110223e-16;-1.110223e-16;0
0.434848;-5.777176;1.022314;8.39567e-13;0;0;8.39567e-13;-2.220446e-16;2.220446e-16;1.397647e-17;0;0;0;0;2.22484e-16;-2.22484e-16;2.22484e-16;45;0;2.966454e-16;2.569024e-16;-2.220446e-16;2.795293e-17;0;2.220446e-16;-2.795293e-17;1.022314;0;0;0
0.502013;-5.777176;1.019565;8.39567e-13;0;0;8.39567e-13;0;-3.330669e-16;-3.820905e-17;0;0;0;0;4.327083e-18;-3.37394e-16;1.708605e-16;45;0;2.27814e-16;2.263855e-16;0;-6.486887e-17;-1.154925e-17;-3.330669e-16;5.331962e-17;1.019565;-3.330669e-16;3.330669e-16;0
0.569178;-5.777176;1.041928;8.39567e-13;0;0;8.39567e-13;-2.220446e-16;-1.110223e-16;2.383958e-18;0;0;0;0;-1.109711e-16;-2.220958e-16;5.556232e-17;45;0;7.408309e-17;1.282271e-16;-2.220446e-16;3.000937e-17;-2.524145e-17;-1.110223e-16;-5.525082e-17;1.041928;-3.330669e-16;3.330669e-16;0
0.636344;-5.777176;1.035591;8.39567e-13;0;0;8.39567e-13;0;-2.220446e-16;-3.941324e-17;0;0;0;0;6.788372e-18;-2.28833e-16;1.178107e-16;45;0;1.570809e-16;1.548677e-16;0;-7.872333e-17;-1.031511e-19;-2.220446e-16;7.862018e-17;1.035591;-2.220446e-16;2.220446e-16;0
0.703509;-5.777176;1.044111;8.39567e-13;0;0;8.39567e-13;0;2.220446e-16;3.36047e-17;0;0;0;0;2.27019e-16;-4.974367e-18;1.159967e-16;45;0;1.546622e-16;1.530311e-16;0;7.412543e-17;-6.916038e-18;2.220446e-16;-8.104147e-17;1.044111;2.220446e-16;-2.220446e-16;0
0.770674;-5.777176;1.044196;8.39567e-13;0;0;8.39567e-13;-2.220446e-16;2.220446e-16;-3.985795e-17;0;0;0;0;2.255936e-16;-2.255936e-16;2.255936e-16;45;0;3.007914e-16;2.60493e-16;-2.220446e-16;-2.621719e-17;-5.349872e-17;2.220446e-16;-2.728153e-17;1.044196;0;0;0
0.83784;-5.777176;1.023518;8.39567e-13;0;0;8.39567e-13;-2.220446e-16;2.220446e-16;5.544231e-17;0;0;0;0;2.288617e-16;-2.288617e-16;2.288617e-16;45;0;3.051489e-16;2.642667e-16;-2.220446e-16;1.164122e-16;-5.527591e-18;2.220446e-16;-1.219398e-16;1.023518;0;0;0
0.905005;-5.777176;1.004;8.39567e-13;0;0;8.39567e-13;0;0;-1.321886e-18;0;0;0;0;1.321886e-18;-1.321886e-18;1.321886e-18;45;0;1.762515e-18;1.526383e-18;0;7.366373e-18;-1.001015e-17;0;-1.737652e-17;1.004;0;0;0
0.97217;-5.777176;1.013349;8.39567e-13;0;0;8.39567e-13;2.220446e-16;2.220446e-16;-3.267209e-17;0;0;0;0;2.547167e-16;1.893725e-16;3.267209e-17;45;0;4.356278e-17;1.527615e-16;2.220446e-16;-8.787093e-17;2.252676e-17;2.220446e-16;1.103977e-16;1.013349;4.440892e-16;-4.440892e-16;0
1.039336;-5.777176;0.960051;8.39567e-13;0;0;8.39567e-13;0;-1.110223e-16;1.888005e-17;0;0;0;0;3.122835e-18;-1.141451e-16;5.863399e-17;45;0;7.817865e-17;7.715877e-17;0;3.776011e-17;0;-1.110223e-16;-3.776011e-17;0.960051;-1.110223e-16;1.110223e-16;0
1.106501;-5.777176;0.922072;8.39567e-13;0;0;8.39567e-13;2.220446e-16;2.220446e-16;1.357679e-17;0;0;0;0;2.356214e-16;2.084678e-16;1.357679e-17;45;0;1.810239e-17;1.488576e-16;2.220446e-16;4.870501e-17;-2.155142e-17;2.220446e-16;-7.025643e-17;0.922072;4.440892e-16;-4.440892e-16;0
1.173667;-5.777176;0.907529;8.39567e-13;0;0;8.39567e-13;0;-1.110223e-16;-1.075571e-16;0;0;0;0;6.552612e-17;-1.765484e-16;1.210373e-16;45;0;1.61383e-16;1.445784e-16;0;-2.432311e-16;2.811688e-17;-1.110223e-16;2.71348e-16;0.907529;-1.110223e-16;1.110223e-16;0
1.240832;-5.777176;0.893703;8.39567e-13;0;0;8.39567e-13;0;2.220446e-16;1.22756e-17;0;0;0;0;2.227212e-16;-6.76587e-19;1.116989e-16;45;0;1.489319e-16;1.487068e-16;0;4.494135e-17;-2.039016e-17;2.220446e-16;-6.533152e-17;0.893703;2.220446e-16;-2.220446e-16;0
1.307997;-5.777176;0.839775;8.39567e-13;0;0;8.39567e-13;2.220446e-16;-1.110223e-16;4.990302e-17;0;0;0;0;2.293608e-16;-1.183385e-16;1.738497e-16;45;0;2.317995e-16;2.04127e-16;2.220446e-16;9.149084e-17;8.315197e-18;-1.110223e-16;-8.317564e-17;0.839775;1.110223e-16;-1.110223e-16;0
1.375163;-5.777176;0.761942;8.39567e-13;0;0;8.39567e-13;0;2.220446e-16;-2.720665e-17;0;0;0;0;2.253296e-16;-3.284974e-18;1.143073e-16;45;0;1.524097e-16;1.513266e-16;0;-3.066377e-17;-2.374953e-17;2.220446e-16;6.914246e-18;0.761942;2.220446e-16;-2.220446e-16;0
1.442328;-5.777176;0.696967;8.39567e-13;0;0;8.39567e-13;2.220446e-16;-4.440892e-16;-3.790034e-17;0;0;0;0;2.241941e-16;-4.462387e-16;3.352164e-16;45;0;4.469551e-16;3.940874e-16;2.220446e-16;-8.395113e-17;8.150442e-18;-4.440892e-16;9.210157e-17;0.696967;-2.220446e-16;2.220446e-16;0
1.509493;-5.777176;0.625752;8.39567e-13;0;0;8.39567e-13;6.661338e-16;-2.220446e-16;3.532789e-17;0;0;0;0;6.675368e-16;-2.234476e-16;4.454922e-16;45;0;5.939896e-16;5.352854e-16;6.661338e-16;-4.768243e-17;1.183382e-16;-2.220446e-16;1.660206e-16;0.625752;4.440892e-16;-4.440892e-16;0
