x [mm];y [mm];z [mm];X-displacement [mm];Y-displacement [mm];Z-displacement [mm];Displacement [mm];Exx [S];Eyy [S];Exy [S];Poisson's ratio -strain min/max;Poisson's ratio -Exx/Eyy;Poisson's ratio -Eyy/Exx;Poisson's ratio -strain max/min;Maximum principal strain [S];Minimum principal strain [S];Maximum shear strain [S];Maximum shear angle [°];Maximum strain angle [°];Tresca strain [S];Von Mises strain [S];du/dx [S];du/dy [S];dv/dx [S];dv/dy [S];Vorticity-z [S];Height [mm];du/dx+dv/dy [S];Div-xy [S];Stereo reconstruction error [pixel]
-0.303971;3.625975;0.536004;-0.771192;0.079523;-0.050573;0.776929;-0.003157;0.005207;0.011182;0.841835;0.606238;1.649517;1.187881;0.012964;-0.010914;0.011939;142.858749;97.858749;0.015919;0.013803;-0.003157;0.023423;-0.001058;0.005207;-0.02448;0.485431;0.00205;-0.00205;0.050815
-0.236806;3.625975;0.623868;-0.771085;0.079371;-0.051022;0.776837;-0.002684;0.003872;0.005531;0.830785;0.693074;1.442847;1.20368;0.007024;-0.005835;0.006429;147.77269;102.77269;0.008573;0.007435;-0.002684;0.012178;-0.001116;0.003872;-0.013295;0.572846;0.001189;-0.001189;0.070593
-0.169641;3.625975;0.685006;-0.771179;0.079395;-0.052753;0.777048;0.00213;5.415988e-04;-0.008684;0.734339;-3.932483;-0.254292;1.361769;0.010056;-0.007384;0.00872;142.831833;97.831833;0.011627;0.010108;0.00213;-0.015934;-0.001434;5.415988e-04;0.0145;0.632253;0.002671;-0.002671;0.103162
-0.102475;3.625975;0.755452;-0.771283;0.079333;-0.051777;0.777079;0.007204;-0.002722;-0.011155;0.689838;2.646663;0.377834;1.449616;0.014451;-0.009969;0.01221;154.652435;109.652435;0.01628;0.014177;0.007204;-0.019335;-0.002976;-0.002722;0.01636;0.703674;0.004482;-0.004482;0.083263
-0.03531;3.625975;0.794271;-0.771342;0.078965;-0.049977;0.776983;0.00101;-0.001602;-0.00613;1.099028;0.630772;1.585359;0.909895;0.005972;-0.006563;0.006268;138.917847;93.917847;0.008357;0.00724;0.00101;-0.010165;-0.002095;-0.001602;0.00807;0.744293;-5.913978e-04;5.913978e-04;0.065043
0.031855;3.625975;0.821382;-0.771233;0.078843;-0.051469;0.77696;-0.003524;-5.546098e-05;-0.009301;1.466665;-63.548073;-0.015736;0.681819;0.007671;-0.011251;0.009461;124.141388;79.141388;0.012615;0.01099;-0.003524;-0.018379;-2.223854e-04;-5.546098e-05;0.018157;0.769913;-0.00358;0.00358;0.056821
0.099021;3.625975;0.866677;-0.771261;0.07879;-0.052255;0.777034;-0.010426;0.003906;-0.017485;1.41692;2.668931;0.374682;0.705756;0.015637;-0.022157;0.018897;118.926819;73.926819;0.025196;0.021928;-0.010426;-0.036238;0.001267;0.003906;0.037506;0.814422;-0.006519;0.006519;0.069085
0.166186;3.625975;0.897819;-0.771379;0.078754;-0.05628;0.777428;-0.007664;0.031654;-0.006852;0.268892;0.242101;4.1305;3.71897;0.032814;-0.008824;0.020819;120.133034;75.133034;0.027759;0.025335;-0.007664;-0.020627;0.006923;0.031654;0.02755;0.841538;0.023991;-0.023991;0.104936
0.233352;3.625975;0.882743;-0.771347;0.078487;-0.058464;0.777531;0.006263;0.054264;0.016506;-0.019117;-0.115422;-8.663887;-52.309006;0.059392;0.001135;0.029128;131.660599;86.660606;0.038838;0.039222;0.006263;0.032488;5.234853e-04;0.054264;-0.031964;0.824279;0.060527;-0.060527;0.084128
0.367682;3.625975;0.837387;-0.770826;0.078574;-0.050482;0.776463;0.004558;-0.0417;0.01214;5.919161;0.109311;9.148248;0.168943;0.00755;-0.044692;0.026121;125.812347;80.812347;0.034829;0.032605;0.004558;0.031416;-0.007137;-0.0417;-0.038553;0.786904;-0.037142;0.037142;0.072213
0.434848;3.625975;0.877463;-0.771137;0.078344;-0.049344;0.776675;0.00323;-0.038555;0.002401;11.488972;0.083783;11.935551;0.08704;0.003368;-0.038692;0.02103;132.560684;87.560677;0.02804;0.026988;0.00323;0.005974;-0.001171;-0.038555;-0.007145;0.828119;-0.035324;0.035324;0.078843
0.502013;3.625975;0.944868;-0.771645;0.078104;-0.049738;0.777181;-0.014288;-0.019049;0.013329;-9.655081;-0.750088;-1.333176;-0.103572;-0.003129;-0.030209;0.01354;153.284286;108.284279;0.018053;0.019181;-0.014288;0.02904;-0.002382;-0.019049;-0.031422;0.89513;-0.033337;0.033337;0.05719
0.569178;3.625975;0.998377;-0.771459;0.078195;-0.05419;0.777303;-0.01083;-0.004538;0.012341;4.042542;-2.38646;-0.419031;0.247369;0.005051;-0.02042;0.012736;162.922729;117.922737;0.016981;0.015572;-0.01083;0.021013;0.003669;-0.004538;-0.017344;0.944187;-0.015369;0.015369;0.039846
0.636344;3.625975;0.994897;-0.771499;0.078176;-0.058639;0.777664;-0.007639;0.003637;-4.028036e-05;2.099983;2.100026;0.476185;0.476194;0.003638;-0.007639;0.005638;22.377604;157.377609;0.007518;0.006646;-0.007639;0.002007;-0.002087;0.003637;-0.004094;0.936258;-0.004001;0.004001;0.051896
0.703509;3.625975;0.978945;-0.771701;0.077836;-0.049353;0.777185;-0.024121;-1.936339e-04;0.002447;451.210541;-124.572433;-0.008027;0.002216;5.400825e-05;-0.024369;0.012212;22.830732;157.830734;0.016282;0.016264;-0.024121;0.010276;-0.005382;-1.936339e-04;-0.015658;0.929592;-0.024315;0.024315;0.069896
0.770674;3.625975;0.957917;-0.771994;0.077292;-0.0473;0.777294;0.004596;-0.003238;0.00377;0.778037;1.419169;0.704638;1.285286;0.006115;-0.004758;0.005437;109.578651;64.578651;0.007249;0.006294;0.004596;0.011939;-0.004399;-0.003238;-0.016338;0.910617;0.001357;-0.001357;0.08519
0.83784;3.625975;0.962278;-0.77179;0.077165;-0.055641;0.777632;0.019215;-0.001615;0.005598;0.146611;11.900154;0.084033;6.820775;0.020624;-0.003024;0.011824;73.865646;28.865644;0.015765;0.01486;0.019215;0.010572;6.24099e-04;-0.001615;-0.009948;0.906636;0.017601;-0.017601;0.072804
0.905005;3.625975;0.934332;-0.771706;0.077504;-0.056352;0.777633;-0.014314;8.906801e-04;-0.006066;5.453392;16.071407;0.062222;0.183372;0.003014;-0.016438;0.009726;87.646935;42.646935;0.012968;0.012089;-0.014314;-0.01319;0.001058;8.906801e-04;0.014248;0.87798;-0.013424;0.013424;0.064371
0.97217;3.625975;0.904266;-0.771982;0.077701;-0.046521;0.777276;-0.027128;-0.005407;-0.019357;6.488626;-5.016785;-0.199331;0.154116;0.005928;-0.038463;0.022195;97.696373;52.696377;0.029594;0.027829;-0.027128;-0.035448;-0.003266;-0.005407;0.032182;0.857745;-0.032535;0.032535;0.053
1.039336;3.625975;0.893702;-0.772055;0.07725;-0.03836;0.776858;-0.00315;-0.007374;-0.02657;1.491911;-0.427129;-2.341214;0.670281;0.021393;-0.031916;0.026654;131.904648;86.90464;0.035539;0.030977;-0.00315;-0.054322;0.001181;-0.007374;0.055503;0.855342;-0.010523;0.010523;0.073688
1.106501;3.625975;0.867986;-0.772378;0.077446;-0.043459;0.777467;0.033473;0.00868;-0.051145;0.42806;-3.856493;-0.259303;2.336121;0.073702;-0.031549;0.052626;151.593475;106.593468;0.070167;0.06237;0.033473;-0.110459;0.00817;0.00868;0.11863;0.824527;0.042153;-0.042153;0.081954
1.173667;3.625975;0.84038;-0.772395;0.07757;-0.05084;0.777943;0.01247;0.018454;-0.04921;0.522505;-0.67572;-1.479902;1.913859;0.064763;-0.033839;0.049301;142.14621;97.146202;0.065734;0.057853;0.01247;-0.097449;-9.703322e-04;0.018454;0.096479;0.789541;0.030924;-0.030924;0.053287
1.240832;3.625975;0.784835;-0.77216;0.077272;-0.050784;0.777677;0.005629;0.009681;-0.034434;0.636769;-0.581394;-1.720005;1.570427;0.042149;-0.026839;0.034494;140.004044;95.004051;0.045992;0.040156;0.005629;-0.066627;-0.002242;0.009681;0.064384;0.734051;0.01531;-0.01531;0.057624
1.307997;3.625975;0.715936;-0.772126;0.077338;-0.053889;0.777858;-0.008953;0.004486;-0.014796;1.318718;1.99595;0.501015;0.758312;0.014017;-0.018484;0.01625;118.8293;73.8293;0.021667;0.018823;-0.008953;-0.030857;0.001265;0.004486;0.032121;0.662046;-0.004467;0.004467;0.044358
1.375163;3.625975;0.657381;-0.772306;0.077775;-0.05096;0.777883;-0.039626;-0.001225;0.007229;450.925781;-32.35178;-0.03091;0.002218;9.079459e-05;-0.040942;0.020516;27.602442;162.602448;0.027355;0.027325;-0.039626;0.012384;0.002074;-0.001225;-0.01031;0.60642;-0.040851;0.040851;0.001206
-0.303971;3.558809;0.523088;-0.771308;0.079348;-0.052452;0.777151;-0.006557;0.006373;0.009941;1.015621;1.028839;0.971969;0.98462;0.011767;-0.01195;0.011858;151.745651;106.745659;0.015811;0.013693;-0.006557;0.021556;-0.001674;0.006373;-0.023231;0.470636;-1.838011e-04;1.838011e-04;0.042298
-0.236806;3.558809;0.604922;-0.77102;0.079233;-0.053286;0.77691;0.007368;0.004832;0.005672;-0.02416;-1.524858;-0.655799;-41.39035;0.011913;2.878165e-04;0.005813;106.684692;61.684689;0.00775;0.007848;0.007368;0.011983;-6.381706e-04;0.004832;-0.012621;0.551636;0.012201;-0.012201;0.059457
-0.169641;3.558809;0.679763;-0.771175;0.079197;-0.050013;0.776842;0.012394;0.002483;-0.003617;-0.096012;-4.991794;-0.200329;-10.415334;0.013574;0.001303;0.006135;15.118141;150.118149;0.00818;0.008647;0.012394;-0.006873;-3.613931e-04;0.002483;0.006511;0.62975;0.014877;-0.014877;0.106308
-0.102475;3.558809;0.728369;-0.771588;0.078991;-0.048568;0.77714;-0.001608;0.002179;-0.003614;0.869409;0.738321;1.354425;1.150207;0.004365;-0.003795;0.00408;126.185097;81.185097;0.00544;0.004715;-0.001608;-0.005228;-0.002001;0.002179;0.003227;0.679802;5.700725e-04;-5.700725e-04;0.097931
-0.03531;3.558809;0.773317;-0.771571;0.078671;-0.049017;0.777119;-0.004887;0.001487;0.003879;2.024064;3.286688;0.304258;0.494056;0.00332;-0.00672;0.00502;162.671051;117.671051;0.006694;0.005907;-0.004887;0.009833;-0.002075;0.001487;-0.011908;0.7243;-0.0034;0.0034;0.052154
0.031855;3.558809;0.816799;-0.771558;0.078643;-0.048543;0.777073;0.001809;5.10857e-04;0.004203;0.571413;-3.540624;-0.282436;1.750049;0.005412;-0.003093;0.004252;122.956017;77.956017;0.00567;0.004971;0.001809;0.008439;-3.403888e-05;5.10857e-04;-0.008473;0.768257;0.00232;-0.00232;0.020452
0.099021;3.558809;0.865825;-0.77165;0.078705;-0.047452;0.777103;0.002044;9.238138e-04;-0.002825;0.319926;-2.212736;-0.451929;3.125721;0.004364;-0.001396;0.00288;161.73024;116.73024;0.00384;0.00347;0.002044;-0.004459;-0.001191;9.238138e-04;0.003268;0.818373;0.002968;-0.002968;0.051871
0.166186;3.558809;0.904634;-0.771668;0.078734;-0.04739;0.777121;-0.002131;-0.003045;-0.008915;1.816528;-0.6998;-1.428979;0.550501;0.006339;-0.011514;0.008926;124.997025;79.997025;0.011902;0.010451;-0.002131;-0.015029;-0.002801;-0.003045;0.012228;0.857245;-0.005176;0.005176;0.086276
0.233352;3.558809;0.927508;-0.771402;0.078802;-0.049457;0.776992;-0.007665;0.011342;-0.00386;0.695993;0.675783;1.479765;1.436796;0.012096;-0.008419;0.010257;106.596207;61.596207;0.013677;0.011908;-0.007665;-0.013243;0.005523;0.011342;0.018767;0.878051;0.003677;-0.003677;0.08787
0.300517;3.558809;0.912317;-0.771202;0.078866;-0.054834;0.777161;-0.001985;0.002777;0.0139;0.945358;0.71476;1.399072;1.0578;0.014498;-0.013706;0.014102;138.819687;93.819679;0.018803;0.016286;-0.001985;0.024795;0.003004;0.002777;-0.021792;0.857483;7.922024e-04;-7.922024e-04;0.091806
0.367682;3.558809;0.968371;-0.77056;0.07872;-0.0591;0.776822;0.004191;-0.023188;0.007451;4.120863;0.180725;5.533267;0.242668;0.006087;-0.025084;0.015586;129.555908;84.555916;0.020781;0.019078;0.004191;0.015267;-3.644034e-04;-0.023188;-0.015631;0.909271;-0.018997;0.018997;0.063431
0.434848;3.558809;1.011847;-0.770901;0.078328;-0.053636;0.776724;0.008338;-0.023965;0.001375;2.861042;0.347938;2.874077;0.349523;0.008397;-0.024024;0.01621;127.49192;82.49192;0.021614;0.019429;0.008338;0.0042;-0.001451;-0.023965;-0.005651;0.958211;-0.015627;0.015627;0.056291
0.502013;3.558809;1.000822;-0.771755;0.077972;-0.053422;0.777521;-0.009541;8.345668e-04;0.002761;6.713636;11.431703;0.087476;0.148951;0.001524;-0.01023;0.005877;6.599248;141.599243;0.007836;0.00738;-0.009541;0.007729;-0.002207;8.345668e-04;-0.009936;0.947401;-0.008706;0.008706;0.051612
0.569178;3.558809;1.004976;-0.771644;0.077894;-0.056684;0.777634;0.004352;0.007747;0.007023;0.088568;-0.561748;-1.780157;11.290697;0.013275;-0.001176;0.007225;126.11602;81.11602;0.009634;0.009267;0.004352;0.016951;-0.002905;0.007747;-0.019856;0.948292;0.012099;-0.012099;0.044434
0.636344;3.558809;0.990801;-0.77159;0.077897;-0.058457;0.777712;-0.008012;0.003231;0.0025;2.2708;2.479512;0.403305;0.440373;0.003762;-0.008542;0.006152;13.788775;148.788773;0.008203;0.00728;-0.008012;0.004398;6.016916e-04;0.003231;-0.003796;0.932344;-0.004781;0.004781;0.046355
0.703509;3.558809;0.975628;-0.771732;0.077774;-0.048389;0.777148;-0.020985;0.00519;0.004699;3.628769;4.043116;0.247334;0.275576;0.006008;-0.021803;0.013906;14.419026;149.419022;0.018541;0.016898;-0.020985;0.011664;-0.002266;0.00519;-0.01393;0.927239;-0.015795;0.015795;0.046998
0.770674;3.558809;0.955723;-0.77222;0.07749;-0.041375;0.7772;8.315461e-04;-0.00156;-0.002253;1.333165;0.533077;1.875902;0.750095;0.002186;-0.002915;0.00255;69.503189;24.503187;0.0034;0.002955;8.315461e-04;-0.001306;-0.003199;-0.00156;-0.001893;0.914347;-7.28353e-04;7.28353e-04;0.0473
0.83784;3.558809;0.957617;-0.772079;0.0774;-0.052048;0.777692;0.021568;-0.003775;-9.90496e-04;0.176489;5.713859;0.175013;5.666078;0.021607;-0.003813;0.01271;46.198578;1.19858;0.016947;0.01583;0.021568;8.08895e-05;-0.002062;-0.003775;-0.002143;0.905569;0.017794;-0.017794;0.042952
0.905005;3.558809;0.941267;-0.77174;0.077218;-0.05908;0.77784;-0.002073;-1.271882e-04;0.002443;2.439068;-16.301479;-0.061344;0.409993;0.001529;-0.00373;0.002629;156.007416;111.007416;0.003506;0.003124;-0.002073;0.005418;-5.325609e-04;-1.271882e-04;-0.005951;0.882187;-0.002201;0.002201;0.064231
0.97217;3.558809;0.915832;-0.772088;0.077243;-0.055624;0.777934;-0.01349;-8.059189e-04;-0.006282;9.037215;-16.738066;-0.059744;0.110654;0.001779;-0.016074;0.008926;78.412811;33.412807;0.011902;0.011355;-0.01349;-0.009184;-0.00338;-8.059189e-04;0.005804;0.860208;-0.014295;0.014295;0.068187
1.039336;3.558809;0.905874;-0.772103;0.076917;-0.051773;0.77765;0.008973;-0.009443;-0.010671;1.033883;0.950267;1.052336;0.967227;0.01386;-0.014329;0.014095;154.674118;109.674118;0.018793;0.016276;0.008973;-0.019996;-0.001346;-0.009443;0.01865;0.854101;-4.696165e-04;4.696165e-04;0.087867
1.106501;3.558809;0.874602;-0.77229;0.077453;-0.061236;0.778576;0.031006;0.001743;-0.025338;0.282352;-17.789494;-0.056213;3.541676;0.045633;-0.012885;0.029259;164.131912;119.131912;0.039012;0.035505;0.031006;-0.0558;0.005124;0.001743;0.060924;0.813366;0.032748;-0.032748;0.114489
1.173667;3.558809;0.830555;-0.772274;0.077845;-0.06204;0.778663;-0.00989;0.008929;-0.017328;1.049946;1.107608;0.902847;0.95243;0.019237;-0.020198;0.019718;119.980316;74.980316;0.02629;0.02277;-0.00989;-0.035236;5.803682e-04;0.008929;0.035816;0.768515;-9.608165e-04;9.608165e-04;0.074394
1.240832;3.558809;0.771003;-0.772434;0.077478;-0.056593;0.77837;-0.00652;0.005092;-0.007242;1.166764;1.280605;0.780881;0.857072;0.008567;-0.009996;0.009282;112.177567;67.177567;0.012376;0.010728;-0.00652;-0.013124;-0.001359;0.005092;0.011765;0.714409;-0.001429;0.001429;0.088475
1.307997;3.558809;0.705415;-0.772604;0.07752;-0.059194;0.778736;-0.029329;0.00409;0.008528;5.110504;7.171211;0.139446;0.195675;0.00614;-0.03138;0.01876;17.746918;152.746918;0.025013;0.023239;-0.029329;0.015089;0.001967;0.00409;-0.013121;0.64622;-0.02524;0.02524;0.075657
1.375163;3.558809;0.641213;-0.772095;0.077833;-0.047578;0.777465;-0.045761;0.003108;0.017265;5.964421;14.725443;0.06791;0.167661;0.008592;-0.051245;0.029918;11.235061;146.235062;0.039891;0.037358;-0.045761;0.030739;0.003791;0.003108;-0.026949;0.593636;-0.042653;0.042653;0.013645
-0.371137;3.491644;0.397403;-0.771225;0.079383;-0.051959;0.777038;-0.008173;0.00351;0.023325;1.214767;2.328792;0.429407;0.823203;0.021714;-0.026377;0.024046;144.533173;99.53318;0.032061;0.027809;-0.008173;0.049938;-0.003288;0.00351;-0.053226;0.345444;-0.004663;0.004663;0.078271
-0.303971;3.491644;0.508382;-0.77125;0.078964;-0.054631;0.777204;-0.004463;0.005334;0.009511;0.921805;0.836771;1.195071;1.084828;0.011134;-0.010263;0.010699;147.539124;102.539131;0.014265;0.012357;-0.004463;0.020997;-0.001974;0.005334;-0.022971;0.45375;8.706272e-04;-8.706272e-04;0.047612
-0.236806;3.491644;0.590713;-0.771158;0.078939;-0.054422;0.777095;0.010819;0.006344;0.010171;0.096464;-1.705356;-0.586388;10.366608;0.018996;-0.001832;0.010414;109.33963;64.33963;0.013885;0.013317;0.010819;0.020801;-4.591879e-04;0.006344;-0.02126;0.536291;0.017163;-0.017163;0.036378
-0.169641;3.491644;0.670561;-0.771247;0.07886;-0.049914;0.776873;0.019984;0.006376;0.011721;0.013955;-3.134447;-0.319036;71.657021;0.026733;-3.730685e-04;0.013553;95.948341;50.948341;0.018071;0.017948;0.019984;0.023602;-1.595565e-04;0.006376;-0.023761;0.620646;0.02636;-0.02636;0.066458
-0.102475;3.491644;0.733758;-0.771446;0.078997;-0.048973;0.777025;-0.0086;0.003369;0.009152;1.628786;2.552808;0.391726;0.613954;0.008319;-0.013551;0.010935;159.037643;114.037643;0.01458;0.012746;-0.0086;0.018985;-6.811314e-04;0.003369;-0.019666;0.684785;-0.005231;0.005231;0.069939
-0.03531;3.491644;0.796774;-0.771529;0.078771;-0.054073;0.777422;-0.014169;1.590791e-05;0.011889;3.091332;890.662659;0.001123;0.323485;0.006767;-0.02092;0.013844;164.630936;119.630943;0.018458;0.016667;-0.014169;0.024952;-0.001175;1.590791e-05;-0.026127;0.7427;-0.014153;0.014153;0.057188
0.031855;3.491644;0.845811;-0.771642;0.078702;-0.053175;0.777466;0.007791;4.970268e-04;0.011056;0.47498;-15.674423;-0.063798;2.105353;0.015785;-0.007498;0.011642;116.656906;71.656906;0.015522;0.013723;0.007791;0.02349;-0.001379;4.970268e-04;-0.024869;0.792636;0.008288;-0.008288;0.048985
0.099021;3.491644;0.861346;-0.771886;0.078599;-0.050947;0.777549;0.013497;0.005172;0.003735;-0.250676;-2.609824;-0.383168;-3.989208;0.014927;0.003742;0.005593;80.500473;35.500473;0.007457;0.008968;0.013497;0.008931;-0.001461;0.005172;-0.010392;0.810399;0.018669;-0.018669;0.064456
0.166186;3.491644;0.865506;-0.772051;0.07854;-0.046122;0.777405;0.008175;-7.127741e-04;-0.004244;0.2444;11.469099;0.087191;4.091659;0.009876;-0.002414;0.006145;177.83255;132.83255;0.008193;0.007519;0.008175;-0.008795;3.072665e-04;-7.127741e-04;0.009102;0.819384;0.007462;-0.007462;0.068
0.233352;3.491644;0.906065;-0.771755;0.078659;-0.047392;0.7772;-0.020661;0.005226;-0.013689;2.387718;3.953379;0.252948;0.41881;0.011122;-0.026557;0.018839;94.294319;49.294315;0.025119;0.022354;-0.020661;-0.023561;-0.003817;0.005226;0.019744;0.858673;-0.015434;0.015434;0.053718
0.300517;3.491644;0.964604;-0.771421;0.078247;-0.054574;0.777298;-0.014215;0.02182;-0.011676;0.699064;0.651447;1.535046;1.430484;0.025273;-0.017667;0.02147;123.855354;78.855354;0.028626;0.024921;-0.014215;-0.017155;-0.006198;0.02182;0.010957;0.91003;0.007605;-0.007605;0.059872
0.367682;3.491644;0.964588;-0.771263;0.078023;-0.05685;0.777281;-7.214721e-04;0.01086;-0.011783;0.442904;0.066436;15.052123;2.257827;0.018198;-0.00806;0.013129;129.646362;84.646362;0.017506;0.015532;-7.214721e-04;-0.030107;0.006541;0.01086;0.036648;0.907738;0.010138;-0.010138;0.062271
0.434848;3.491644;0.968053;-0.771516;0.078187;-0.054144;0.777355;-0.001986;1.452807e-05;-0.006412;1.358162;136.684784;0.007316;0.736289;0.005504;-0.007475;0.006489;123.165176;78.165176;0.008653;0.007522;-0.001986;-0.010141;-0.002682;1.452807e-05;0.007459;0.913909;-0.001971;0.001971;0.052692
0.502013;3.491644;1.018111;-0.77225;0.077942;-0.049866;0.777774;-0.005385;0.005606;-7.742512e-04;0.960896;0.960517;1.041106;1.040696;0.00566;-0.005439;0.00555;100.032471;55.032467;0.0074;0.006409;-0.005385;-0.001293;-2.555903e-04;0.005606;0.001037;0.968245;2.213497e-04;-2.213497e-04;0.068785
0.569178;3.491644;1.018117;-0.772125;0.077588;-0.04901;0.777559;0.01584;0.006226;-0.006848;-0.137431;-2.544007;-0.393081;-7.276378;0.0194;0.002666;0.008367;5.229444;140.229446;0.011156;0.012142;0.01584;-0.011901;-0.001796;0.006226;0.010105;0.969107;0.022066;-0.022066;0.07848
0.636344;3.491644;0.97341;-0.771894;0.077684;-0.057266;0.777904;-0.001705;0.004119;2.098204e-04;0.41512;0.414048;2.415181;2.408944;0.004126;-0.001713;0.00292;172.322113;127.322105;0.003893;0.003466;-0.001705;0.006285;-0.005865;0.004119;-0.01215;0.916144;0.002413;-0.002413;0.074678
0.703509;3.491644;0.949463;-0.772019;0.077695;-0.056247;0.777955;-0.008645;0.002168;0.011131;1.708964;3.987442;0.250787;0.58515;0.009136;-0.015613;0.012374;153.890015;108.890015;0.016499;0.014451;-0.008645;0.026535;-0.004273;0.002168;-0.030808;0.893216;-0.006477;0.006477;0.068592
0.770674;3.491644;0.961554;-0.772033;0.077674;-0.048407;0.777439;2.188317e-04;0.002039;-7.934891e-04;0.033574;-0.107299;-9.319746;29.784752;0.002337;-7.845429e-05;0.001208;119.976952;74.976952;0.00161;0.001585;2.188317e-04;-0.004096;0.002509;0.002039;0.006605;0.913147;0.002258;-0.002258;0.028372
0.83784;3.491644;0.945228;-0.771868;0.077662;-0.052372;0.777531;0.016318;2.863577e-04;-0.004615;0.053957;-56.986141;-0.017548;18.533422;0.017552;-9.470357e-04;0.009249;16.193769;151.193771;0.012333;0.012029;0.016318;-0.008971;-2.587062e-04;2.863577e-04;0.008712;0.892857;0.016605;-0.016605;0.00793
0.905005;3.491644;0.926259;-0.771968;0.077454;-0.052725;0.777633;-0.002023;2.689409e-04;-1.732132e-04;7.220654;7.521744;0.132948;0.138492;2.819581e-04;-0.002036;0.001159;13.299181;148.299179;0.001545;0.00146;-0.002023;0.002525;-0.002872;2.689409e-04;-0.005397;0.873534;-0.001754;0.001754;0.012225
0.97217;3.491644;0.919745;-0.772429;0.077255;-0.052269;0.778041;-0.003962;0.001318;-0.003327;1.903746;3.005538;0.332719;0.52528;0.002925;-0.005569;0.004247;83.504677;38.504677;0.005663;0.004983;-0.003962;-0.003956;-0.002698;0.001318;0.001258;0.867476;-0.002644;0.002644;0.055851
1.039336;3.491644;0.9312;-0.772311;0.076726;-0.051831;0.777842;0.01235;0.004505;0.005691;-0.098792;-2.741243;-0.364798;-10.122232;0.01534;0.001515;0.006912;93.101784;48.101788;0.009216;0.009761;0.01235;0.01296;-0.001577;0.004505;-0.014537;0.879368;0.016855;-0.016855;0.074361
1.106501;3.491644;0.885514;-0.772119;0.076586;-0.060273;0.778246;0.01515;0.004833;0.024143;0.423802;-3.134758;-0.319004;2.359593;0.03468;-0.014697;0.024688;115.936531;70.936531;0.032918;0.029276;0.01515;0.044568;0.003719;0.004833;-0.040849;0.825242;0.019982;-0.019982;0.055347
1.173667;3.491644;0.816886;-0.772085;0.077022;-0.056479;0.77797;-0.014012;0.004477;0.024059;1.453948;3.130092;0.319479;0.687783;0.021006;-0.030542;0.025774;151.627655;106.627647;0.034365;0.02993;-0.014012;0.046043;0.002075;0.004477;-0.043969;0.760407;-0.009536;0.009536;0.035584
1.240832;3.491644;0.768343;-0.772523;0.07687;-0.054331;0.778236;-0.01461;0.004503;0.016045;1.741909;3.244098;0.308252;0.574083;0.013622;-0.023728;0.018675;157.828476;112.828468;0.0249;0.021826;-0.01461;0.035065;-0.002976;0.004503;-0.038041;0.714012;-0.010106;0.010106;0.098974
1.307997;3.491644;0.714153;-0.772787;0.076706;-0.052436;0.778353;-0.040861;0.005085;0.018991;4.001907;8.035938;0.124441;0.249881;0.011918;-0.047695;0.029806;2.735959;137.735962;0.039742;0.036425;-0.040861;0.036847;0.001134;0.005085;-0.035713;0.661716;-0.035777;0.035777;0.074989
1.375163;3.491644;0.614209;-0.772265;0.077019;-0.040086;0.777131;-0.023529;0.010609;0.004859;2.144591;2.217763;0.450905;0.466289;0.011288;-0.024207;0.017748;31.04303;166.04303;0.023663;0.020941;-0.023529;0.006235;0.003484;0.010609;-0.002752;0.574123;-0.01292;0.01292;0.018996
1.442328;3.491644;0.510513;-0.771405;0.077555;-0.044695;0.776581;0.014203;0.01402;-0.010673;-0.138703;-1.013063;-0.987105;-7.209663;0.024786;0.003438;0.010674;157.819748;112.819756;0.014232;0.015505;0.014203;-0.024712;0.003366;0.01402;0.028078;0.465818;0.028223;-0.028223;0.012559
-0.371137;3.424478;0.406043;-0.771071;0.079431;-0.059691;0.777446;0.028942;-2.062157e-04;0.01179;0.132217;140.346619;0.007125;7.56334;0.033114;-0.004378;0.018746;88.522263;43.522259;0.024995;0.023671;0.028942;0.027788;-0.004207;-2.062157e-04;-0.031995;0.346352;0.028735;-0.028735;0.051234
-0.303971;3.424478;0.499233;-0.770915;0.078831;-0.05405;0.776818;0.004837;-2.10545e-04;-0.001235;0.096926;22.972855;0.04353;10.317189;0.005123;-4.965312e-04;0.00281;43.671238;178.671234;0.003746;0.003592;0.004837;-2.331576e-04;-0.002237;-2.10545e-04;-0.002004;0.445182;0.004626;-0.004626;0.082711
-0.236806;3.424478;0.573123;-0.771081;0.078799;-0.057616;0.777235;-0.00103;3.304732e-04;0.001832;1.436329;3.117814;0.320738;0.696219;0.001604;-0.002304;0.001954;147.926437;102.926445;0.002605;0.002268;-0.00103;0.005483;-0.00182;3.304732e-04;-0.007303;0.515507;-6.998809e-04;6.998809e-04;0.051732
-0.169641;3.424478;0.6509;-0.77146;0.078467;-0.054726;0.777369;0.018289;0.00408;0.010099;0.049413;-4.482751;-0.223077;20.237616;0.023532;-0.001163;0.012347;94.309219;49.309219;0.016463;0.01609;0.018289;0.020804;-6.068614e-04;0.00408;-0.021411;0.596174;0.022369;-0.022369;0.051619
-0.102475;3.424478;0.725512;-0.771347;0.078747;-0.051364;0.777056;-0.005768;0.007212;0.01084;0.891927;0.799847;1.250239;1.121168;0.013356;-0.011913;0.012634;148.440659;103.440651;0.016846;0.014597;-0.005768;0.021091;5.895948e-04;0.007212;-0.020501;0.674148;0.001443;-0.001443;0.025685
-0.03531;3.424478;0.785058;-0.771417;0.078549;-0.054969;0.777352;-0.020636;0.009764;0.007983;1.926546;2.113354;0.473181;0.519064;0.011733;-0.022604;0.017169;0.584078;135.584076;0.022892;0.020153;-0.020636;0.017839;-0.001874;0.009764;-0.019713;0.730088;-0.010871;0.010871;0.020441
0.031855;3.424478;0.83284;-0.771592;0.078339;-0.056446;0.77761;0.009771;0.01069;0.011815;0.072244;-0.913977;-1.09412;13.84192;0.022054;-0.001593;0.011824;116.91787;71.91787;0.015765;0.015262;0.009771;0.024726;-0.001096;0.01069;-0.025822;0.776394;0.020461;-0.020461;0.04848
0.099021;3.424478;0.858084;-0.771526;0.078201;-0.050369;0.777113;0.022275;0.006698;0.007472;-0.146109;-3.3256;-0.300698;-6.844193;0.025279;0.003694;0.010793;83.301155;38.301155;0.014391;0.015767;0.022275;0.016804;-0.001861;0.006698;-0.018665;0.807715;0.028973;-0.028973;0.047664
0.166186;3.424478;0.853771;-0.771794;0.07789;-0.041138;0.776804;0.014051;0.002688;0.004617;-0.066831;-5.227225;-0.191306;-14.963041;0.01569;0.001049;0.007321;81.691063;36.691063;0.009761;0.010129;0.014051;0.010322;-0.001089;0.002688;-0.011411;0.812633;0.016739;-0.016739;0.053324
0.233352;3.424478;0.915335;-0.771819;0.07789;-0.043013;0.776931;-0.011736;0.004639;2.308528e-04;2.528838;2.529911;0.395271;0.395438;0.004642;-0.011739;0.008191;32.805756;167.805756;0.010921;0.009749;-0.011736;0.001721;-0.001259;0.004639;-0.002979;0.872323;-0.007097;0.007097;0.066824
0.300517;3.424478;0.953739;-0.771611;0.077763;-0.04524;0.776838;0.004892;0.005551;-0.009136;0.272941;-0.881224;-1.134786;3.663798;0.014363;-0.00392;0.009142;162.498947;117.498947;0.012189;0.011115;0.004892;-0.012519;-0.005753;0.005551;0.006765;0.908499;0.010443;-0.010443;0.056765
0.367682;3.424478;0.954062;-0.771619;0.077371;-0.039019;0.77647;-0.003052;-0.004257;-0.005212;5.590427;-0.717019;-1.394664;0.178877;0.001592;-0.008902;0.005247;88.941292;43.941296;0.006996;0.00653;-0.003052;-0.004653;-0.005772;-0.004257;-0.00112;0.915042;-0.00731;0.00731;0.066414
0.434848;3.424478;0.984499;-0.771755;0.077499;-0.04851;0.777152;-0.02126;0.001229;-0.009629;5.182824;17.294901;0.057821;0.192945;0.004789;-0.024819;0.014804;79.750389;34.750385;0.019739;0.018352;-0.02126;-0.015164;-0.004094;0.001229;0.011069;0.935988;-0.020031;0.020031;0.04549
0.502013;3.424478;0.990408;-0.771791;0.077364;-0.055207;0.777621;-0.003784;0.014656;-0.007121;0.363681;0.258174;3.873349;2.749665;0.017086;-0.006214;0.01165;158.103226;113.103218;0.015533;0.013932;-0.003784;-0.006307;-0.007936;0.014656;-0.001629;0.935201;0.010872;-0.010872;0.021985
0.569178;3.424478;0.974094;-0.771605;0.077253;-0.058112;0.777637;0.005938;0.011918;-0.007883;-0.028626;-0.498252;-2.007017;-34.933769;0.01736;4.969266e-04;0.008431;149.443451;104.443443;0.011242;0.011411;0.005938;-0.015466;-3.002441e-04;0.011918;0.015166;0.915982;0.017856;-0.017856;0.028275
0.636344;3.424478;0.950133;-0.771646;0.077364;-0.058086;0.777687;-0.015981;0.001693;0.005052;5.707836;9.439208;0.105941;0.175198;0.003035;-0.017323;0.010179;11.923575;146.923569;0.013572;0.012682;-0.015981;0.010318;-2.154476e-04;0.001693;-0.010534;0.892046;-0.014288;0.014288;0.029512
0.703509;3.424478;0.936301;-0.771944;0.077104;-0.046194;0.77716;-0.009047;0.007745;0.001798;1.164169;1.168206;0.856013;0.858981;0.007935;-0.009238;0.008586;177.564545;132.564545;0.011448;0.009924;-0.009047;0.006941;-0.003344;0.007745;-0.010285;0.890107;-0.001303;0.001303;0.043692
0.770674;3.424478;0.946246;-0.771911;0.077261;-0.04154;0.776879;0.005245;-9.890887e-07;4.756665e-04;0.008277;0;0;120.81636;0.005288;-4.376859e-05;0.002666;52.36166;7.361659;0.003554;0.00354;0.005245;6.79501e-04;2.71832e-04;-9.890887e-07;-4.07669e-04;0.904705;0.005244;-0.005244;0.030844
0.83784;3.424478;0.942061;-0.771827;0.077485;-0.054374;0.77761;0.010398;0.006679;-0.006605;-0.108903;-1.556723;-0.642375;-9.182442;0.0154;0.001677;0.006861;172.756973;127.756973;0.009148;0.009756;0.010398;-0.011576;-0.001633;0.006679;0.009942;0.887687;0.017077;-0.017077;0.041323
0.905005;3.424478;0.944188;-0.77204;0.077229;-0.057247;0.778002;-0.003391;0.004301;-0.001021;0.794652;0.788296;1.268559;1.258412;0.004434;-0.003524;0.003979;129.268951;84.268959;0.005305;0.004605;-0.003391;-0.001246;-7.954481e-04;0.004301;4.505533e-04;0.886941;9.105881e-04;-9.105881e-04;0.057072
0.97217;3.424478;0.951532;-0.772506;0.077079;-0.056131;0.778369;-0.01186;0.007777;-0.002919;1.497789;1.524976;0.655748;0.667651;0.008202;-0.012285;0.010244;62.149109;17.149109;0.013658;0.011906;-0.01186;-0.003572;-0.002266;0.007777;0.001306;0.895402;-0.004083;0.004083;0.064553
1.039336;3.424478;0.926555;-0.772448;0.076893;-0.05074;0.777922;-0.020408;-0.002807;0.006986;-61.620945;-7.271717;-0.137519;-0.016228;-3.707201e-04;-0.022844;0.011237;3.138606;138.138611;0.014982;0.015107;-0.020408;0.018708;-0.004735;-0.002807;-0.023443;0.875815;-0.023215;0.023215;0.002797
1.106501;3.424478;0.862088;-0.772495;0.076706;-0.049121;0.777847;2.14314e-04;-0.018871;0.025221;2.057771;0.011357;88.051941;0.485963;0.017638;-0.036294;0.026966;135.462143;90.462143;0.035954;0.031752;2.14314e-04;0.048723;0.001719;-0.018871;-0.047004;0.812966;-0.018656;0.018656;0.016262
1.173667;3.424478;0.820612;-0.772415;0.076969;-0.050378;0.777873;0.008703;-0.003047;0.022193;0.780672;2.856073;0.350131;1.280948;0.025786;-0.02013;0.022958;123.788124;78.788124;0.030611;0.026576;0.008703;0.043395;9.924705e-04;-0.003047;-0.042402;0.770234;0.005656;-0.005656;0.020622
1.240832;3.424478;0.766029;-0.772566;0.076826;-0.05313;0.778193;-0.006116;0.003472;0.009285;1.289733;1.761685;0.567638;0.775354;0.009127;-0.011772;0.01045;152.408188;107.40818;0.013933;0.012098;-0.006116;0.019319;-7.484033e-04;0.003472;-0.020067;0.712899;-0.002645;0.002645;0.064659
1.307997;3.424478;0.688127;-0.772861;0.076558;-0.048375;0.778148;-0.017334;0.005543;-0.011056;2.17764;3.127175;0.319777;0.459213;0.010013;-0.021804;0.015908;96.6408;51.6408;0.021211;0.018785;-0.017334;-0.020968;-0.001143;0.005543;0.019825;0.639752;-0.011791;0.011791;0.030687
1.375163;3.424478;0.604137;-0.772844;0.07635;-0.047562;0.778061;0.006801;0.007337;-0.045596;0.731554;-0.92698;-1.078772;1.366953;0.052666;-0.038528;0.045597;139.020111;94.020119;0.060796;0.052862;0.006801;-0.093602;0.002409;0.007337;0.096011;0.556576;0.014138;-0.014138;0.02037
1.442328;3.424478;0.521905;-0.772544;0.076748;-0.050091;0.777962;0.026109;0.006772;-0.058542;0.566069;-3.855298;-0.259383;1.766569;0.075775;-0.042894;0.059335;146.917221;101.917221;0.079113;0.069385;0.026109;-0.122313;0.005229;0.006772;0.127542;0.471815;0.032881;-0.032881;0.026026
-0.371137;3.357313;0.422295;-0.771361;0.079351;-0.059634;0.777721;0.055946;0.00309;-0.011403;-0.012608;-18.103657;-0.055237;-79.312813;0.058301;7.350772e-04;0.028783;25.000637;160.000641;0.038377;0.038625;0.055946;-0.020236;-0.00257;0.00309;0.017666;0.362661;0.059036;-0.059036;0.051094
-0.303971;3.357313;0.476114;-0.771174;0.079041;-0.051072;0.776894;0.010381;-0.001598;-0.011249;0.487464;6.494421;0.153978;2.051435;0.017135;-0.008353;0.012744;160.343796;115.343788;0.016992;0.015004;0.010381;-0.02177;-7.272434e-04;-0.001598;0.021043;0.425042;0.008782;-0.008782;0.115425
-0.236806;3.357313;0.557037;-0.771183;0.079164;-0.055614;0.777228;-0.005911;-0.003176;-0.014447;1.911644;-1.861123;-0.53731;0.52311;0.009968;-0.019055;0.014512;121.888229;76.888229;0.019349;0.017028;-0.005911;-0.026398;-0.002496;-0.003176;0.023902;0.501423;-0.009087;0.009087;0.062627
-0.169641;3.357313;0.644799;-0.771455;0.078522;-0.054229;0.777335;0.009196;-0.002593;-0.013939;0.641821;3.546915;0.281935;1.558066;0.018436;-0.011832;0.015134;154.92485;109.924843;0.020179;0.017613;0.009196;-0.024787;-0.003091;-0.002593;0.021696;0.59057;0.006603;-0.006603;0.042324
-0.102475;3.357313;0.710364;-0.771376;0.078461;-0.053847;0.777224;-0.010909;3.970971e-04;-0.0025;12.362822;27.471752;0.036401;0.080888;9.251097e-04;-0.011437;0.006181;67.147842;22.14784;0.008241;0.007951;-0.010909;-0.004459;-5.40743e-04;3.970971e-04;0.003918;0.656517;-0.010512;0.010512;0.039146
-0.03531;3.357313;0.76013;-0.771523;0.078313;-0.056775;0.777563;-0.021019;0.001709;-0.001238;11.869436;12.297276;0.081319;0.08425;0.001777;-0.021086;0.011431;45.30748;0.307479;0.015242;0.014686;-0.021019;-2.91002e-04;-0.002186;0.001709;-0.001895;0.703355;-0.01931;0.01931;0.027165
0.031855;3.357313;0.810537;-0.771755;0.078218;-0.061266;0.778124;0.008337;3.992298e-04;-0.001601;-0.010226;-20.882576;-0.047887;-97.790573;0.008648;8.843128e-05;0.00428;35.779339;170.779343;0.005706;0.005736;0.008337;-0.001332;-0.001871;3.992298e-04;-5.387673e-04;0.749272;0.008736;-0.008736;0.045914
0.099021;3.357313;0.854335;-0.771431;0.07831;-0.05609;0.777421;0.025139;0.003092;0.006373;-0.051495;-8.130588;-0.122992;-19.419399;0.026849;0.001383;0.012733;73.775116;28.775114;0.016978;0.017457;0.025139;0.013727;-9.815724e-04;0.003092;-0.014708;0.798245;0.028231;-0.028231;0.05084
0.166186;3.357313;0.864126;-0.771507;0.078167;-0.049892;0.77706;0.009489;0.008659;0.013062;0.180403;-1.095833;-0.912548;5.543136;0.022143;-0.003995;0.013069;115.911087;70.911087;0.017425;0.016258;0.009489;0.025389;7.356383e-04;0.008659;-0.024653;0.814234;0.018148;-0.018148;0.05675
0.233352;3.357313;0.933794;-0.771943;0.077959;-0.049997;0.777479;0.005448;0.010371;0.015177;0.320624;-0.525275;-1.903764;3.11892;0.023284;-0.007466;0.015375;125.562737;80.562737;0.0205;0.01852;0.005448;0.029997;3.560514e-04;0.010371;-0.029641;0.883797;0.015819;-0.015819;0.07469
0.300517;3.357313;0.961273;-0.771962;0.077661;-0.04488;0.777155;0.012057;0.009135;0.009726;-0.037212;-1.319872;-0.757649;-26.873034;0.020431;7.602856e-04;0.009835;113.156586;68.156586;0.013114;0.013375;0.012057;0.024778;-0.005325;0.009135;-0.030103;0.916394;0.021191;-0.021191;0.056549
0.367682;3.357313;0.931154;-0.771781;0.077102;-0.040477;0.776678;-0.002165;0.009912;-0.004897;0.334881;0.218374;4.5793;2.986132;0.011648;-0.003901;0.007774;150.74884;105.748833;0.010366;0.009341;-0.002165;-0.00541;-0.004384;0.009912;0.001026;0.890677;0.007747;-0.007747;0.051137
0.434848;3.357313;0.954553;-0.77181;0.077231;-0.050879;0.777331;-0.019292;0.008274;-0.010763;1.91987;2.331762;0.42886;0.520869;0.011978;-0.022997;0.017488;96.952713;51.952713;0.023317;0.020524;-0.019292;-0.02309;0.001564;0.008274;0.024654;0.903674;-0.011019;0.011019;0.068599
0.502013;3.357313;0.958647;-0.771892;0.077427;-0.055314;0.777736;-0.004527;0.002153;-0.004234;1.564594;2.103073;0.475495;0.639144;0.004206;-0.00658;0.005393;111.062408;66.062408;0.007191;0.006278;-0.004527;-0.011247;0.002778;0.002153;0.014025;0.903333;-0.002375;0.002375;0.048244
0.569178;3.357313;0.965644;-0.771946;0.077455;-0.056453;0.777873;-0.001177;-0.001086;0.001094;-61.232246;-1.084044;-0.922472;-0.016331;-3.635958e-05;-0.002226;0.001095;154.679886;109.679878;0.00146;0.001472;-0.001177;0.002597;-4.0886e-04;-0.001086;-0.003006;0.909191;-0.002263;0.002263;0.047249
0.636344;3.357313;0.975068;-0.772091;0.077326;-0.052919;0.777756;-0.005105;-0.002236;-0.010769;2.020566;-2.282683;-0.438081;0.494911;0.007194;-0.014535;0.010864;116.094475;71.094475;0.014486;0.012781;-0.005105;-0.01707;-0.004468;-0.002236;0.012601;0.922149;-0.007341;0.007341;0.063546
0.703509;3.357313;0.963039;-0.772305;0.076862;-0.040589;0.777181;-0.01571;-0.005831;-0.011757;11.8703;-2.694216;-0.371165;0.084244;0.001982;-0.023523;0.012752;100.019806;55.01981;0.017003;0.016382;-0.01571;-0.02174;-0.001773;-0.005831;0.019968;0.92245;-0.021541;0.021541;0.093365
0.770674;3.357313;0.931124;-0.772416;0.077092;-0.0434;0.777465;0.023912;-0.004665;7.357182e-04;0.195726;5.125854;0.195089;5.10918;0.023931;-0.004684;0.014307;45.56282;0.562821;0.019076;0.017723;0.023912;4.295982e-04;0.001042;-0.004665;6.122399e-04;0.887724;0.019247;-0.019247;0.071067
0.83784;3.357313;0.922721;-0.772295;0.077117;-0.057252;0.778244;0.009516;0.00281;-3.524405e-04;-0.292734;-3.387043;-0.295243;-3.416075;0.009535;0.002791;0.003372;39.741093;174.741089;0.004496;0.00566;0.009516;-8.394009e-04;1.345198e-04;0.00281;9.739207e-04;0.86547;0.012326;-0.012326;0.031111
0.905005;3.357313;0.937657;-0.772181;0.07684;-0.058575;0.778203;-3.68979e-04;0.00398;-0.001913;0.23194;0.0927;10.787516;4.311468;0.004702;-0.001091;0.002896;162.031738;117.031738;0.003862;0.003554;-3.68979e-04;-0.001505;-0.002321;0.00398;-8.157117e-04;0.879082;0.003611;-0.003611;0.051213
0.97217;3.357313;0.919124;-0.772234;0.0771;-0.058941;0.778309;-0.030073;-0.001175;0.008736;25.77964;-25.599613;-0.039063;0.03879;0.001261;-0.032509;0.016885;8.347061;143.347061;0.022513;0.022105;-0.030073;0.022877;-0.005405;-0.001175;-0.028282;0.860184;-0.031248;0.031248;0.05762
1.039336;3.357313;0.847746;-0.772434;0.076763;-0.052309;0.777999;-0.046215;-0.001598;0.013254;24.411152;-28.923004;-0.034575;0.040965;0.002042;-0.049855;0.025948;13.215531;148.21553;0.034598;0.033938;-0.046215;0.028692;-0.002185;-0.001598;-0.030876;0.795438;-0.047812;0.047812;0.014966
1.106501;3.357313;0.80789;-0.772736;0.075963;-0.042132;0.777603;-0.00585;-0.006991;0.007836;9.938725;-0.836816;-1.195006;0.100617;0.001437;-0.014278;0.007857;158.16452;113.16452;0.010476;0.010032;-0.00585;0.013131;0.002542;-0.006991;-0.010588;0.765758;-0.012841;0.012841;0.0365
1.173667;3.357313;0.799878;-0.7725;0.076069;-0.047306;0.777676;0.026512;0.003098;-0.005098;-0.073835;-8.558688;-0.11684;-13.543715;0.027573;0.002036;0.012769;22.56086;157.560867;0.017025;0.017743;0.026512;-0.010884;6.885733e-04;0.003098;0.011573;0.752572;0.029609;-0.029609;0.077011
1.240832;3.357313;0.759402;-0.772384;0.076264;-0.050828;0.777802;0.010385;0.007849;-0.009173;0.007788;-1.323105;-0.755798;128.407043;0.018378;-1.431193e-04;0.00926;163.193878;118.193878;0.012347;0.0123;0.010385;-0.017234;-0.001112;0.007849;0.016123;0.708574;0.018234;-0.018234;0.086694
1.307997;3.357313;0.695257;-0.772655;0.076172;-0.052129;0.778148;0.0175;0.003517;-0.022101;0.376144;-4.976566;-0.200942;2.658554;0.033689;-0.012672;0.02318;156.490341;111.490349;0.030907;0.027668;0.0175;-0.044206;5.132104e-06;0.003517;0.044211;0.643128;0.021017;-0.021017;0.061781
1.375163;3.357313;0.620581;-0.772936;0.0764;-0.061094;0.779102;0.031287;4.921309e-04;-0.034349;0.406354;-63.573753;-0.01573;2.460907;0.053531;-0.021753;0.037642;159.132339;114.132332;0.050189;0.044738;0.031287;-0.069837;0.001139;4.921309e-04;0.070976;0.559486;0.031779;-0.031779;0.069302
1.442328;3.357313;0.522626;-0.772995;0.076514;-0.065198;0.779504;0.025943;0.003693;-0.04183;0.489935;-7.025884;-0.142331;2.041086;0.058103;-0.028466;0.043284;152.095734;107.095734;0.057713;0.050948;0.025943;-0.08415;4.892928e-04;0.003693;0.084639;0.457428;0.029636;-0.029636;0.034731
-0.371137;3.290148;0.418806;-0.771564;0.078898;-0.055655;0.777582;0.053108;0.002486;-0.008968;-0.017286;-21.35935;-0.046818;-57.849838;0.05465;9.446855e-04;0.026853;26.968748;161.96875;0.035803;0.036122;0.053108;-0.01723;-7.05966e-04;0.002486;0.016524;0.363151;0.055595;-0.055595;0.008902
-0.303971;3.290148;0.465939;-0.7714;0.078853;-0.049845;0.77702;0.008066;0.003635;-0.008259;0.187509;-2.218603;-0.450734;5.333074;0.014401;-0.0027;0.008551;159.741043;114.741043;0.011401;0.010616;0.008066;-0.016782;2.635147e-04;0.003635;0.017045;0.416094;0.011701;-0.011701;0.088244
-0.236806;3.290148;0.558523;-0.771491;0.079083;-0.053126;0.777351;-3.600122e-04;0.003825;-0.009781;0.704725;0.09412;10.624697;1.418994;0.011735;-0.00827;0.010002;134.899826;89.899818;0.013336;0.011607;-3.600122e-04;-0.01802;-0.001542;0.003825;0.016478;0.505397;0.003465;-0.003465;0.048297
-0.169641;3.290148;0.631799;-0.771755;0.078557;-0.047373;0.777188;-3.79083e-04;0.001729;-0.008068;0.846842;0.219296;4.560042;1.180858;0.008811;-0.007462;0.008137;134.897491;89.897484;0.010849;0.009406;-3.79083e-04;-0.013382;-0.002754;0.001729;0.010628;0.584425;0.00135;-0.00135;0.043942
-0.102475;3.290148;0.692803;-0.771639;0.078485;-0.05239;0.777388;-0.025293;0.002009;0.002269;11.599512;12.587501;0.079444;0.086211;0.002197;-0.02548;0.013838;31.87521;166.875214;0.018451;0.017764;-0.025293;0.005787;-0.001249;0.002009;-0.007035;0.640413;-0.023283;0.023283;0.053812
-0.03531;3.290148;0.757401;-0.771534;0.078364;-0.054815;0.777438;-0.010831;0.002626;0.00125;3.992821;4.123995;0.242483;0.25045;0.002741;-0.010946;0.006844;23.144009;158.144012;0.009125;0.008362;-0.010831;0.003933;-0.001433;0.002626;-0.005366;0.702586;-0.008204;0.008204;0.05636
0.031855;3.290148;0.816132;-0.771584;0.078279;-0.054908;0.777486;0.013529;3.788696e-04;-0.006551;0.143361;-35.707695;-0.028005;6.97538;0.016235;-0.002327;0.009281;8.505399;143.505402;0.012375;0.011677;0.013529;-0.010263;-0.002839;3.788696e-04;0.007424;0.761224;0.013907;-0.013907;0.053351
0.099021;3.290148;0.836843;-0.771688;0.07787;-0.050607;0.777257;0.011786;-0.001034;9.956097e-04;0.09361;11.402563;0.0877;10.682611;0.011863;-0.001111;0.006487;69.509537;24.509539;0.008649;0.008304;0.011786;0.005537;-0.003546;-0.001034;-0.009084;0.786236;0.010753;-0.010753;0.049924
0.166186;3.290148;0.841677;-0.771692;0.077826;-0.050673;0.77726;-0.001022;0.005987;0.001327;0.203014;0.170686;5.85871;4.925776;0.00623;-0.001265;0.003747;152.006287;107.006294;0.004997;0.004633;-0.001022;0.00484;-0.002186;0.005987;-0.007026;0.791004;0.004965;-0.004965;0.045062
0.233352;3.290148;0.878201;-0.772003;0.077737;-0.051641;0.777623;0.008518;0.010193;0.007701;-0.094058;-0.835645;-1.196681;-10.631704;0.017102;0.001609;0.007747;114.992706;69.992706;0.010329;0.010905;0.008518;0.016666;-0.001263;0.010193;-0.017929;0.826561;0.01871;-0.01871;0.04822
0.300517;3.290148;0.906901;-0.772253;0.077464;-0.045964;0.777488;0.013757;0.017973;0.011466;-0.152854;-0.765383;-1.306535;-6.542187;0.027523;0.004207;0.011658;116.928574;71.928574;0.015544;0.01712;0.013757;0.026488;-0.003557;0.017973;-0.030045;0.860937;0.03173;-0.03173;0.045418
0.367682;3.290148;0.923524;-0.771883;0.077057;-0.044969;0.777022;-7.763142e-04;0.009755;8.799235e-04;0.086421;0.079583;12.565514;11.571245;0.009828;-8.493298e-04;0.005339;151.34993;106.349922;0.007118;0.006853;-7.763142e-04;0.004949;-0.003189;0.009755;-0.008137;0.878555;0.008978;-0.008978;0.068149
0.434848;3.290148;0.940818;-0.77186;0.077194;-0.05088;0.777378;-0.007843;-8.110803e-04;-0.002907;37.789162;-9.66974;-0.103415;0.026463;2.352327e-04;-0.008889;0.004562;81.313126;36.313126;0.006083;0.006006;-0.007843;-0.005721;-9.30721e-05;-8.110803e-04;0.005628;0.889938;-0.008654;0.008654;0.098703
0.502013;3.290148;0.956104;-0.772024;0.077499;-0.055727;0.777902;-0.013355;-0.007521;-0.010163;154.722504;-1.775838;-0.563114;0.006463;1.358039e-04;-0.021012;0.010574;102.488258;57.488258;0.014098;0.014053;-0.013355;-0.019235;-0.001092;-0.007521;0.018143;0.900377;-0.020876;0.020876;0.083639
0.569178;3.290148;0.981952;-0.771937;0.077491;-0.061485;0.778249;-0.007338;-4.364122e-04;-0.004891;4.704811;-16.814335;-0.059473;0.212548;0.002098;-0.009873;0.005986;94.6092;49.609203;0.007981;0.007381;-0.007338;-0.008701;-0.001081;-4.364122e-04;0.00762;0.920467;-0.007774;0.007774;0.067286
0.636344;3.290148;0.979128;-0.772131;0.077183;-0.05885;0.778207;9.474327e-04;0.005397;0.002549;0.032252;-0.175545;-5.696541;31.006258;0.006556;-2.1144e-04;0.003384;142.094803;97.094795;0.004512;0.004443;9.474327e-04;0.008797;-0.003698;0.005397;-0.012494;0.920277;0.006345;-0.006345;0.093671
0.703509;3.290148;0.98352;-0.772246;0.076811;-0.051071;0.777735;-0.006222;-2.288816e-04;-0.005028;3.45517;-27.18609;-0.036784;0.289421;0.002628;-0.009079;0.005853;99.786484;54.786488;0.007804;0.007093;-0.006222;-0.008923;-0.001133;-2.288816e-04;0.00779;0.932449;-0.006451;0.006451;0.084307
0.770674;3.290148;0.963312;-0.772295;0.076915;-0.050772;0.777775;0.017514;-0.00833;-0.008182;0.538188;2.102451;0.475635;1.858088;0.019887;-0.010703;0.015295;177.127106;132.127106;0.020393;0.017924;0.017514;-0.017354;9.907478e-04;-0.00833;0.018345;0.912541;0.009184;-0.009184;0.054344
0.83784;3.290148;0.946041;-0.772073;0.076938;-0.058037;0.778064;0.015146;-1.616831e-04;-1.815374e-04;0.010816;93.674278;0.010675;92.456627;0.015148;-1.638358e-04;0.007656;44.252754;179.252762;0.010208;0.010154;0.015146;-1.992864e-04;-1.637884e-04;-1.616831e-04;3.549803e-05;0.888004;0.014984;-0.014984;0.040423
0.905005;3.290148;0.935897;-0.771815;0.076906;-0.05922;0.777895;-0.006262;-0.002901;0.004448;53.981007;-2.158059;-0.463379;0.018525;1.729487e-04;-0.009336;0.004754;169.340973;124.340973;0.006339;0.006282;-0.006262;0.008575;3.209247e-04;-0.002901;-0.008254;0.876677;-0.009163;0.009163;0.056602
0.97217;3.290148;0.890088;-0.771868;0.076637;-0.052498;0.777438;-0.039104;-0.00145;0.007032;-224.829178;-26.972092;-0.037075;-0.004448;-1.795785e-04;-0.040374;0.020097;22.770454;157.770447;0.026797;0.026857;-0.039104;0.016051;-0.001988;-0.00145;-0.018038;0.83759;-0.040554;0.040554;0.064649
1.039336;3.290148;0.820791;-0.772483;0.076192;-0.044864;0.777527;-0.042782;5.330208e-04;-0.003866;49.261822;80.263809;0.012459;0.0203;8.754178e-04;-0.043125;0.022;47.852551;2.852549;0.029333;0.029046;-0.042782;-0.002235;-0.005498;5.330208e-04;-0.003263;0.775927;-0.042249;0.042249;0.049083
1.106501;3.290148;0.792342;-0.772799;0.075997;-0.043082;0.777721;0.006773;1.286755e-04;-0.010331;0.517472;-52.634197;-0.018999;1.932473;0.014303;-0.007401;0.010852;157.075607;112.075607;0.014469;0.01274;0.006773;-0.017305;-0.003357;1.286755e-04;0.013948;0.74926;0.006901;-0.006901;0.044947
1.173667;3.290148;0.764685;-0.77275;0.076183;-0.052859;0.778293;0.035486;0.007563;-0.01419;-0.039065;-4.691822;-0.213137;-25.598507;0.041431;0.001619;0.019906;4.534092;139.534088;0.026542;0.027098;0.035486;-0.029525;0.001146;0.007563;0.03067;0.711827;0.04305;-0.04305;0.07389
1.240832;3.290148;0.735205;-0.772639;0.076226;-0.055344;0.77836;0.012589;0.009219;-0.011165;0.01748;-1.365563;-0.732299;57.209831;0.022196;-3.879695e-04;0.011292;160.419907;115.419914;0.015056;0.014928;0.012589;-0.023166;8.355493e-04;0.009219;0.024002;0.679861;0.021808;-0.021808;0.077416
1.307997;3.290148;0.690894;-0.772821;0.076201;-0.057483;0.778694;0.008076;4.602852e-04;0.001736;-0.009832;-17.546282;-0.056992;-101.706924;0.008453;8.311591e-05;0.004185;53.436184;8.436183;0.00558;0.005608;0.008076;0.001164;0.002309;4.602852e-04;0.001145;0.633411;0.008537;-0.008537;0.062362
1.375163;3.290148;0.607139;-0.772945;0.076816;-0.059065;0.778995;0.030957;-0.002485;0.022908;0.331603;12.458085;0.080269;3.015657;0.042598;-0.014125;0.028362;100.483971;55.483971;0.037815;0.034097;0.030957;0.044909;9.076346e-04;-0.002485;-0.044001;0.548075;0.028472;-0.028472;0.072133
1.442328;3.290148;0.509049;-0.772828;0.076594;-0.065148;0.779342;0.045821;8.781687e-05;0.023814;0.179748;-521.775696;-0.001917;5.563336;0.055969;-0.01006;0.033015;92.334656;47.334656;0.044019;0.041079;0.045821;0.049765;-0.002138;8.781687e-05;-0.051903;0.443902;0.045909;-0.045909;0.033175
-0.371137;3.222982;0.398589;-0.771604;0.078593;-0.055395;0.777572;0.033137;7.7621e-04;-0.003222;-0.013707;-42.691135;-0.023424;-72.957901;0.033455;4.585514e-04;0.016498;32.979935;167.979935;0.021998;0.022152;0.033137;-0.007068;6.238989e-04;7.7621e-04;0.007692;0.343195;0.033913;-0.033913;0.005174
-0.303971;3.222982;0.468372;-0.771686;0.078539;-0.047803;0.777144;2.045682e-04;0.005229;0.010806;0.606587;-0.039122;-25.561001;1.648568;0.013811;-0.008378;0.011095;134.543182;89.543182;0.014793;0.012938;2.045682e-04;0.021702;-8.922115e-05;0.005229;-0.021791;0.42057;0.005434;-0.005434;0.041383
-0.236806;3.222982;0.557152;-0.771735;0.078502;-0.052747;0.777508;-0.00141;0.009134;0.019292;0.676297;0.154365;6.478159;1.478639;0.023862;-0.016138;0.02;137.432312;92.432312;0.026666;0.023237;-0.00141;0.040295;-0.00171;0.009134;-0.042005;0.504406;0.007724;-0.007724;0.058928
-0.169641;3.222982;0.631401;-0.771918;0.078249;-0.048845;0.77741;-3.724069e-04;0.009253;0.017338;0.604126;0.040245;24.847794;1.655283;0.022434;-0.013553;0.017994;136.435043;91.435043;0.023991;0.020987;-3.724069e-04;0.037132;-0.002456;0.009253;-0.039588;0.582557;0.008881;-0.008881;0.055824
-0.102475;3.222982;0.691443;-0.771806;0.07832;-0.05672;0.77784;-0.022946;0.005434;0.002867;4.061389;4.222988;0.236799;0.246221;0.00572;-0.023233;0.014476;24.427576;159.427582;0.019302;0.017706;-0.022946;0.007866;-0.002131;0.005434;-0.009997;0.634723;-0.017512;0.017512;0.037079
-0.03531;3.222982;0.75561;-0.771515;0.078008;-0.059295;0.777712;-0.0061;0.003276;-0.003155;1.666183;1.861996;0.537058;0.600174;0.004239;-0.007063;0.005651;85.711761;40.711765;0.007535;0.006593;-0.0061;-0.004695;-0.001615;0.003276;0.00308;0.696315;-0.002824;0.002824;0.058949
0.031855;3.222982;0.787962;-0.77156;0.077873;-0.05619;0.777513;0.011635;0.005421;0.005307;-0.162009;-2.146212;-0.465937;-6.172497;0.014678;0.002378;0.00615;92.505592;47.505592;0.0082;0.009097;0.011635;0.011358;-7.427875e-04;0.005421;-0.0121;0.731772;0.017056;-0.017056;0.033991
0.099021;3.222982;0.805667;-0.771756;0.07729;-0.051151;0.777302;0.011668;0.00595;0.007716;-0.034038;-1.961097;-0.509919;-29.37883;0.017038;5.799349e-04;0.008229;106.517273;61.517269;0.010972;0.01117;0.011668;0.019563;-0.00413;0.00595;-0.023693;0.754516;0.017618;-0.017618;0.045286
0.166186;3.222982;0.82989;-0.771786;0.077343;-0.051563;0.777364;0.001717;0.001493;-1.539742e-04;-0.788065;-1.149639;-0.869838;-1.268931;0.001795;0.001415;1.902396e-04;32.636333;167.636337;2.536528e-04;0.001092;0.001717;7.469842e-04;-0.001055;0.001493;-0.001802;0.778327;0.00321;-0.00321;0.057413
0.233352;3.222982;0.869963;-0.771787;0.077406;-0.052699;0.777447;-1.432333e-04;0.002757;-0.003361;0.473809;0.051958;19.246191;2.110555;0.004967;-0.002353;0.00366;139.698486;94.698494;0.00488;0.004315;-1.432333e-04;-0.005393;-0.001328;0.002757;0.004065;0.817264;0.002613;-0.002613;0.055313
0.300517;3.222982;0.911727;-0.771874;0.077291;-0.05294;0.777538;0.004781;0.002262;5.641694e-04;-0.436927;-2.113399;-0.473172;-2.288709;0.004902;0.002142;0.00138;81.50312;36.50312;0.00184;0.002837;0.004781;0.004598;-0.003469;0.002262;-0.008067;0.858787;0.007043;-0.007043;0.040205
0.367682;3.222982;0.93815;-0.771746;0.076886;-0.052359;0.777332;0.004314;0.002095;0.001358;-0.292662;-2.058891;-0.485698;-3.416916;0.004958;0.001451;0.001754;93.224533;48.224533;0.002338;0.002944;0.004314;0.004641;-0.001925;0.002095;-0.006566;0.885792;0.00641;-0.00641;0.08266
0.434848;3.222982;0.929994;-0.772047;0.076785;-0.04494;0.777157;9.460199e-06;-0.00439;0.004393;2.609018;0;0;0.383286;0.002723;-0.007103;0.004913;5.223576;140.223572;0.00655;0.005858;9.460199e-06;0.002739;0.006046;-0.00439;0.003307;0.885055;-0.004381;0.004381;0.135751
0.502013;3.222982;0.927531;-0.77237;0.076863;-0.039116;0.77717;-0.013215;-0.009163;-0.012364;17.694553;-1.442168;-0.693401;0.056515;0.00134;-0.023718;0.012529;111.989395;66.989395;0.016706;0.016277;-0.013215;-0.027367;0.002638;-0.009163;0.030004;0.888415;-0.022378;0.022378;0.08974
0.569178;3.222982;0.957682;-0.772264;0.076944;-0.050735;0.777744;-0.018768;-0.00475;-0.012489;10.179122;-3.95091;-0.253106;0.09824;0.002562;-0.026081;0.014322;96.556183;51.556183;0.019095;0.018301;-0.018768;-0.023232;-0.001746;-0.00475;0.021486;0.906948;-0.023519;0.023519;0.045692
0.636344;3.222982;0.958476;-0.772541;0.07679;-0.05562;0.778338;-0.002323;-0.00305;-2.47052e-04;-1.391453;-0.761467;-1.313255;-0.718673;-0.002247;-0.003126;4.397678e-04;91.289513;46.289513;5.863571e-04;0.001862;-0.002323;0.00335;-0.003844;-0.00305;-0.007194;0.902856;-0.005373;0.005373;0.074208
0.703509;3.222982;0.970549;-0.772591;0.076777;-0.055629;0.778387;7.976389e-04;-8.990171e-04;0.001805;1.05215;0.887234;1.127098;0.950435;0.001944;-0.002045;0.001995;123.106171;78.106171;0.00266;0.002303;7.976389e-04;0.003907;-2.960382e-04;-8.990171e-04;-0.004203;0.91492;-1.013782e-04;1.013782e-04;0.090551
0.770674;3.222982;0.966261;-0.772441;0.07685;-0.056823;0.778331;0.004275;-1.595487e-04;-2.533501e-04;0.040558;26.794971;0.03732;24.655931;0.00429;-1.739756e-04;0.002232;24.952454;159.952454;0.002976;0.002919;0.004275;-0.001619;0.001113;-1.595487e-04;0.002732;0.909438;0.004116;-0.004116;0.067166
0.83784;3.222982;0.932229;-0.772483;0.076947;-0.0566;0.778367;-9.323901e-04;-0.003231;0.008954;1.599387;-0.288593;-3.465091;0.62524;0.006946;-0.011109;0.009027;138.712006;93.712006;0.012037;0.010516;-9.323901e-04;0.016867;0.001041;-0.003231;-0.015827;0.875629;-0.004163;0.004163;0.056259
0.905005;3.222982;0.911478;-0.7723;0.077062;-0.056011;0.778154;-0.006473;-0.00574;0.016452;2.180115;-1.127577;-0.886858;0.458691;0.010349;-0.022562;0.016456;144.853577;99.853577;0.021941;0.019433;-0.006473;0.034774;-0.001871;-0.00574;-0.036646;0.855468;-0.012213;0.012213;0.074733
0.97217;3.222982;0.884398;-0.772386;0.076895;-0.054223;0.778095;-0.00802;5.017438e-04;0.003331;5.558243;15.984643;0.06256;0.179913;0.001649;-0.009168;0.005409;177.116409;132.116409;0.007212;0.006729;-0.00802;0.009289;-0.002626;5.017438e-04;-0.011915;0.830175;-0.007518;0.007518;0.068931
1.039336;3.222982;0.846523;-0.772911;0.076687;-0.053718;0.778562;-0.014281;-0.003939;-0.019197;2.691362;-3.625748;-0.275805;0.371559;0.010772;-0.028991;0.019882;112.303566;67.303566;0.026509;0.023747;-0.014281;-0.034776;-0.003619;-0.003939;0.031157;0.792805;-0.018219;0.018219;0.040895
1.106501;3.222982;0.823551;-0.772988;0.076247;-0.050111;0.778354;-0.001757;-0.004448;-0.019371;1.38032;-0.395108;-2.530954;0.72447;0.016315;-0.02252;0.019417;131.012817;86.012817;0.02589;0.022517;-0.001757;-0.034034;-0.004708;-0.004448;0.029326;0.773441;-0.006205;0.006205;0.028104
1.173667;3.222982;0.765878;-0.772942;0.075993;-0.053412;0.778503;0.029498;0.002226;-0.005975;-0.031675;-13.253886;-0.07545;-31.570646;0.03075;9.739904e-04;0.014888;23.241016;158.241013;0.01985;0.020183;0.029498;-0.011703;-2.46884e-04;0.002226;0.011456;0.712466;0.031723;-0.031723;0.033666
1.240832;3.222982;0.704838;-0.772922;0.076191;-0.057747;0.778812;0.010329;0.002872;-0.004302;-0.073854;-3.596653;-0.278036;-13.540317;0.012293;9.079003e-04;0.005693;176.975281;131.975281;0.00759;0.00791;0.010329;-0.011372;0.002769;0.002872;0.014141;0.647091;0.013201;-0.013201;0.018496
1.307997;3.222982;0.657579;-0.773168;0.076248;-0.054085;0.778799;-0.019734;0.002734;0.001203;7.073854;7.216608;0.138569;0.141366;0.002799;-0.019798;0.011298;45.952419;0.952417;0.015065;0.014224;-0.019734;5.969343e-06;0.002401;0.002734;0.002395;0.603494;-0.016999;0.016999;0.036195
1.375163;3.222982;0.591061;-0.773034;0.076257;-0.049658;0.778372;0.024404;0.001542;0.010354;0.086269;-15.822162;-0.063202;11.591673;0.028396;-0.00245;0.015423;87.609505;42.609505;0.020564;0.019798;0.024404;0.022473;-0.001765;0.001542;-0.024237;0.541402;0.025947;-0.025947;0.053014
1.442328;3.222982;0.48729;-0.772514;0.075624;-0.059632;0.778494;0.060965;0.003065;0.013427;-0.001603;-19.892603;-0.05027;-623.947083;0.063928;1.024569e-04;0.031913;71.825729;26.825731;0.04255;0.042584;0.060965;0.031005;-0.004151;0.003065;-0.035156;0.427658;0.06403;-0.06403;0.067096
-0.371137;3.155817;0.362157;-0.771668;0.078699;-0.052692;0.777459;-0.005979;0.003044;0.004011;1.64227;1.964036;0.509156;0.608913;0.004569;-0.007504;0.006037;166.157669;121.157669;0.008049;0.007039;-0.005979;0.009917;-0.001895;0.003044;-0.011812;0.309465;-0.002935;0.002935;0.066095
-0.303971;3.155817;0.467504;-0.771677;0.078473;-0.055309;0.777626;-0.012393;0.0071;0.013357;1.381107;1.745475;0.57291;0.724057;0.013889;-0.019182;0.016535;157.592529;112.592537;0.022047;0.019175;-0.012393;0.029942;-0.003228;0.0071;-0.03317;0.412194;-0.005293;0.005293;0.036327
-0.236806;3.155817;0.52941;-0.77173;0.078173;-0.059493;0.777957;0.002181;0.006053;0.007191;0.287967;-0.360297;-2.775491;3.472621;0.011565;-0.00333;0.007448;131.793747;86.793739;0.00993;0.009027;0.002181;0.017654;-0.003271;0.006053;-0.020924;0.469917;0.008235;-0.008235;0.06715
-0.169641;3.155817;0.614474;-0.771746;0.077855;-0.056793;0.77774;0.016432;0.002656;-0.002382;-0.13404;-6.185558;-0.161667;-7.460474;0.016832;0.002256;0.007288;29.144306;164.144302;0.009717;0.01055;0.016432;-0.004521;-2.429833e-04;0.002656;0.004278;0.557681;0.019088;-0.019088;0.044465
-0.102475;3.155817;0.677733;-0.771685;0.078012;-0.052559;0.777397;7.522475e-04;6.329392e-04;-0.014107;0.906403;-1.188499;-0.841398;1.103262;0.0148;-0.013414;0.014107;136.504425;91.504425;0.018809;0.016296;7.522475e-04;-0.028439;2.25739e-04;6.329392e-04;0.028665;0.625175;0.001385;-0.001385;0.016581
-0.03531;3.155817;0.725597;-0.771676;0.077737;-0.052074;0.777327;-0.015214;-5.998337e-04;-0.013393;3.151542;-25.363791;-0.039426;0.317305;0.00735;-0.023164;0.015257;103.046516;58.046516;0.020343;0.018389;-0.015214;-0.024564;-0.002222;-5.998337e-04;0.022342;0.673523;-0.015814;0.015814;0.048606
0.031855;3.155817;0.766934;-0.772009;0.077784;-0.057433;0.77804;-0.004835;7.005012e-04;-0.002046;4.00691;6.901925;0.144887;0.249569;0.001375;-0.005509;0.003442;62.73518;17.735182;0.004589;0.004207;-0.004835;-0.00201;-0.002083;7.005012e-04;-7.287321e-05;0.709501;-0.004134;0.004134;0.049405
0.099021;3.155817;0.796455;-0.772086;0.077686;-0.055682;0.77798;0.02364;2.867095e-04;-4.066544e-05;-0.012125;-82.453407;-0.012128;-82.474022;0.02364;2.866387e-04;0.011677;51.189007;6.189009;0.015569;0.015665;0.02364;0.002629;-0.00271;2.867095e-04;-0.005338;0.740774;0.023927;-0.023927;0.060987
0.166186;3.155817;0.832166;-0.772157;0.077571;-0.048529;0.777559;0.018286;0.004342;-0.007303;-0.056838;-4.211322;-0.237455;-17.59375;0.021411;0.001217;0.010097;11.168835;146.168839;0.013462;0.013886;0.018286;-0.011722;-0.002885;0.004342;0.008836;0.783638;0.022628;-0.022628;0.052459
0.233352;3.155817;0.885319;-0.772066;0.077299;-0.048126;0.777417;-0.005373;0.007643;-0.007325;0.792355;0.702962;1.422552;1.26206;0.010934;-0.008663;0.009798;120.547836;75.547836;0.013065;0.01134;-0.005373;-0.012356;-0.002294;0.007643;0.010061;0.837194;0.00227;-0.00227;0.06206
0.300517;3.155817;0.906004;-0.772192;0.077181;-0.049177;0.777596;-0.003486;0.003346;-0.001364;1.038897;1.041944;0.959744;0.962559;0.003608;-0.003748;0.003678;12.581827;147.581833;0.004904;0.004248;-0.003486;-1.831478e-04;-0.002544;0.003346;-0.002361;0.856827;-1.403439e-04;1.403439e-04;0.071454
0.367682;3.155817;0.912811;-0.77226;0.07693;-0.047461;0.777532;2.151599e-04;0.001995;0.001553;0.236539;-0.10786;-9.271293;4.22763;0.002895;-6.847039e-04;0.00179;143.000504;98.000496;0.002386;0.002194;2.151599e-04;0.006047;-0.002941;0.001995;-0.008988;0.86535;0.00221;-0.00221;0.055203
0.434848;3.155817;0.909626;-0.772336;0.076777;-0.045119;0.777454;-0.001654;0.00409;0.001947;0.48036;0.404434;2.472592;2.081773;0.004687;-0.002252;0.003469;131.148911;86.148903;0.004626;0.004088;-0.001654;0.002552;0.001341;0.00409;-0.001211;0.864507;0.002436;-0.002436;0.064475
0.502013;3.155817;0.921546;-0.772455;0.076607;-0.043037;0.777437;-0.002871;0.014296;0.012533;0.453436;0.200809;4.979848;2.205384;0.020903;-0.009478;0.015191;133.284927;88.284927;0.020254;0.017949;-0.002871;0.019889;0.005178;0.014296;-0.014711;0.878509;0.011425;-0.011425;0.051919
0.569178;3.155817;0.96268;-0.772499;0.076679;-0.047194;0.777729;-0.010992;0.009487;0.001074;1.157699;1.158633;0.863086;0.863782;0.009543;-0.011048;0.010295;53.148201;8.148201;0.013727;0.011898;-0.010992;7.653579e-04;0.001382;0.009487;6.16668e-04;0.915486;-0.001505;0.001505;0.048475
0.636344;3.155817;0.966818;-0.772735;0.076684;-0.050053;0.778142;-0.001982;-0.003382;-0.002173;-12.455301;-0.586044;-1.706356;-0.080287;-3.986126e-04;-0.004965;0.002283;123.452194;78.452194;0.003044;0.003185;-0.001982;-0.005264;9.174442e-04;-0.003382;0.006181;0.916765;-0.005363;0.005363;0.046824
0.703509;3.155817;0.95421;-0.772679;0.077012;-0.052413;0.778275;0.002841;-0.005202;-5.075844e-04;1.821625;0.546194;1.830852;0.54896;0.002873;-0.005234;0.004053;162.188538;117.188538;0.005405;0.004746;0.002841;-0.002688;0.001673;-0.005202;0.004361;0.901797;-0.002361;0.002361;0.022647
0.770674;3.155817;0.950183;-0.772413;0.077138;-0.054766;0.778184;1.388522e-04;-0.003539;0.003286;2.645945;0.039233;25.488428;0.377937;0.002066;-0.005466;0.003766;130.528717;85.528725;0.005021;0.004494;1.388522e-04;0.007886;-0.001313;-0.003539;-0.009198;0.895417;-0.0034;0.0034;0.037608
0.83784;3.155817;0.932678;-0.772429;0.076812;-0.050993;0.777912;-0.013712;-4.03539e-04;0.007194;6.148254;-33.978905;-0.02943;0.162648;0.002742;-0.016857;0.009799;176.102524;131.102524;0.013066;0.012255;-0.013712;0.015775;-0.001387;-4.03539e-04;-0.017162;0.881685;-0.014115;0.014115;0.040079
0.905005;3.155817;0.910254;-0.772428;0.076449;-0.043981;0.777447;-0.001838;0.001255;0.007653;1.077435;1.463606;0.683244;0.92813;0.007517;-0.008099;0.007808;141.790344;96.790337;0.01041;0.009017;-0.001838;0.015382;-7.669372e-05;0.001255;-0.015459;0.866273;-5.820419e-04;5.820419e-04;0.02611
0.97217;3.155817;0.869495;-0.77275;0.076519;-0.050364;0.778161;0.026515;0.002324;0.001792;-0.082258;-11.409091;-0.087649;-12.156848;0.026647;0.002192;0.012227;57.462791;12.462791;0.016303;0.017081;0.026515;0.006063;-0.002478;0.002324;-0.00854;0.81913;0.028839;-0.028839;0.012936
1.039336;3.155817;0.843585;-0.772828;0.076388;-0.06004;0.778911;0.004248;0.004298;-0.004103;-0.020224;-0.988373;-1.011764;-49.446297;0.008376;1.693904e-04;0.004103;10.355364;145.355362;0.005471;0.005528;0.004248;-0.002458;-0.005748;0.004298;-0.00329;0.783545;0.008545;-0.008545;0.009384
1.106501;3.155817;0.81799;-0.772525;0.075882;-0.054765;0.778172;-0.018557;0.004301;-0.004108;3.841944;4.315033;0.231748;0.260285;0.005017;-0.019273;0.012145;59.158291;14.158293;0.016193;0.014807;-0.018557;-0.005179;-0.003037;0.004301;0.002142;0.763225;-0.014257;0.014257;0.058664
1.173667;3.155817;0.762898;-0.772546;0.075737;-0.050347;0.777881;0.016387;0.003015;0.004147;-0.104392;-5.434424;-0.184012;-9.579309;0.017569;0.001834;0.007867;69.765587;24.765583;0.01049;0.011152;0.016387;0.007247;0.001046;0.003015;-0.006201;0.712551;0.019403;-0.019403;0.065735
1.240832;3.155817;0.702769;-0.772896;0.076184;-0.060055;0.77896;0.016561;0.003186;0.009844;0.093074;-5.197598;-0.192397;10.744174;0.021774;-0.002027;0.011901;92.507607;47.507607;0.015867;0.015237;0.016561;0.017898;0.001789;0.003186;-0.016109;0.642715;0.019748;-0.019748;0.016276
1.307997;3.155817;0.639741;-0.773377;0.07631;-0.058137;0.779304;-0.012633;0.00524;-0.002838;2.301528;2.410791;0.414802;0.434494;0.00568;-0.013073;0.009377;75.239754;30.239752;0.012502;0.011104;-0.012633;-0.006268;5.916855e-04;0.00524;0.00686;0.581604;-0.007393;0.007393;0.030807
1.375163;3.155817;0.576102;-0.773298;0.076042;-0.054007;0.778902;0.027102;0.00483;-0.022767;0.227018;-5.611136;-0.178217;4.404944;0.04131;-0.009378;0.025344;166.939346;121.939339;0.033792;0.031141;0.027102;-0.04334;-0.002193;0.00483;0.041146;0.522095;0.031932;-0.031932;0.01974
1.442328;3.155817;0.477744;-0.77246;0.075676;-0.061872;0.77862;0.057955;-9.552444e-04;-0.027137;0.168498;60.670345;0.016483;5.934782;0.06855;-0.011551;0.04005;3.735344;138.735336;0.053401;0.049997;0.057955;-0.050945;-0.003329;-9.552444e-04;0.047616;0.415872;0.057;-0.057;0.04544
-0.371137;3.088652;0.325663;-0.771555;0.078577;-0.053798;0.77741;-0.01812;0.004856;0.006062;3.086322;3.731433;0.267994;0.32401;0.006357;-0.019621;0.012989;7.040494;142.040497;0.017319;0.015637;-0.01812;0.013453;-0.001328;0.004856;-0.014781;0.271865;-0.013264;0.013264;0.053257
-0.303971;3.088652;0.438563;-0.771646;0.078342;-0.05683;0.777692;-0.002466;0.001494;-0.004091;1.239411;1.650393;0.605916;0.806835;0.004059;-0.005031;0.004545;113.925575;68.925575;0.00606;0.005259;-0.002466;-0.005751;-0.002432;0.001494;0.003319;0.381733;-9.718716e-04;9.718716e-04;0.052398
-0.236806;3.088652;0.517474;-0.771835;0.077964;-0.053794;0.777626;0.01776;-2.212438e-04;-0.020877;0.443211;80.273613;0.012457;2.256262;0.0315;-0.013961;0.022731;159.552734;114.552727;0.030307;0.02689;0.01776;-0.039012;-0.002742;-2.212438e-04;0.036271;0.46368;0.017539;-0.017539;0.065234
-0.169641;3.088652;0.604878;-0.771856;0.077788;-0.050284;0.777394;0.008737;0.002232;-0.014838;0.469455;-3.913883;-0.255501;2.13013;0.020675;-0.009706;0.015191;151.445343;106.445335;0.020254;0.017918;0.008737;-0.029486;-1.911263e-04;0.002232;0.029295;0.554595;0.010969;-0.010969;0.079661
-0.102475;3.088652;0.689186;-0.771741;0.078062;-0.049098;0.777231;-0.005454;0.00196;0.005492;1.716114;2.782368;0.359406;0.582712;0.004879;-0.008373;0.006626;160.154205;115.154205;0.008834;0.007739;-0.005454;0.011471;-4.873075e-04;0.00196;-0.011958;0.640089;-0.003494;0.003494;0.074476
-0.03531;3.088652;0.732389;-0.7715;0.077647;-0.051823;0.777127;-0.016085;0.00279;0.006897;3.636712;5.764474;0.173476;0.274974;0.005042;-0.018336;0.011689;0.129582;135.129578;0.015585;0.014206;-0.016085;0.015907;-0.002112;0.00279;-0.018019;0.680566;-0.013294;0.013294;0.063098
0.031855;3.088652;0.772521;-0.771929;0.077634;-0.055734;0.777823;-0.007794;0.004405;0.00175;1.728813;1.76955;0.565115;0.578431;0.004651;-0.00804;0.006346;8.741287;143.741287;0.008461;0.007414;-0.007794;0.004311;-8.106508e-04;0.004405;-0.005122;0.716787;-0.00339;0.00339;0.059523
0.099021;3.088652;0.814678;-0.772122;0.077419;-0.054145;0.77788;0.026488;0.005066;0.002169;-0.181539;-5.229113;-0.191237;-5.508466;0.026706;0.004848;0.010929;60.025848;15.025848;0.014572;0.016428;0.026488;0.00748;-0.003142;0.005066;-0.010621;0.760533;0.031554;-0.031554;0.070308
0.166186;3.088652;0.850322;-0.772278;0.077039;-0.046781;0.777519;0.025478;0.006984;0.005174;-0.210035;-3.648194;-0.274108;-4.761106;0.026827;0.005635;0.010596;73.844513;28.844515;0.014128;0.016334;0.025478;0.013972;-0.003624;0.006984;-0.017597;0.80354;0.032462;-0.032462;0.051562
0.233352;3.088652;0.895002;-0.77217;0.076895;-0.04685;0.777403;-0.006918;0.008121;0.004328;0.870364;0.851902;1.173845;1.148944;0.009278;-0.008075;0.008676;162.401215;117.401215;0.011568;0.010026;-0.006918;0.010842;-0.002186;0.008121;-0.013028;0.848152;0.001203;-0.001203;0.043546
0.300517;3.088652;0.918408;-0.771997;0.076846;-0.051935;0.777548;-0.012652;0.004466;0.00523;2.378755;2.833062;0.352975;0.420388;0.005937;-0.014123;0.01003;0.668862;135.668869;0.013374;0.011899;-0.012652;0.011589;-0.001129;0.004466;-0.012719;0.866473;-0.008186;0.008186;0.050283
0.367682;3.088652;0.929402;-0.772127;0.076786;-0.055086;0.777888;-0.008899;-0.013354;0.01105;153.37204;-0.66637;-1.500667;0.00652;1.460454e-04;-0.022399;0.011273;153.073502;108.073502;0.01503;0.014982;-0.008899;0.02123;8.706746e-04;-0.013354;-0.020359;0.874316;-0.022253;0.022253;0.028022
0.434848;3.088652;0.936672;-0.772208;0.077013;-0.060343;0.778382;-0.001375;-0.032254;0.001048;-24.105276;-0.042633;-23.456261;-0.041485;-0.00134;-0.032289;0.015475;137.237976;92.237976;0.020633;0.021094;-0.001375;8.746657e-04;0.001222;-0.032254;3.472778e-04;0.876329;-0.033629;0.033629;0.026217
0.502013;3.088652;0.923601;-0.772448;0.076838;-0.060224;0.778592;-0.00167;-0.012945;-0.004869;104.293968;-0.129;-7.75191;0.009588;1.414925e-04;-0.014757;0.007449;107.778336;62.778336;0.009932;0.009885;-0.00167;-0.003097;-0.006641;-0.012945;-0.003543;0.863378;-0.014615;0.014615;0.051134
0.569178;3.088652;0.922166;-0.772432;0.076576;-0.05261;0.777999;0.003259;0.008454;0.004503;-0.059506;-0.385521;-2.593891;-16.805099;0.011055;6.578478e-04;0.005199;122.124451;77.124451;0.006932;0.007161;0.003259;0.008494;5.121715e-04;0.008454;-0.007982;0.869556;0.011713;-0.011713;0.067896
0.636344;3.088652;0.932951;-0.772625;0.076779;-0.05119;0.778116;-0.004022;0.008014;-5.21771e-04;0.503246;0.501846;1.992641;1.9871;0.008037;-0.004044;0.006041;102.94397;57.943966;0.008054;0.007101;-0.004022;-0.00574;0.004697;0.008014;0.010437;0.881761;0.003992;-0.003992;0.054995
0.703509;3.088652;0.940344;-0.772611;0.076751;-0.051897;0.778146;1.72103e-04;0.006161;-3.363211e-04;-0.024801;-0.027932;-35.8009;-40.321003;0.00618;1.532767e-04;0.003013;130.688278;85.688278;0.004018;0.00407;1.72103e-04;-0.001187;5.140665e-04;0.006161;0.001701;0.888447;0.006334;-0.006334;0.003875
0.770674;3.088652;0.937591;-0.772495;0.076544;-0.052319;0.778039;-0.004539;0.005792;-0.003768;0.821469;0.783603;1.276157;1.217331;0.007021;-0.005767;0.006394;125.269218;80.269218;0.008525;0.007395;-0.004539;-0.004683;-0.002854;0.005792;0.001829;0.885271;0.001253;-0.001253;0.004446
0.83784;3.088652;0.913056;-0.772557;0.076343;-0.051417;0.778021;-0.01164;0.007991;-0.001927;1.44611;1.456571;0.686544;0.69151;0.008179;-0.011827;0.010003;52.133389;7.13339;0.013337;0.011614;-0.01164;-0.002028;-0.001826;0.007991;2.013706e-04;0.861639;-0.003649;0.003649;0.030168
0.905005;3.088652;0.899425;-0.772697;0.076436;-0.049528;0.778046;0.00482;0.011389;-0.011467;0.190869;-0.423225;-2.362811;5.239204;0.020032;-0.003823;0.011928;143.090912;98.090904;0.015904;0.014795;0.00482;-0.024353;0.00142;0.011389;0.025774;0.849897;0.016208;-0.016208;0.0439
0.97217;3.088652;0.867083;-0.773063;0.076549;-0.053608;0.778691;0.017159;0.006875;-0.011512;0.023991;-2.495649;-0.400697;41.682091;0.024625;-5.907827e-04;0.012608;171.977661;126.977669;0.016811;0.016617;0.017159;-0.021636;-0.001388;0.006875;0.020247;0.813475;0.024034;-0.024034;0.011415
1.039336;3.088652;0.838017;-0.772692;0.076056;-0.054295;0.778323;0.004738;0.002781;-0.001768;-0.300821;-1.703713;-0.586953;-3.324237;0.005781;0.001739;0.002021;34.473461;169.473465;0.002694;0.003425;0.004738;0.001385;-0.004921;0.002781;-0.006306;0.783721;0.007519;-0.007519;0.016858
1.106501;3.088652;0.802816;-0.772285;0.075645;-0.052369;0.777746;-0.012054;0.002052;-0.003976;4.23111;5.874633;0.170223;0.236345;0.003095;-0.013097;0.008096;67.612885;22.612883;0.010795;0.009926;-0.012054;-0.005392;-0.00256;0.002052;0.002832;0.750447;-0.010002;0.010002;0.068107
1.173667;3.088652;0.761285;-0.772675;0.075633;-0.051172;0.778052;-0.009127;2.378593e-04;7.254796e-04;31.263983;38.372238;0.026061;0.031986;2.937266e-04;-0.009183;0.004738;39.289688;174.289688;0.006318;0.006222;-0.009127;9.283695e-04;5.225898e-04;2.378593e-04;-4.057797e-04;0.710113;-0.008889;0.008889;0.066898
1.240832;3.088652;0.70898;-0.773369;0.075668;-0.052865;0.778858;0.005373;0.0067;0.024717;0.607534;-0.801899;-1.24704;1.645998;0.030763;-0.018689;0.024726;128.576752;83.576744;0.032968;0.028833;0.005373;0.048255;0.00118;0.0067;-0.047075;0.656115;0.012073;-0.012073;0.02354
1.307997;3.088652;0.620756;-0.77348;0.075657;-0.053908;0.779039;0.019817;0.005993;0.021553;0.273781;-3.306921;-0.302396;3.65255;0.035539;-0.00973;0.022635;109.940422;64.940422;0.03018;0.027516;0.019817;0.041937;0.00117;0.005993;-0.040766;0.566848;0.025809;-0.025809;0.006444
1.375163;3.088652;0.574243;-0.772952;0.075907;-0.061005;0.779063;0.039199;0.002056;0.006195;-0.026113;-19.067408;-0.052446;-38.295547;0.040205;0.00105;0.019577;63.849369;18.849369;0.026103;0.02646;0.039199;0.013399;-0.001009;0.002056;-0.014408;0.513237;0.041254;-0.041254;0.023903
1.442328;3.088652;0.497893;-0.772314;0.075973;-0.066269;0.778866;0.035789;0.002143;0.007667;-0.012774;-16.70018;-0.05988;-78.284393;0.037454;4.784336e-04;0.018488;71.16423;26.164234;0.02465;0.024811;0.035789;0.017679;-0.002345;0.002143;-0.020024;0.431624;0.037932;-0.037932;0.075493
-0.371137;3.021486;0.319104;-0.77152;0.078197;-0.054558;0.77739;-0.022695;0.006077;0.016607;2.216348;3.734554;0.26777;0.451193;0.013662;-0.03028;0.021971;169.814438;124.81443;0.029295;0.025968;-0.022695;0.031767;0.001447;0.006077;-0.03032;0.264547;-0.016618;0.016618;0.033856
-0.303971;3.021486;0.419895;-0.771925;0.078335;-0.056407;0.777937;0.009028;0.00352;0.015024;0.41768;-2.564473;-0.389944;2.394178;0.021548;-0.009;0.015274;119.090431;74.090431;0.020365;0.018126;0.009028;0.031006;-9.583507e-04;0.00352;-0.031964;0.363488;0.012548;-0.012548;0.049494
-0.236806;3.021486;0.513558;-0.771786;0.077827;-0.049904;0.777304;0.028696;0.00255;0.005203;-0.052288;-11.254292;-0.088855;-19.12483;0.029693;0.001553;0.01407;70.196129;25.196133;0.01876;0.019298;0.028696;0.013753;-0.003348;0.00255;-0.0171;0.463654;0.031245;-0.031245;0.057167
-0.169641;3.021486;0.607522;-0.771663;0.077548;-0.049816;0.777148;-0.010971;0.004484;0.007435;1.867171;2.44664;0.408724;0.53557;0.00748;-0.013967;0.010724;168.386703;123.386711;0.014298;0.01257;-0.010971;0.016032;-0.001161;0.004484;-0.017193;0.557706;-0.006487;0.006487;0.07766
-0.102475;3.021486;0.693971;-0.771807;0.07771;-0.056815;0.777787;-0.022767;0.008728;0.012676;2.063837;2.608413;0.383375;0.484534;0.013196;-0.027235;0.020216;173.602997;128.602997;0.026954;0.023808;-0.022767;0.027044;-0.001691;0.008728;-0.028735;0.637157;-0.014039;0.014039;0.074643
-0.03531;3.021486;0.732117;-0.771691;0.077333;-0.05853;0.777762;-0.003109;0.006131;0.004127;0.607815;0.507059;1.972156;1.645236;0.007706;-0.004684;0.006195;153.024643;108.024643;0.00826;0.007224;-0.003109;0.011131;-0.002877;0.006131;-0.014009;0.673587;0.003022;-0.003022;0.060931
0.031855;3.021486;0.747132;-0.771921;0.077359;-0.056963;0.777876;-0.00391;0.003764;7.419268e-04;1.038018;1.038736;0.962709;0.963375;0.003835;-0.003981;0.003908;176.496536;131.496536;0.00521;0.004513;-0.00391;0.001801;-3.170851e-04;0.003764;-0.002118;0.690169;-1.457927e-04;1.457927e-04;0.060402
0.099021;3.021486;0.783521;-0.771972;0.077122;-0.056807;0.777892;0.01301;0.006148;0.008791;-0.007453;-2.116265;-0.472531;-134.176544;0.019016;1.417203e-04;0.009437;104.443932;59.443928;0.012583;0.01263;0.01301;0.020291;-0.002709;0.006148;-0.023;0.726714;0.019157;-0.019157;0.058666
0.166186;3.021486;0.831891;-0.772273;0.076749;-0.052236;0.777833;0.020719;0.008999;0.015219;0.046512;-2.302474;-0.434315;21.499741;0.031167;-0.00145;0.016308;105.804443;60.804447;0.021745;0.021278;0.020719;0.034702;-0.004263;0.008999;-0.038965;0.779654;0.029717;-0.029717;0.019551
0.233352;3.021486;0.866989;-0.772416;0.076302;-0.050416;0.777811;-0.00241;0.011711;0.009842;0.445155;0.205782;4.859509;2.246408;0.016763;-0.007462;0.012113;140.763641;95.763641;0.016151;0.014326;-0.00241;0.020226;-5.410916e-04;0.011711;-0.020767;0.816573;0.009301;-0.009301;0.001649
0.300517;3.021486;0.908017;-0.772277;0.076388;-0.051727;0.777767;-0.014314;0.006647;0.00508;1.981297;2.153491;0.464362;0.50472;0.007813;-0.015481;0.011647;12.646038;147.646042;0.015529;0.013689;-0.014314;0.008168;0.001993;0.006647;-0.006175;0.856289;-0.007667;0.007667;0.026496
0.367682;3.021486;0.95438;-0.772266;0.076687;-0.055974;0.77808;-0.019783;0.001712;4.523695e-04;11.493929;11.552239;0.086563;0.087002;0.001722;-0.019793;0.010757;49.914394;4.914393;0.014343;0.013805;-0.019783;-0.001508;0.002412;0.001712;0.00392;0.898406;-0.018071;0.018071;0.035779
0.434848;3.021486;0.970795;-0.772291;0.077085;-0.062095;0.778608;8.229043e-04;0.003237;0.003962;0.342131;-0.254207;-3.933799;2.92286;0.006172;-0.002111;0.004141;124.373413;79.373413;0.005522;0.00497;8.229043e-04;0.006541;0.001382;0.003237;-0.00516;0.908699;0.00406;-0.00406;0.037651
0.502013;3.021486;0.945605;-0.77243;0.076996;-0.059459;0.778532;-0.010335;0.002362;-0.001434;4.161413;4.37544;0.228548;0.240303;0.002522;-0.010495;0.006509;34.744671;169.744675;0.008678;0.007972;-0.010335;0.001179;-0.004046;0.002362;-0.005225;0.886146;-0.007973;0.007973;0.062485
0.569178;3.021486;0.933242;-0.77234;0.076407;-0.050633;0.77776;0.002124;0.001793;-0.002913;0.19677;-1.184169;-0.844474;5.082081;0.004877;-9.595904e-04;0.002918;2.436677;137.436676;0.003891;0.003614;0.002124;-0.002858;-0.002969;0.001793;-1.114067e-04;0.882609;0.003917;-0.003917;0.0544
0.636344;3.021486;0.938395;-0.772542;0.07652;-0.053457;0.778161;-0.006493;5.967087e-04;0.005457;2.656676;10.882055;0.091894;0.37641;0.003559;-0.009456;0.006508;173.08403;128.08403;0.008677;0.007767;-0.006493;0.008601;0.002313;5.967087e-04;-0.006288;0.884939;-0.005897;0.005897;0.037527
0.703509;3.021486;0.956926;-0.772645;0.076484;-0.060606;0.778783;-0.002779;0.003587;0.001791;0.800829;0.774771;1.290703;1.248706;0.004057;-0.003249;0.003653;149.318527;104.318527;0.00487;0.004227;-0.002779;0.002438;0.001145;0.003587;-0.001293;0.89632;8.080006e-04;-8.080006e-04;0.055369
0.770674;3.021486;0.957541;-0.772858;0.076376;-0.059824;0.778923;-0.015692;0.004973;-0.004183;2.851829;3.155116;0.316946;0.350652;0.005788;-0.016506;0.011147;55.117264;10.117262;0.014863;0.013358;-0.015692;-0.004014;-0.004352;0.004973;-3.376679e-04;0.897717;-0.010718;0.010718;0.046913
0.83784;3.021486;0.911106;-0.772901;0.076176;-0.051534;0.778353;-0.012509;0.005163;-0.001873;2.370862;2.422973;0.412716;0.421788;0.005359;-0.012706;0.009032;44.907272;179.907272;0.012043;0.010713;-0.012509;-0.001082;-0.002664;0.005163;-0.001582;0.859572;-0.007347;0.007347;0.056371
0.905005;3.021486;0.887337;-0.77266;0.076231;-0.055069;0.778362;0.009952;0.006315;-9.006206e-04;-0.600619;-1.575992;-0.634521;-1.664948;0.010163;0.006104;0.002029;27.70155;162.701553;0.002706;0.005907;0.009952;-0.00208;2.78845e-04;0.006315;0.002359;0.832268;0.016267;-0.016267;0.076614
0.97217;3.021486;0.856244;-0.772957;0.076246;-0.058444;0.778904;-0.001922;0.003578;0.003598;0.690892;0.537263;1.861287;1.447404;0.005356;-0.003701;0.004528;149.272827;104.27282;0.006038;0.005258;-0.001922;0.008915;-0.001719;0.003578;-0.010634;0.7978;0.001656;-0.001656;0.041156
1.039336;3.021486;0.828394;-0.772933;0.075767;-0.054294;0.778533;0.006482;0.002126;0.004157;0.043252;-3.049103;-0.327965;23.120356;0.008997;-3.891306e-04;0.004693;106.966087;61.966091;0.006257;0.006132;0.006482;0.012112;-0.003798;0.002126;-0.015909;0.7741;0.008608;-0.008608;0.038174
1.106501;3.021486;0.809184;-0.772597;0.075736;-0.059183;0.778553;0.002342;9.568377e-05;-6.689803e-04;0.034996;-24.481274;-0.040848;28.57453;0.002527;-8.842015e-05;0.001307;21.57411;156.574112;0.001743;0.001715;0.002342;-0.00102;-3.176229e-04;9.568377e-05;7.027147e-04;0.750001;0.002438;-0.002438;0.061098
1.173667;3.021486;0.771019;-0.772823;0.075857;-0.054811;0.778469;-0.032037;-0.001095;-0.003538;-46.665993;-29.270195;-0.034164;-0.021429;-6.950762e-04;-0.032436;0.015871;57.075718;12.075716;0.021161;0.021396;-0.032037;-0.006839;-2.373388e-04;-0.001095;0.006602;0.716207;-0.033131;0.033131;0.063457
1.240832;3.021486;0.725827;-0.773579;0.075771;-0.045954;0.778638;-0.007422;-0.001027;0.001096;-9.001137;-7.223893;-0.13843;-0.111097;-8.448405e-04;-0.007605;0.00338;28.405087;163.40509;0.004506;0.004813;-0.007422;0.00217;2.121237e-05;-0.001027;-0.002149;0.679873;-0.008449;0.008449;0.030132
1.307997;3.021486;0.654202;-0.773619;0.07591;-0.04963;0.778918;0.027628;-0.001139;0.005344;0.073457;24.246565;0.041243;13.613451;0.028588;-0.0021;0.015344;63.643513;18.643513;0.020459;0.019796;0.027628;0.009369;0.001318;-0.001139;-0.008051;0.604572;0.026488;-0.026488;0.005784
1.375163;3.021486;0.585394;-0.77318;0.075966;-0.054758;0.77883;0.031874;7.207145e-05;0.01809;0.202514;-442.254333;-0.002261;4.937933;0.040058;-0.008112;0.024085;95.343979;50.343975;0.032114;0.02978;0.031874;0.038537;-0.002356;7.207145e-05;-0.040892;0.530636;0.031946;-0.031946;0.068919
1.442328;3.021486;0.478427;-0.772342;0.075363;-0.057269;0.778121;0.033252;-3.720471e-04;0.024233;0.284183;89.375809;0.011189;3.518854;0.045934;-0.013054;0.029494;102.417938;57.417934;0.039325;0.035776;0.033252;0.05224;-0.003775;-3.720471e-04;-0.056015;0.421158;0.03288;-0.03288;0.116273
-0.371137;2.954321;0.333066;-0.771252;0.077467;-0.058345;0.777326;-0.027652;0.00756;0.020051;2.207613;3.657593;0.273404;0.452978;0.016638;-0.036729;0.026683;172.054184;127.054184;0.035578;0.031531;-0.027652;0.035625;0.004476;0.00756;-0.031149;0.27472;-0.020092;0.020092;0.035164
-0.303971;2.954321;0.427747;-0.771908;0.078264;-0.063782;0.778483;0.009432;0.004896;0.018128;0.436641;-1.926508;-0.519074;2.290211;0.025434;-0.011105;0.018269;120.414032;75.414032;0.024359;0.02163;0.009432;0.035824;4.322625e-04;0.004896;-0.035392;0.363965;0.014328;-0.014328;0.063031
-0.236806;2.954321;0.502274;-0.77169;0.077746;-0.05508;0.777549;0.038846;0.002696;0.016173;0.077365;-14.409049;-0.069401;12.925661;0.045025;-0.003483;0.024254;87.445251;42.445248;0.032339;0.031243;0.038846;0.035589;-0.003243;0.002696;-0.038832;0.447194;0.041542;-0.041542;0.065545
-0.169641;2.954321;0.593634;-0.771586;0.077418;-0.051355;0.777158;-1.807628e-04;0.002254;1.227653e-04;0.082707;0.080195;12.469682;12.090856;0.00226;-1.869371e-04;0.001224;165.369873;120.369881;0.001631;0.001573;-1.807628e-04;0.002507;-0.002261;0.002254;-0.004768;0.542279;0.002073;-0.002073;0.070626
-0.102475;2.954321;0.656454;-0.771918;0.077232;-0.057171;0.777876;-0.007077;-0.002534;-0.022568;1.537671;-2.792764;-0.358068;0.650334;0.017876;-0.027487;0.022682;125.294167;80.294167;0.030242;0.026386;-0.007077;-0.042336;-0.0028;-0.002534;0.039536;0.599283;-0.009611;0.009611;0.080222
-0.03531;2.954321;0.728821;-0.771875;0.076999;-0.053859;0.777574;0.005579;0.001148;-0.026946;0.778731;-4.861119;-0.205714;1.284141;0.0304;-0.023673;0.027037;141.191727;96.191727;0.036049;0.0313;0.005579;-0.051877;-0.002014;0.001148;0.049863;0.674962;0.006727;-0.006727;0.067611
0.031855;2.954321;0.763572;-0.771923;0.077142;-0.053761;0.777629;-0.018208;0.009168;-0.008211;1.790057;1.986034;0.503516;0.558641;0.011442;-0.020482;0.015962;92.936958;47.936958;0.021282;0.018676;-0.018208;-0.017866;0.001444;0.009168;0.01931;0.709811;-0.00904;0.00904;0.068716
0.099021;2.954321;0.785925;-0.772057;0.077187;-0.059611;0.778192;-0.011589;-0.001219;0.004177;51.366909;-9.509187;-0.105161;0.019468;2.542847e-04;-0.013062;0.006658;6.189499;141.189499;0.008877;0.008794;-0.011589;0.00932;-9.663315e-04;-0.001219;-0.010286;0.726315;-0.012808;0.012808;0.081328
0.166186;2.954321;0.831039;-0.772243;0.077068;-0.055668;0.778073;0.017647;-0.003051;0.012819;0.386048;5.783625;0.172902;2.59035;0.023773;-0.009178;0.016475;103.734421;58.734417;0.021967;0.019636;0.017647;0.029509;-0.00387;-0.003051;-0.03338;0.775371;0.014596;-0.014596;0.048666
0.233352;2.954321;0.864378;-0.772289;0.076518;-0.053733;0.777928;0.007217;-5.769379e-04;0.005968;0.364442;12.508426;0.079946;2.743919;0.010447;-0.003807;0.007127;110.074135;65.074135;0.009503;0.008522;0.007217;0.017028;-0.005093;-5.769379e-04;-0.022121;0.810646;0.00664;-0.00664;0.014897
0.300517;2.954321;0.879358;-0.772407;0.07652;-0.055502;0.77817;-0.003276;-0.001183;0.001207;-6.058334;-2.76875;-0.361174;-0.165062;-6.316972e-04;-0.003827;0.001598;25.333317;160.333313;0.00213;0.002369;-0.003276;8.240968e-04;0.001591;-0.001183;7.666175e-04;0.823856;-0.004459;0.004459;0.039071
0.367682;2.954321;0.932972;-0.772397;0.076569;-0.053825;0.778047;-0.008103;-0.004885;-0.004743;-7.746088;-1.658681;-0.602889;-0.129097;-0.001485;-0.011503;0.005009;105.78511;60.78511;0.006678;0.007224;-0.008103;-0.012567;0.00308;-0.004885;0.015647;0.879147;-0.012987;0.012987;0.068623
0.434848;2.954321;0.945819;-0.772582;0.076654;-0.055329;0.778344;-1.307345e-04;-0.010095;-0.001567;94.172089;-0.012951;-77.216522;0.010619;1.097495e-04;-0.010335;0.005223;135.371124;90.371132;0.006963;0.006927;-1.307345e-04;-0.003247;1.141939e-04;-0.010095;0.003361;0.89049;-0.010226;0.010226;0.059994
0.502013;2.954321;0.920689;-0.772773;0.07671;-0.058598;0.778778;-0.001541;-0.002132;0.004779;2.24427;-0.722646;-1.383803;0.445579;0.002952;-0.006625;0.004789;138.002396;93.002403;0.006385;0.005663;-0.001541;0.015701;-0.006143;-0.002132;-0.021844;0.862091;-0.003673;0.003673;0.058083
0.569178;2.954321;0.944527;-0.772769;0.076251;-0.053426;0.778358;0.008897;-1.240095e-04;-8.499234e-04;0.022658;71.744377;0.013938;44.134274;0.008976;-2.033875e-04;0.00459;64.363808;19.36381;0.00612;0.006053;0.008897;0.004268;-0.005968;-1.240095e-04;-0.010235;0.891101;0.008773;-0.008773;0.04238
0.636344;2.954321;0.952844;-0.772866;0.076178;-0.053945;0.778483;-0.001148;-0.004407;-9.012421e-04;-5.070806;-0.260396;-3.840307;-0.197207;-9.149551e-04;-0.00464;0.001862;142.028076;97.028076;0.002483;0.002838;-0.001148;-0.003491;0.001689;-0.004407;0.00518;0.898899;-0.005555;0.005555;0.035156
0.703509;2.954321;0.938356;-0.77294;0.07635;-0.06239;0.779203;-4.16454e-04;-0.00682;-0.002001;47.009895;-0.061064;-16.376146;0.021272;1.572785e-04;-0.007394;0.003775;147.7742;102.7742;0.005034;0.004982;-4.16454e-04;-0.007691;0.00369;-0.00682;0.011381;0.875966;-0.007236;0.007236;0.041157
0.770674;2.954321;0.934553;-0.773162;0.076184;-0.059504;0.779182;-0.013008;-1.492127e-04;0.006136;6.697847;-87.175377;-0.011471;0.149302;0.002309;-0.015466;0.008888;175.790558;130.790558;0.01185;0.01116;-0.013008;0.015446;-0.003174;-1.492127e-04;-0.01862;0.875049;-0.013157;0.013157;0.027005
0.83784;2.954321;0.913001;-0.773087;0.075719;-0.050966;0.778457;-0.013447;0.002924;0.003275;3.960061;4.598684;0.217454;0.252521;0.003555;-0.014077;0.008816;9.325964;144.325958;0.011755;0.010767;-0.013447;0.009444;-0.002894;0.002924;-0.012339;0.862035;-0.010523;0.010523;0.047673
0.905005;2.954321;0.882269;-0.772852;0.075504;-0.052737;0.77832;0.003378;0.001376;0.004888;0.354704;-2.455675;-0.40722;2.819248;0.007366;-0.002613;0.00499;109.933014;64.933014;0.006653;0.005975;0.003378;0.00787;0.001906;0.001376;-0.005963;0.829532;0.004753;-0.004753;0.065799
0.97217;2.954321;0.855261;-0.772983;0.075824;-0.049506;0.778269;-0.007068;7.493582e-04;0.005674;2.693635;9.431782;0.106025;0.371246;0.003731;-0.010049;0.00689;170.565964;125.565964;0.009187;0.00823;-0.007068;0.009932;0.001415;7.493582e-04;-0.008517;0.805755;-0.006318;0.006318;0.034969
1.039336;2.954321;0.832088;-0.773179;0.075748;-0.048046;0.778365;0.009022;0.00151;0.004546;0.056531;-5.974987;-0.167364;17.689547;0.011163;-6.310478e-04;0.005897;96.480843;51.480839;0.007863;0.007661;0.009022;0.011415;-0.002323;0.00151;-0.013738;0.784043;0.010532;-0.010532;0.042252
1.106501;2.954321;0.812442;-0.773173;0.075647;-0.05677;0.778937;0.009416;0.001535;0.008631;0.268151;-6.13402;-0.163025;3.729239;0.014964;-0.004013;0.009488;108.337097;63.337093;0.012651;0.011548;0.009416;0.018597;-0.001334;0.001535;-0.019931;0.755671;0.010951;-0.010951;0.054438
1.173667;2.954321;0.766854;-0.772933;0.075713;-0.053912;0.778502;-0.019747;0.003497;0.003166;5.144476;5.6465;0.177101;0.194383;0.003921;-0.02017;0.012046;29.135674;164.135666;0.016061;0.014926;-0.019747;0.005571;7.614805e-04;0.003497;-0.00481;0.712943;-0.01625;0.01625;0.053789
1.240832;2.954321;0.721821;-0.773007;0.075775;-0.050884;0.778377;-0.002972;0.009214;-0.012991;0.642682;0.322526;3.100527;1.555979;0.017471;-0.011228;0.014349;128.593399;83.593399;0.019132;0.016699;-0.002972;-0.02729;0.001307;0.009214;0.028597;0.670937;0.006243;-0.006243;0.043482
1.307997;2.954321;0.663523;-0.773054;0.076176;-0.054435;0.778703;0.006324;0.007061;-0.011002;0.243786;-0.895663;-1.116491;4.101964;0.0177;-0.004315;0.011008;149.48465;104.48465;0.014677;0.013471;0.006324;-0.02219;1.867701e-04;0.007061;0.022377;0.609088;0.013385;-0.013385;0.038442
1.375163;2.954321;0.571504;-0.77328;0.076005;-0.052267;0.778762;0.014099;0.004252;0.004953;-0.135639;-3.315642;-0.301601;-7.372488;0.016159;0.002192;0.006984;89.235786;44.235786;0.009312;0.010122;0.014099;0.013599;-0.003693;0.004252;-0.017292;0.519238;0.018351;-0.018351;0.035659
1.442328;2.954321;0.450011;-0.773028;0.075158;-0.059626;0.778958;0.02862;0.002034;0.019955;0.220075;-14.071459;-0.071066;4.54391;0.039304;-0.00865;0.023977;102.518867;57.518871;0.031969;0.029512;0.02862;0.045172;-0.005262;0.002034;-0.050434;0.390385;0.030654;-0.030654;0.057358
-0.371137;2.887156;0.310169;-0.771375;0.077124;-0.060545;0.777582;-0.008991;3.54956e-04;-0.014174;1.814252;25.331299;0.039477;0.551192;0.010607;-0.019243;0.014925;119.301208;74.301208;0.0199;0.017473;-0.008991;-0.032657;0.004308;3.54956e-04;0.036965;0.249624;-0.008637;0.008637;0.035802
-0.303971;2.887156;0.426665;-0.771826;0.077724;-0.061405;0.778156;0.00385;0.004445;-0.017135;0.610271;-0.866103;-1.154597;1.638615;0.021286;-0.01299;0.017138;140.767944;95.767952;0.022851;0.019981;0.00385;-0.035797;0.001527;0.004445;0.037324;0.365261;0.008296;-0.008296;0.066096
-0.236806;2.887156;0.515861;-0.771827;0.077514;-0.057874;0.777865;0.027773;0.001543;6.829514e-04;-0.05489;-17.996857;-0.055565;-18.218149;0.027791;0.001525;0.013133;50.771408;5.77141;0.01751;0.01804;0.027773;0.00289;-0.001524;0.001543;-0.004414;0.457986;0.029317;-0.029317;0.076261
-0.169641;2.887156;0.595936;-0.771931;0.0775;-0.051446;0.777516;0.027851;-0.00165;0.002926;0.068871;16.874182;0.059262;14.51983;0.028138;-0.001938;0.015038;63.583813;18.583813;0.020051;0.019437;0.027851;0.009301;-0.003448;-0.00165;-0.012749;0.54449;0.0262;-0.0262;0.09731
-0.102475;2.887156;0.642743;-0.77229;0.076905;-0.045562;0.777446;0.011624;0.00144;-0.010911;0.296565;-8.069798;-0.123919;3.371947;0.018573;-0.005508;0.01204;169.161575;124.161568;0.016054;0.014569;0.011624;-0.017841;-0.00398;0.00144;0.013861;0.597181;0.013065;-0.013065;0.098397
-0.03531;2.887156;0.719805;-0.772074;0.076762;-0.044861;0.777176;-0.002208;0.001398;-0.009424;1.08805;1.578704;0.633431;0.919075;0.009191;-0.01;0.009595;128.187149;83.187157;0.012794;0.011083;-0.002208;-0.017712;-0.001137;0.001398;0.016574;0.674944;-8.092389e-04;8.092389e-04;0.074143
0.031855;2.887156;0.769417;-0.772034;0.076904;-0.047792;0.777325;-0.034482;0.002784;-0.00299;11.489322;12.387372;0.080727;0.087037;0.003022;-0.034721;0.018871;57.720306;12.720307;0.025162;0.024217;-0.034482;-0.007632;0.001653;0.002784;0.009284;0.721624;-0.031699;0.031699;0.061716
0.099021;2.887156;0.804978;-0.772261;0.077136;-0.059572;0.778387;-0.036332;0.001734;0.0044;16.471163;20.948769;0.047736;0.060712;0.002236;-0.036834;0.019535;33.903294;168.90329;0.026047;0.025334;-0.036332;0.007195;0.001605;0.001734;-0.005589;0.745406;-0.034598;0.034598;0.062592
0.166186;2.887156;0.832804;-0.772461;0.07723;-0.063364;0.778893;0.011232;0.001984;0.009702;0.238507;-5.661822;-0.176622;4.19275;0.017355;-0.004139;0.010747;108.980911;63.980911;0.01433;0.013169;0.011232;0.022924;-0.003521;0.001984;-0.026444;0.769441;0.013216;-0.013216;0.076767
0.233352;2.887156;0.862375;-0.772526;0.076686;-0.05437;0.778224;0.028038;0.002426;0.004513;-0.0574;-11.558351;-0.086518;-17.42149;0.02881;0.001654;0.013578;70.32103;25.32103;0.018104;0.01868;0.028038;0.013748;-0.004721;0.002426;-0.01847;0.808005;0.030464;-0.030464;0.077998
0.300517;2.887156;0.884001;-0.772531;0.076589;-0.05137;0.778016;0.001674;0.001704;-0.002326;0.158746;-0.98266;-1.017646;6.299389;0.004015;-6.373756e-04;0.002326;155.144714;110.144714;0.003102;0.002913;0.001674;-0.004293;-3.594654e-04;0.001704;0.003933;0.832631;0.003378;-0.003378;0.058834
0.367682;2.887156;0.910223;-0.772502;0.076664;-0.053839;0.778161;-0.006455;0.002612;-5.254608e-04;2.454759;2.471663;0.404586;0.407372;0.002642;-0.006486;0.004564;48.666832;3.666831;0.006085;0.005424;-0.006455;-5.496946e-04;-5.012269e-04;0.002612;4.846779e-05;0.856384;-0.003844;0.003844;0.058733
0.434848;2.887156;0.913901;-0.772826;0.076319;-0.053038;0.778394;-0.003553;0.004437;2.080164e-05;0.800807;0.800804;1.248745;1.248741;0.004437;-0.003553;0.003995;172.382248;127.382256;0.005327;0.004623;-0.003553;0.001677;-0.001636;0.004437;-0.003313;0.860862;8.838805e-04;-8.838805e-04;0.061077
0.502013;2.887156;0.910293;-0.77294;0.076223;-0.056709;0.778757;0.002874;0.006412;-0.001826;-0.292355;-0.448213;-2.231081;-3.420504;0.007185;0.002101;0.002542;156.519318;111.519318;0.00339;0.004266;0.002874;-0.002058;-0.001593;0.006412;4.651407e-04;0.853583;0.009285;-0.009285;0.052312
0.569178;2.887156;0.928034;-0.77263;0.076166;-0.048765;0.777905;0.011047;2.759183e-04;-0.002454;0.022175;-40.036728;-0.024977;45.096836;0.01158;-2.567709e-04;0.005918;27.245628;162.245621;0.007891;0.007807;0.011047;-0.003556;-0.001352;2.759183e-04;0.002204;0.879269;0.011323;-0.011323;0.042416
0.636344;2.887156;0.923046;-0.772843;0.076256;-0.042059;0.777734;-0.00289;-0.002411;-0.001091;-2.457335;-1.198775;-0.834185;-0.406945;-0.001533;-0.003767;0.001117;88.154221;43.154217;0.001489;0.002187;-0.00289;-0.001496;-6.858959e-04;-0.002411;8.103576e-04;0.880987;-0.0053;0.0053;0.041
0.703509;2.887156;0.925642;-0.773072;0.076129;-0.050832;0.778473;-0.005772;0.009338;-0.001666;0.625423;0.618142;1.617752;1.598919;0.009519;-0.005954;0.007737;176.383789;131.383789;0.010315;0.009012;-0.005772;0.003322;-0.006654;0.009338;-0.009976;0.874809;0.003566;-0.003566;0.035648
0.770674;2.887156;0.945489;-0.773221;0.075798;-0.054098;0.778808;-0.002529;0.009523;0.006724;0.441664;0.265605;3.764993;2.264164;0.012526;-0.005532;0.009029;145.207932;100.207924;0.012039;0.010683;-0.002529;0.015622;-0.002175;0.009523;-0.017797;0.891391;0.006994;-0.006994;0.049669
0.83784;2.887156;0.90291;-0.773159;0.075743;-0.052014;0.7786;-0.006916;0.00202;0.007634;1.765323;3.423667;0.292084;0.566468;0.006398;-0.011294;0.008846;158.996811;113.996819;0.011794;0.010344;-0.006916;0.015327;-5.842516e-05;0.00202;-0.015385;0.850896;-0.004896;0.004896;0.086184
0.905005;2.887156;0.854372;-0.77319;0.075608;-0.052423;0.778645;-0.001844;2.567287e-04;0.007208;1.244475;7.181282;0.139251;0.803551;0.006491;-0.008078;0.007285;142.929581;97.929573;0.009713;0.008428;-0.001844;0.013179;0.001238;2.567287e-04;-0.011941;0.80195;-0.001587;0.001587;0.051438
0.97217;2.887156;0.85197;-0.773144;0.076058;-0.053271;0.778701;-9.000901e-04;0.001573;0.004733;0.871358;0.572334;1.747232;1.147633;0.005228;-0.004556;0.004892;139.405014;94.405014;0.006523;0.005653;-9.000901e-04;0.008027;0.001439;0.001573;-0.006588;0.798699;6.725765e-04;-6.725765e-04;0.008496
1.039336;2.887156;0.847543;-0.773379;0.075986;-0.053635;0.778951;0.011214;0.00331;-0.003818;-0.138534;-3.387981;-0.295161;-7.21847;0.012757;0.001767;0.005495;16.388624;151.388626;0.007326;0.007981;0.011214;-0.005523;-0.002112;0.00331;0.00341;0.793908;0.014524;-0.014524;0.031083
1.106501;2.887156;0.804447;-0.773434;0.075402;-0.053465;0.778937;0.001485;0.004546;-0.003403;0.106118;-0.326664;-3.061248;9.423488;0.006747;-7.159316e-04;0.003731;162.291199;117.291199;0.004975;0.004754;0.001485;-0.004;-0.002806;0.004546;0.001194;0.750982;0.006031;-0.006031;0.03906
1.173667;2.887156;0.746211;-0.773076;0.075332;-0.052004;0.778477;-0.005673;0.00523;0.002237;1.07804;1.084624;0.921979;0.927609;0.005671;-0.006114;0.005892;170.201797;125.201797;0.007857;0.006806;-0.005673;0.006902;-0.002428;0.00523;-0.00933;0.694208;-4.425764e-04;4.425764e-04;0.0375
1.240832;2.887156;0.692244;-0.773309;0.075309;-0.055666;0.778959;0.001079;0.006728;0.004151;0.12519;-0.160416;-6.233791;7.987881;0.008925;-0.001117;0.005021;130.386841;85.386841;0.006695;0.006355;0.001079;0.008271;3.137622e-05;0.006728;-0.00824;0.636578;0.007808;-0.007808;0.038853
1.307997;2.887156;0.632815;-0.773307;0.075368;-0.053534;0.778814;-0.004613;0.008063;0.007894;0.708873;0.572182;1.747697;1.410689;0.011848;-0.008399;0.010124;148.722641;103.722641;0.013498;0.011746;-0.004613;0.016514;-7.254926e-04;0.008063;-0.017239;0.579281;0.003449;-0.003449;0.034327
1.375163;2.887156;0.553953;-0.773245;0.075014;-0.052966;0.778678;-0.004506;0.007709;0.013036;0.799755;0.584453;1.711;1.250382;0.015998;-0.012794;0.014396;144.564438;99.564438;0.019194;0.016657;-0.004506;0.028344;-0.002271;0.007709;-0.030615;0.500987;0.003203;-0.003203;0.002823
1.442328;2.887156;0.445655;-0.773632;0.074773;-0.049779;0.778829;-0.003441;0.004429;0.027098;0.964546;0.776863;1.287228;1.036757;0.027877;-0.026888;0.027382;138.643188;93.643196;0.03651;0.03162;-0.003441;0.056099;-0.001903;0.004429;-0.058002;0.395876;9.883412e-04;-9.883412e-04;0.024345
-0.371137;2.81999;0.293995;-0.77178;0.077183;-0.054692;0.777556;-0.004529;-0.001766;-0.01227;1.684127;-2.564659;-0.389915;0.593779;0.009201;-0.015495;0.012348;125.591309;80.591309;0.016464;0.014412;-0.004529;-0.026592;0.002051;-0.001766;0.028643;0.239303;-0.006294;0.006294;0.073093
-0.303971;2.81999;0.435527;-0.771978;0.077534;-0.053753;0.777721;-0.008491;6.730436e-04;-0.002995;5.996444;12.616405;0.079262;0.166765;0.001565;-0.009383;0.005474;84.338715;39.338711;0.007299;0.006837;-0.008491;-0.006974;9.850914e-04;6.730436e-04;0.007959;0.381774;-0.007818;0.007818;0.05609
-0.236806;2.81999;0.53456;-0.771921;0.077458;-0.057227;0.777905;0.005029;-8.303841e-04;0.011366;0.696529;6.056762;0.165105;1.43569;0.013837;-0.009638;0.011737;122.189804;77.189804;0.01565;0.013625;0.005029;0.022003;7.282214e-04;-8.303841e-04;-0.021275;0.477333;0.004199;-0.004199;0.077028
-0.169641;2.81999;0.616345;-0.771871;0.077744;-0.055985;0.777794;0.029559;-0.001522;0.017973;0.25787;19.416859;0.051502;3.87793;0.037778;-0.009742;0.02376;96.854088;51.854088;0.03168;0.028984;0.029559;0.037667;-0.001721;-0.001522;-0.039388;0.56036;0.028036;-0.028036;0.120814
-0.102475;2.81999;0.659891;-0.772315;0.07701;-0.049222;0.777704;0.017416;-6.99946e-04;0.022123;0.481898;24.881575;0.04019;2.075129;0.032264;-0.015548;0.023906;115.508904;70.508904;0.031874;0.028161;0.017416;0.049952;-0.005706;-6.99946e-04;-0.055658;0.610669;0.016716;-0.016716;0.09284
-0.03531;2.81999;0.716881;-0.772072;0.076757;-0.051181;0.777564;0.00266;0.003109;0.018288;0.72757;-0.855614;-1.168751;1.374439;0.021173;-0.015405;0.018289;131.396301;86.396294;0.024386;0.021206;0.00266;0.039045;-0.002469;0.003109;-0.041514;0.6657;0.005768;-0.005768;0.062498
0.031855;2.81999;0.760915;-0.772146;0.076744;-0.050489;0.777592;-0.021888;0.004276;0.001612;5.025799;5.118965;0.195352;0.198973;0.004375;-0.021987;0.013181;37.325916;172.325912;0.017575;0.016313;-0.021888;0.0029;3.237858e-04;0.004276;-0.002577;0.710426;-0.017613;0.017613;0.050529
0.099021;2.81999;0.803645;-0.772353;0.076839;-0.058242;0.778348;-0.035207;4.019531e-04;-0.01325;8.26443;87.590752;0.011417;0.121;0.004791;-0.039597;0.022194;82.007683;37.007679;0.029592;0.028131;-0.035207;-0.026536;3.563439e-05;4.019531e-04;0.026571;0.745403;-0.034805;0.034805;0.052429
0.166186;2.81999;0.826981;-0.772531;0.07701;-0.066316;0.779187;0.001364;-0.00364;-0.013406;1.182107;0.374652;2.669145;0.845947;0.012499;-0.014775;0.013637;137.450348;92.450348;0.018183;0.015765;0.001364;-0.024868;-0.001943;-0.00364;0.022925;0.760664;-0.002276;0.002276;0.085175
0.233352;2.81999;0.850735;-0.772673;0.076416;-0.056989;0.778531;0.034434;-2.882742e-04;-0.007682;0.053024;119.44825;0.008372;18.859531;0.036057;-0.001912;0.018985;26.906029;161.906021;0.025313;0.0247;0.034434;-0.01141;-0.003953;-2.882742e-04;0.007457;0.793746;0.034146;-0.034146;0.084003
0.300517;2.81999;0.884556;-0.772536;0.076035;-0.049764;0.777863;-0.001688;0.004526;-5.386237e-04;0.37934;0.372987;2.681062;2.636157;0.004573;-0.001735;0.003154;158.305099;113.305099;0.004205;0.003762;-0.001688;5.220663e-04;-0.001599;0.004526;-0.002121;0.834792;0.002838;-0.002838;0.049045
0.367682;2.81999;0.90602;-0.772686;0.076213;-0.055511;0.778417;-0.012961;0.003476;0.004529;3.04373;3.72899;0.268169;0.328544;0.004641;-0.014127;0.009384;5.626577;140.626572;0.012512;0.011288;-0.012961;0.010159;-0.0011;0.003476;-0.011259;0.850509;-0.009486;0.009486;0.04547
0.434848;2.81999;0.938939;-0.773106;0.075922;-0.054128;0.778709;6.064729e-04;4.424957e-04;1.514074e-04;-0.505699;-1.370574;-0.729622;-1.97746;6.966654e-04;3.523031e-04;1.721811e-04;112.750641;67.750641;2.295748e-04;4.022287e-04;6.064729e-04;0.001973;-0.00167;4.424957e-04;-0.003643;0.884811;0.001049;-0.001049;0.049591
0.502013;2.81999;0.947379;-0.772875;0.076019;-0.053152;0.778421;0.002988;8.194321e-05;-0.00278;0.342806;-36.468864;-0.027421;2.917101;0.004672;-0.001602;0.003137;162.270142;117.270142;0.004182;0.003764;0.002988;-0.0058;2.409254e-04;8.194321e-05;0.006041;0.894228;0.00307;-0.00307;0.056461
0.569178;2.81999;0.930574;-0.772536;0.076221;-0.050825;0.777949;-0.001078;-0.006422;-0.005368;4.339262;-0.167816;-5.95891;0.230454;0.002246;-0.009746;0.005996;125.825264;80.825264;0.007995;0.007361;-0.001078;-0.009142;-0.001593;-0.006422;0.007549;0.879749;-0.0075;0.0075;0.050778
0.636344;2.81999;0.934026;-0.772701;0.076002;-0.04381;0.777664;-0.003942;-2.301114e-04;-0.003023;3.855637;-17.13133;-0.058373;0.25936;0.001461;-0.005633;0.003547;100.975166;55.975163;0.00473;0.004326;-0.003942;-0.005842;-2.036425e-04;-2.301114e-04;0.005638;0.890216;-0.004172;0.004172;0.057883
0.703509;2.81999;0.94091;-0.773101;0.075491;-0.045752;0.778124;-0.005441;0.006307;-0.002832;0.875527;0.862758;1.159073;1.142169;0.006954;-0.006088;0.006521;5.673204;140.673203;0.008695;0.007535;-0.005441;-0.001145;-0.004518;0.006307;-0.003373;0.895157;8.655438e-04;-8.655438e-04;0.059406
0.770674;2.81999;0.941486;-0.773508;0.075287;-0.049059;0.778711;0.003179;0.003369;-0.001155;-0.47699;-0.943458;-1.059931;-2.096481;0.004433;0.002115;0.001159;176.47789;131.47789;0.001546;0.00256;0.003179;-0.001289;-0.001022;0.003369;2.665797e-04;0.892428;0.006548;-0.006548;0.082448
0.83784;2.81999;0.906827;-0.773328;0.075494;-0.050043;0.778614;0.002213;9.642447e-04;-0.003066;0.326427;-2.295509;-0.435633;3.063474;0.004718;-0.00154;0.003129;153.448166;108.448166;0.004172;0.003765;0.002213;-0.006415;2.830993e-04;9.642447e-04;0.006698;0.856785;0.003178;-0.003178;0.098858
0.905005;2.81999;0.871566;-0.773277;0.075445;-0.04858;0.778466;-0.011443;-9.650145e-04;-0.004663;16.325642;-11.857956;-0.084332;0.061253;8.09631e-04;-0.013218;0.007014;82.925102;37.925102;0.009352;0.009094;-0.011443;-0.008876;-4.501027e-04;-9.650145e-04;0.008426;0.822986;-0.012408;0.012408;0.061759
0.97217;2.81999;0.853241;-0.773554;0.07546;-0.044684;0.778509;0.003;0.004147;0.00192;-0.281494;-0.723391;-1.382378;-3.552474;0.005577;0.00157;0.002003;109.185875;64.185875;0.002671;0.003321;0.003;0.003344;4.949358e-04;0.004147;-0.002849;0.808557;0.007146;-0.007146;0.006056
1.039336;2.81999;0.829807;-0.773628;0.075495;-0.053123;0.779116;0.027425;0.004257;-0.003789;-0.130327;-6.442737;-0.155214;-7.672992;0.028028;0.003653;0.012188;35.173363;170.17337;0.01625;0.017595;0.027425;-0.004215;-0.003362;0.004257;8.53211e-04;0.776684;0.031681;-0.031681;0.013631
1.106501;2.81999;0.785337;-0.77337;0.075227;-0.058007;0.779182;-0.004498;0.004125;-0.003997;1.065535;1.090442;0.917059;0.938495;0.005693;-0.006066;0.00588;99.158524;54.158524;0.00784;0.00679;-0.004498;-0.004406;-0.003588;0.004125;8.181267e-04;0.727331;-3.731017e-04;3.731017e-04;0.021218
1.173667;2.81999;0.731778;-0.773285;0.074926;-0.052218;0.77866;-0.020445;0.003419;0.005439;4.700907;5.97934;0.167243;0.212725;0.004601;-0.021627;0.013114;12.131659;147.131653;0.017485;0.016171;-0.020445;0.0129;-0.002022;0.003419;-0.014922;0.67956;-0.017026;0.017026;0.00382
1.240832;2.81999;0.676535;-0.77381;0.074774;-0.051413;0.779113;-0.008033;0.006892;0.020358;1.054057;1.1656;0.857927;0.948715;0.021112;-0.022253;0.021683;145.821213;100.82122;0.02891;0.02504;-0.008033;0.041975;-0.001258;0.006892;-0.043233;0.625122;-0.001141;0.001141;0.015726
1.307997;2.81999;0.618077;-0.773765;0.074685;-0.050099;0.778974;-0.001164;0.004366;0.02257;0.868443;0.26656;3.751498;1.151486;0.024339;-0.021137;0.022738;136.641525;91.641533;0.030318;0.026278;-0.001164;0.047322;-0.002183;0.004366;-0.049505;0.567978;0.003202;-0.003202;0.011098
1.375163;2.81999;0.540335;-0.773433;0.074327;-0.050434;0.778631;-0.009073;6.863265e-04;0.02039;1.500041;13.219987;0.075643;0.666649;0.016772;-0.025159;0.020966;147.480957;102.480957;0.027955;0.02437;-0.009073;0.040996;-2.15889e-04;6.863265e-04;-0.041212;0.489901;-0.008387;0.008387;0.041942
1.442328;2.81999;0.433443;-0.773631;0.074568;-0.048167;0.778707;-0.018618;-0.002111;0.020522;2.763571;-8.817552;-0.11341;0.361851;0.011754;-0.032484;0.022119;160.21907;115.21907;0.029492;0.026459;-0.018618;0.039588;0.001455;-0.002111;-0.038133;0.385275;-0.02073;0.02073;0.014143
-0.371137;2.752825;0.284021;-0.771877;0.077448;-0.055559;0.777739;-0.013033;-0.001349;0.014344;2.733405;-9.662823;-0.103489;0.365844;0.008297;-0.022679;0.015488;159.578934;114.578934;0.020651;0.018516;-0.013033;0.028459;2.288504e-04;-0.001349;-0.02823;0.228462;-0.014382;0.014382;0.107621
-0.303971;2.752825;0.450998;-0.772062;0.077498;-0.059173;0.778195;-0.016852;0.001498;0.016347;2.38707;11.247452;0.088909;0.418924;0.011069;-0.026423;0.018746;162.285477;117.285469;0.024994;0.022243;-0.016852;0.032612;8.227585e-05;0.001498;-0.032529;0.391826;-0.015354;0.015354;0.051686
-0.236806;2.752825;0.538333;-0.771853;0.07754;-0.063205;0.778309;0.007136;0.002892;0.004856;0.027664;-2.467573;-0.405256;36.147964;0.010314;-2.853197e-04;0.0053;101.507652;56.507656;0.007066;0.006973;0.007136;0.010162;-4.502147e-04;0.002892;-0.010613;0.475128;0.010028;-0.010028;0.088613
-0.169641;2.752825;0.602397;-0.77192;0.077354;-0.057316;0.7779;0.017849;0.0023;-0.001693;-0.11748;-7.758969;-0.128883;-8.512101;0.018031;0.002118;0.007956;40.151848;175.151855;0.010608;0.01138;0.017849;-0.001237;-0.002148;0.0023;-9.103522e-04;0.545081;0.020149;-0.020149;0.108158
-0.102475;2.752825;0.653737;-0.7722;0.077044;-0.058258;0.778218;0.005711;0.004327;0.008997;0.285192;-1.320055;-0.757544;3.506414;0.014043;-0.004005;0.009024;122.14563;77.14563;0.012032;0.010944;0.005711;0.021864;-0.00387;0.004327;-0.025734;0.595479;0.010038;-0.010038;0.055668
-0.03531;2.752825;0.716429;-0.772067;0.07657;-0.053434;0.777692;0.014861;0.004946;0.014079;0.202293;-3.004976;-0.332781;4.943327;0.02483;-0.005023;0.014926;110.031601;65.031601;0.019902;0.018457;0.014861;0.030867;-0.002709;0.004946;-0.033576;0.662996;0.019807;-0.019807;0.043031
0.031855;2.752825;0.755885;-0.772123;0.076431;-0.050461;0.777536;0.005085;0.005486;0.00618;0.078278;-0.927048;-1.078693;12.774974;0.011469;-8.977389e-04;0.006183;117.92588;72.92588;0.008244;0.007962;0.005085;0.013454;-0.001094;0.005486;-0.014548;0.705424;0.010571;-0.010571;0.050849
0.099021;2.752825;0.787011;-0.772309;0.076307;-0.049452;0.777644;-0.005564;-0.001372;-0.010967;1.90114;-4.055368;-0.246587;0.526;0.007697;-0.014634;0.011166;120.549126;75.549126;0.014888;0.013099;-0.005564;-0.02159;-3.443988e-04;-0.001372;0.021246;0.73756;-0.006936;0.006936;0.04524
0.166186;2.752825;0.808663;-0.772538;0.076404;-0.050708;0.777961;-0.002115;-0.007897;-0.019764;1.66886;-0.267764;-3.734636;0.599212;0.014968;-0.02498;0.019974;131.940201;86.940193;0.026633;0.023305;-0.002115;-0.039201;-3.271469e-04;-0.007897;0.038874;0.757955;-0.010012;0.010012;0.043409
0.233352;2.752825;0.835166;-0.772472;0.076429;-0.051156;0.777928;0.005069;-8.260381e-04;-0.018914;0.800464;6.13651;0.162959;1.249275;0.021264;-0.017021;0.019143;143.37767;98.377663;0.025524;0.022149;0.005069;-0.034207;-0.003622;-8.260381e-04;0.030586;0.78401;0.004243;-0.004243;0.052595
0.300517;2.752825;0.886457;-0.772405;0.075931;-0.051603;0.777842;-0.020899;0.001469;-7.124502e-04;14.028148;14.229244;0.070278;0.071285;0.001491;-0.020921;0.011206;41.595608;176.595612;0.014942;0.01447;-0.020899;0.00108;-0.002505;0.001469;-0.003585;0.834854;-0.01943;0.01943;0.05129
0.367682;2.752825;0.922746;-0.772548;0.075853;-0.058059;0.778431;-0.016105;0.001083;0.004288;8.176592;14.871078;0.067245;0.1223;0.002093;-0.017116;0.009604;11.911843;146.91185;0.012806;0.012168;-0.016105;0.010515;-0.001939;0.001083;-0.012455;0.864687;-0.015022;0.015022;0.06695
0.434848;2.752825;0.943293;-0.772696;0.075572;-0.058104;0.778554;0.007311;0.002836;1.237185e-04;-0.387318;-2.577539;-0.387967;-2.581855;0.007314;0.002833;0.002241;58.8325;13.8325;0.002988;0.004259;0.007311;0.002436;-0.002188;0.002836;-0.004624;0.885189;0.010147;-0.010147;0.058243
0.502013;2.752825;0.954764;-0.772713;0.075636;-0.054673;0.778328;0.001127;0.00456;-1.285286e-04;-0.245867;-0.24718;-4.045642;-4.067242;0.004565;0.001122;0.001721;128.67424;83.67424;0.002295;0.002747;0.001127;-9.943708e-04;7.373136e-04;0.00456;0.001732;0.90009;0.005688;-0.005688;0.048778
0.569178;2.752825;0.951674;-0.77274;0.075729;-0.05735;0.778557;0.001422;0.002717;2.710056e-04;-0.493507;-0.523438;-1.910444;-2.026312;0.002771;0.001368;7.017424e-04;122.934998;77.934998;9.356565e-04;0.0016;0.001422;2.199867e-04;3.220246e-04;0.002717;1.020379e-04;0.894324;0.004138;-0.004138;0.05928
0.636344;2.752825;0.93734;-0.77279;0.075815;-0.059904;0.778808;-0.006237;0.008423;-0.007365;0.809656;0.740491;1.350455;1.235093;0.011484;-0.009298;0.010391;118.534538;73.534538;0.013854;0.01202;-0.006237;-0.012536;-0.002194;0.008423;0.010342;0.877436;0.002186;-0.002186;0.074496
0.703509;2.752825;0.918656;-0.772983;0.075506;-0.053131;0.778478;-0.008136;0.018919;-7.99999e-04;0.430772;0.430061;2.325251;2.321413;0.018943;-0.00816;0.013551;132.607224;87.607224;0.018068;0.016055;-0.008136;-0.001574;-2.598237e-05;0.018919;0.001548;0.865525;0.010783;-0.010783;0.072515
0.770674;2.752825;0.918537;-0.773322;0.075377;-0.051148;0.778669;-0.001167;0.009628;-0.004027;0.2283;0.121183;8.251988;4.380207;0.010965;-0.002503;0.006734;134.46875;89.468742;0.008979;0.008271;-0.001167;-0.007307;-7.465783e-04;0.009628;0.00656;0.867388;0.008461;-0.008461;0.055376
0.83784;2.752825;0.916584;-0.773225;0.075423;-0.055413;0.778868;0.004583;0.001643;-0.002671;-0.010478;-2.789333;-0.358509;-95.435143;0.006162;6.456659e-05;0.003049;170.87645;125.87645;0.004065;0.004087;0.004583;-0.006018;6.766721e-04;0.001643;0.006695;0.861171;0.006226;-0.006226;0.077719
0.905005;2.752825;0.897093;-0.773247;0.075598;-0.056861;0.779011;-0.015935;-9.159209e-04;-0.008537;6.723445;-17.397472;-0.05748;0.148733;0.002944;-0.019795;0.011369;89.511169;44.511173;0.015159;0.014279;-0.015935;-0.015697;-0.001376;-9.159209e-04;0.01432;0.840232;-0.016851;0.016851;0.097292
0.97217;2.752825;0.858031;-0.773489;0.075368;-0.049883;0.778752;-0.006286;0.004521;-0.002543;1.346882;1.390495;0.719168;0.742456;0.005089;-0.006855;0.005972;83.926331;38.926334;0.007963;0.006921;-0.006286;-0.003699;-0.001386;0.004521;0.002313;0.808148;-0.001765;0.001765;0.054205
1.039336;2.752825;0.817397;-0.773405;0.075274;-0.054477;0.778967;0.02529;0.004289;0.008997;-0.033597;-5.897063;-0.169576;-29.764732;0.028617;9.614455e-04;0.013828;82.257019;37.257023;0.018437;0.018766;0.02529;0.018944;-9.502323e-04;0.004289;-0.019894;0.76292;0.029579;-0.029579;0.04565
1.106501;2.752825;0.783164;-0.773512;0.075098;-0.056303;0.779186;-0.001105;0.00112;0.008342;0.998221;0.986612;1.01357;1.001783;0.008424;-0.008409;0.008416;138.776627;93.776627;0.011221;0.009718;-0.001105;0.019149;-0.002464;0.00112;-0.021613;0.726861;1.498899e-05;-1.498899e-05;0.051025
1.173667;2.752825;0.748014;-0.773693;0.074903;-0.051128;0.77899;-0.025838;-8.607115e-04;-0.002219;-39.144459;-30.019073;-0.033312;-0.025546;-6.6506e-04;-0.026033;0.012684;47.477173;2.477173;0.016912;0.017138;-0.025838;-0.001023;-0.003416;-8.607115e-04;-0.002393;0.696886;-0.026698;0.026698;0.015167
1.240832;2.752825;0.706336;-0.773844;0.074645;-0.044768;0.778724;-0.011463;-0.002425;-0.005732;40.152061;-4.726658;-0.211566;0.024905;3.547345e-04;-0.014243;0.007299;84.171188;39.171185;0.009732;0.009616;-0.011463;-0.009209;-0.002255;-0.002425;0.006953;0.661568;-0.013889;0.013889;0.008711
1.307997;2.752825;0.623658;-0.773948;0.074557;-0.046018;0.778891;0.007349;-0.002977;-0.011985;0.713028;2.468845;0.405048;1.402469;0.015236;-0.010864;0.01305;152.233566;107.233559;0.0174;0.015139;0.007349;-0.023065;-9.059098e-04;-0.002977;0.022159;0.577641;0.004372;-0.004372;0.020865
1.375163;2.752825;0.532177;-0.773789;0.07466;-0.046762;0.778787;-0.013887;-0.002491;-0.011859;4.296992;-5.575454;-0.179358;0.232721;0.004968;-0.021346;0.013157;106.563133;61.563133;0.017542;0.016143;-0.013887;-0.025376;0.001658;-0.002491;0.027034;0.485415;-0.016378;0.016378;0.040093
1.442328;2.752825;0.44014;-0.773891;0.075204;-0.043447;0.77875;-0.029998;-0.001633;-0.00255;-21.497904;-18.365423;-0.05445;-0.046516;-0.001406;-0.030226;0.01441;59.724564;14.724564;0.019213;0.019699;-0.029998;-0.008075;0.002975;-0.001633;0.01105;0.396693;-0.031632;0.031632;0.030539
-0.371137;2.68566;0.271745;-0.771916;0.077671;-0.057722;0.777958;-0.0035;0.002293;-0.006092;1.196543;1.526479;0.655102;0.835741;0.006142;-0.007349;0.006745;118.681343;73.681343;0.008994;0.007799;-0.0035;-0.010864;-0.00132;0.002293;0.009544;0.214023;-0.001207;0.001207;0.107067
-0.303971;2.68566;0.414253;-0.772275;0.077316;-0.059645;0.778424;-0.006493;-3.156091e-04;-0.024141;1.325271;-20.574072;-0.048605;0.754563;0.020933;-0.027742;0.024338;127.169807;82.169807;0.03245;0.028194;-0.006493;-0.047283;-9.988258e-04;-3.156091e-04;0.046284;0.354608;-0.006809;0.006809;0.062856
-0.236806;2.68566;0.530815;-0.77209;0.077241;-0.060362;0.778289;0.020392;-7.341795e-04;-0.034509;0.571887;27.775787;0.036003;1.748596;0.045918;-0.02626;0.036089;151.751038;106.751038;0.048119;0.042184;0.020392;-0.067729;-0.001289;-7.341795e-04;0.06644;0.470453;0.019658;-0.019658;0.066639
-0.169641;2.68566;0.588671;-0.772073;0.077045;-0.049986;0.777516;0.012177;-0.001259;-0.024899;0.650608;9.672308;0.103388;1.537024;0.031248;-0.02033;0.025789;149.084442;104.08445;0.034385;0.03;0.012177;-0.048413;-0.001384;-0.001259;0.047029;0.538685;0.010918;-0.010918;0.07203
-0.102475;2.68566;0.634148;-0.772211;0.077284;-0.057968;0.778231;-0.012056;-0.00333;-0.021227;2.100719;-3.62048;-0.276206;0.476028;0.013978;-0.029364;0.021671;116.918655;71.918655;0.028894;0.025543;-0.012056;-0.03807;-0.004384;-0.00333;0.033686;0.57618;-0.015386;0.015386;0.05651
-0.03531;2.68566;0.704423;-0.772216;0.076558;-0.0563;0.778041;-0.001069;7.319929e-04;-0.008043;1.042481;1.459936;0.684962;0.95925;0.007925;-0.008262;0.008093;130.536316;85.536316;0.010791;0.009346;-0.001069;-0.011837;-0.004249;7.319929e-04;0.007588;0.648124;-3.366696e-04;3.366696e-04;0.047144
0.031855;2.68566;0.751391;-0.772007;0.076405;-0.058547;0.777985;0.008172;0.00449;0.007843;0.119903;-1.820153;-0.549404;8.340093;0.014388;-0.001725;0.008056;111.182831;66.182831;0.010742;0.010215;0.008172;0.017082;-0.001395;0.00449;-0.018477;0.692844;0.012662;-0.012662;0.070004
0.099021;2.68566;0.778075;-0.7723;0.076036;-0.049626;0.777619;0.017025;0.005114;0.008532;-0.030963;-3.328925;-0.300397;-32.29694;0.021474;6.648848e-04;0.010404;94.2976;49.297596;0.013873;0.014099;0.017025;0.01904;-0.001977;0.005114;-0.021017;0.728449;0.022139;-0.022139;0.052203
0.166186;2.68566;0.79352;-0.772675;0.075829;-0.045614;0.777725;0.004731;0.003996;0.002932;-0.192528;-1.183894;-0.84467;-5.194038;0.007318;0.001409;0.002955;106.050789;61.050793;0.003939;0.004483;0.004731;0.006496;-6.329078e-04;0.003996;-0.007129;0.747906;0.008727;-0.008727;0.010029
0.233352;2.68566;0.834141;-0.772577;0.075987;-0.047365;0.777749;-0.012561;0.004691;-0.00147;2.634474;2.677792;0.373442;0.379582;0.004815;-0.012685;0.00875;56.449028;11.44903;0.011667;0.010439;-0.012561;-0.002395;-5.447291e-04;0.004691;0.00185;0.786776;-0.00787;0.00787;0.034009
0.300517;2.68566;0.883613;-0.772622;0.07595;-0.052193;0.778098;-0.028824;0.002429;-0.004453;9.650692;11.866052;0.084274;0.10362;0.003051;-0.029446;0.016248;59.673302;14.673303;0.021665;0.020723;-0.028824;-0.007607;-0.001299;0.002429;0.006308;0.83142;-0.026395;0.026395;0.053632
0.367682;2.68566;0.917125;-0.772773;0.075996;-0.060597;0.778861;-0.010168;-0.001401;-0.0093;3.572781;-7.256162;-0.137814;0.279894;0.004497;-0.016066;0.010281;103.332886;58.33289;0.013708;0.012482;-0.010168;-0.016678;-0.001922;-0.001401;0.014755;0.856528;-0.011569;0.011569;0.08181
0.434848;2.68566;0.933782;-0.772629;0.07561;-0.056534;0.778375;0.008806;-0.00259;-0.005043;0.420047;3.399393;0.29417;2.380684;0.010717;-0.004502;0.007609;179.367203;134.367203;0.010146;0.009027;0.008806;-0.008715;-0.001372;-0.00259;0.007343;0.877248;0.006215;-0.006215;0.094754
0.502013;2.68566;0.942613;-0.772722;0.075452;-0.051057;0.778074;-0.001104;-0.001869;1.590297e-04;-1.772747;-0.590659;-1.693025;-0.564096;-0.001072;-0.001901;4.142672e-04;119.215515;74.215515;5.523562e-04;0.0011;-0.001104;0.002216;-0.001898;-0.001869;-0.004113;0.891556;-0.002973;0.002973;0.053287
0.569178;2.68566;0.953972;-0.772969;0.075284;-0.052832;0.778421;0.003306;-8.733185e-04;0.001328;0.341128;3.785907;0.264138;2.931449;0.003693;-0.00126;0.002476;92.346344;47.346344;0.003302;0.002972;0.003306;0.003641;-9.844535e-04;-8.733185e-04;-0.004625;0.90114;0.002433;-0.002433;0.030231
0.636344;2.68566;0.938116;-0.773168;0.075488;-0.060216;0.779175;-0.004626;7.593162e-04;0.008762;1.534648;6.092895;0.164126;0.651615;0.007233;-0.0111;0.009167;150.559555;105.559547;0.012222;0.010663;-0.004626;0.016497;0.001027;7.593162e-04;-0.01547;0.877901;-0.003867;0.003867;0.038347
0.703509;2.68566;0.900669;-0.77305;0.075524;-0.055044;0.778679;-0.015288;-0.001687;0.009779;5.958243;-9.059769;-0.110378;0.167835;0.003424;-0.020399;0.011911;171.931747;126.931747;0.015881;0.014872;-0.015288;0.020242;-6.832101e-04;-0.001687;-0.020925;0.845625;-0.016975;0.016975;0.059689
0.770674;2.68566;0.894454;-0.773117;0.075451;-0.053097;0.778602;-0.002512;-0.005131;-0.002416;-6.121283;-0.489552;-2.042682;-0.163364;-0.001073;-0.00657;0.002748;99.49147;54.49147;0.003664;0.004069;-0.002512;-0.001778;-0.003054;-0.005131;-0.001276;0.841358;-0.007643;0.007643;0.05404
0.83784;2.68566;0.915645;-0.773364;0.075102;-0.053496;0.778842;-0.00294;7.344838e-04;-0.002135;2.286535;4.002239;0.24986;0.437343;0.001714;-0.003919;0.002817;62.360039;17.360039;0.003755;0.003334;-0.00294;-0.001848;-0.002422;7.344838e-04;-5.731425e-04;0.862149;-0.002205;0.002205;0.061894
0.905005;2.68566;0.911605;-0.773375;0.075051;-0.053234;0.778829;-0.008849;0.005951;0.002899;1.445894;1.486916;0.672533;0.691614;0.006499;-0.009397;0.007948;178.160538;133.160538;0.010597;0.009228;-0.008849;0.007436;-0.001638;0.005951;-0.009073;0.858371;-0.002898;0.002898;0.089784
0.97217;2.68566;0.877084;-0.773347;0.074644;-0.046611;0.778338;-0.014243;0.00369;-8.866634e-04;3.826148;3.859638;0.259092;0.261359;0.003734;-0.014287;0.009011;56.310486;11.310487;0.012014;0.010983;-0.014243;-0.002497;7.23897e-04;0.00369;0.003221;0.830473;-0.010553;0.010553;0.050883
1.039336;2.68566;0.823351;-0.773438;0.074951;-0.046742;0.778466;0.007709;3.672562e-04;0.007601;0.352823;-20.990561;-0.04764;2.834281;0.012479;-0.004403;0.008441;105.419556;60.419552;0.011255;0.010112;0.007709;0.013729;0.001473;3.672562e-04;-0.012256;0.776609;0.008076;-0.008076;0.021223
1.106501;2.68566;0.774834;-0.773833;0.075055;-0.051066;0.77914;0.015165;-0.001767;0.008315;0.278337;8.58107;0.116536;3.592762;0.018565;-0.005167;0.011866;95.11319;50.113186;0.015822;0.014411;0.015165;0.018151;-0.001522;-0.001767;-0.019673;0.723768;0.013398;-0.013398;0.045914
1.173667;2.68566;0.746196;-0.774083;0.075082;-0.056457;0.779763;-0.004623;0.002017;-0.00279;1.859206;2.292168;0.436268;0.537864;0.003033;-0.00564;0.004337;68.897301;23.897297;0.005782;0.005082;-0.004623;-0.002967;-0.002612;0.002017;3.550317e-04;0.689738;-0.002606;0.002606;0.027176
1.240832;2.68566;0.711103;-0.773941;0.074856;-0.052254;0.779306;-0.010013;0.002383;-0.014231;1.651763;4.202465;0.237956;0.605414;0.011707;-0.019337;0.015522;114.558182;69.558182;0.020696;0.018103;-0.010013;-0.026442;-0.00202;0.002383;0.024422;0.658849;-0.00763;0.00763;0.010862
1.307997;2.68566;0.639086;-0.773739;0.074803;-0.054513;0.779256;0.015657;-0.001314;-0.020154;0.506094;11.915084;0.083927;1.975919;0.029039;-0.014697;0.021868;156.538391;111.538399;0.029157;0.025699;0.015657;-0.039598;-7.104814e-04;-0.001314;0.038888;0.584573;0.014343;-0.014343;0.019159
1.375163;2.68566;0.545691;-0.773666;0.074733;-0.056804;0.77934;-0.019466;3.957982e-04;-0.024969;2.100025;49.18145;0.020333;0.476185;0.017336;-0.036406;0.026871;113.82238;68.82238;0.035828;0.031673;-0.019466;-0.050248;3.10573e-04;3.957982e-04;0.050559;0.488887;-0.01907;0.01907;0.030481
1.442328;2.68566;0.414437;-0.774402;0.074878;-0.04757;0.779466;-0.050457;0.004876;-0.021382;4.743701;10.347996;0.096637;0.210806;0.012175;-0.057757;0.034966;86.011063;41.011059;0.046621;0.04314;-0.050457;-0.043641;8.77246e-04;0.004876;0.044518;0.366867;-0.045581;0.045581;0.082418
-0.371137;2.618494;0.285849;-0.772142;0.077148;-0.057077;0.778083;0.031953;0.006135;-0.033643;0.308473;-5.208156;-0.192007;3.241775;0.055079;-0.01699;0.036035;159.986816;114.986809;0.048046;0.043503;0.031953;-0.068026;7.399669e-04;0.006135;0.068766;0.228773;0.038089;-0.038089;0.069253
-0.303971;2.618494;0.387485;-0.772396;0.077189;-0.049358;0.777811;0.005804;2.424168e-04;-0.045045;0.87444;-23.941185;-0.041769;1.143589;0.048153;-0.042107;0.04513;138.70015;93.70015;0.060174;0.052151;0.005804;-0.089759;-3.306054e-04;2.424168e-04;0.089428;0.338127;0.006046;-0.006046;0.091454
-0.236806;2.618494;0.527263;-0.772276;0.077065;-0.051846;0.777842;0.001915;-1.198258e-04;-0.029616;0.941202;15.98175;0.062571;1.062472;0.030532;-0.028736;0.029634;136.910446;91.910446;0.039512;0.034224;0.001915;-0.057356;-0.001877;-1.198258e-04;0.055478;0.475417;0.001795;-0.001795;0.081643
-0.169641;2.618494;0.58592;-0.7721;0.076659;-0.045638;0.777238;0.004252;0.004723;-0.003014;-0.194929;-0.900236;-1.11082;-5.130085;0.00751;0.001464;0.003023;167.561935;122.561935;0.004031;0.004597;0.004252;-0.004683;-0.001345;0.004723;0.003339;0.540281;0.008974;-0.008974;0.089607
-0.102475;2.618494;0.617087;-0.772208;0.076686;-0.049059;0.777555;-0.015184;0.005553;-0.004967;2.441439;2.73432;0.365722;0.409595;0.006682;-0.016313;0.011497;73.829613;28.829609;0.015329;0.013658;-0.015184;-0.007983;-0.001951;0.005553;0.006033;0.568028;-0.009631;0.009631;0.067251
-0.03531;2.618494;0.689734;-0.772381;0.076261;-0.049674;0.777725;-0.016997;0.002662;-0.009522;3.199335;6.38456;0.156628;0.312565;0.006518;-0.020853;0.013685;89.117668;44.117668;0.018247;0.016509;-0.016997;-0.016479;-0.002565;0.002662;0.013914;0.64006;-0.014335;0.014335;0.039417
0.031855;2.618494;0.749236;-0.772202;0.0762;-0.057169;0.778056;-0.010071;3.614898e-04;-0.003564;7.6372;27.859037;0.035895;0.130938;0.001463;-0.011172;0.006317;68.697716;23.697714;0.008423;0.007981;-0.010071;-0.004689;-0.002439;3.614898e-04;0.002251;0.692067;-0.009709;0.009709;0.0192
0.099021;2.618494;0.773997;-0.772487;0.076107;-0.056163;0.778256;0.013422;0.002034;0.006485;0.055168;-6.600124;-0.151512;18.126575;0.016358;-9.024591e-04;0.00863;95.17218;50.172176;0.011507;0.011219;0.013422;0.016246;-0.003275;0.002034;-0.019521;0.717834;0.015456;-0.015456;0.036763
0.166186;2.618494;0.802768;-0.772931;0.075857;-0.05121;0.778331;0.019715;3.840437e-04;0.009276;0.142759;-51.334373;-0.01948;7.004802;0.023446;-0.003347;0.013396;91.621529;46.621525;0.017862;0.016857;0.019715;0.021009;-0.002457;3.840437e-04;-0.023466;0.751559;0.020099;-0.020099;0.023794
0.233352;2.618494;0.851282;-0.772775;0.075688;-0.04885;0.778008;-0.006346;0.002129;0.006319;1.766768;2.98066;0.335496;0.566005;0.0055;-0.009717;0.007609;160.218628;115.218628;0.010145;0.008897;-0.006346;0.013397;-7.583752e-04;0.002129;-0.014155;0.802432;-0.004217;0.004217;0.065974
0.300517;2.618494;0.879341;-0.772748;0.075657;-0.051101;0.778123;-0.01163;0.005031;-7.733048e-05;2.311424;2.311518;0.432616;0.432634;0.005032;-0.01163;0.008331;42.153107;177.153107;0.011108;0.009868;-0.01163;2.825875e-04;-4.372484e-04;0.005031;-7.198359e-04;0.82824;-0.006599;0.006599;0.078125
0.367682;2.618494;0.905524;-0.772706;0.075576;-0.050016;0.778003;-0.00198;0.002489;-0.004764;0.90775;0.795533;1.257019;1.101625;0.005516;-0.005008;0.005262;124.37384;79.37384;0.007016;0.006078;-0.00198;-0.00852;-0.001008;0.002489;0.007513;0.855508;5.088963e-04;-5.088963e-04;0.079877
0.434848;2.618494;0.932571;-0.773078;0.075532;-0.049642;0.778344;-0.002613;0.003168;0.001336;0.839802;0.82494;1.212209;1.190757;0.003462;-0.002907;0.003184;164.976746;119.976753;0.004246;0.003682;-0.002613;0.004361;-0.001689;0.003168;-0.00605;0.882929;5.545493e-04;-5.545493e-04;0.054382
0.502013;2.618494;0.942962;-0.773396;0.075519;-0.050997;0.778746;-0.002209;0.007539;0.001534;0.314417;0.292971;3.41331;3.180494;0.007775;-0.002445;0.00511;156.111847;111.111847;0.006813;0.006162;-0.002209;0.006095;-0.003026;0.007539;-0.009122;0.891965;0.005331;-0.005331;0.023154
0.569178;2.618494;0.930804;-0.773357;0.075372;-0.053045;0.77883;0.002667;0.005664;-0.003011;-0.106578;-0.470821;-2.12395;-9.382799;0.007529;8.023801e-04;0.003363;157.173187;112.173187;0.004484;0.004774;0.002667;-0.00446;-0.001561;0.005664;0.0029;0.877758;0.008331;-0.008331;0.026034
0.636344;2.618494;0.92913;-0.773377;0.075283;-0.05442;0.778936;-0.007524;0.001913;0.002547;3.194311;3.932136;0.254315;0.313057;0.002557;-0.008168;0.005362;6.347806;141.347809;0.00715;0.006468;-0.007524;0.005768;-6.744656e-04;0.001913;-0.006443;0.87471;-0.005611;0.005611;0.03276
0.703509;2.618494;0.906061;-0.773399;0.075086;-0.045258;0.778353;-0.017515;0.007122;0.002738;2.400113;2.459192;0.406638;0.416647;0.007423;-0.017816;0.012619;21.485926;156.485931;0.016826;0.014978;-0.017515;0.006309;-8.335669e-04;0.007122;-0.007142;0.860804;-0.010393;0.010393;0.041037
0.770674;2.618494;0.883632;-0.773298;0.075007;-0.044147;0.77818;-0.002062;0.006268;6.74043e-04;0.3347;0.328948;3.03999;2.987748;0.006322;-0.002116;0.004219;151.089218;106.089218;0.005626;0.00507;-0.002062;0.002526;-0.001178;0.006268;-0.003704;0.839485;0.004206;-0.004206;0.044854
0.83784;2.618494;0.90257;-0.773598;0.074753;-0.049515;0.778777;-0.001225;4.18369e-04;-0.002552;1.354376;2.92891;0.341424;0.738348;0.002277;-0.003084;0.002681;41.730049;176.730042;0.003574;0.003107;-0.001225;-5.348063e-04;-0.004568;4.18369e-04;-0.004034;0.853054;-8.069961e-04;8.069961e-04;0.038403
0.905005;2.618494;0.894608;-0.773568;0.074554;-0.053205;0.778972;0.006006;0.002899;-0.001139;-0.396078;-2.071551;-0.48273;-2.524756;0.006379;0.002526;0.001926;31.380892;166.38089;0.002568;0.003709;0.006006;-4.328507e-04;-0.001845;0.002899;-0.001412;0.841403;0.008905;-0.008905;0.047027
0.97217;2.618494;0.863615;-0.773388;0.074862;-0.054346;0.778901;-0.011831;0.008433;-0.004163;1.367128;1.402903;0.712808;0.731461;0.009255;-0.012653;0.010954;93.964584;48.964584;0.014605;0.012699;-0.011831;-0.010777;0.002451;0.008433;0.013228;0.809269;-0.003398;0.003398;3.614551e-04
1.039336;2.618494;0.814074;-0.773545;0.075365;-0.05041;0.778841;-0.012289;0.002471;-0.005692;3.225933;4.97366;0.201059;0.309988;0.004411;-0.014229;0.00932;90.242569;45.242565;0.012426;0.011248;-0.012289;-0.012169;7.8574e-04;0.002471;0.012955;0.763664;-0.009818;0.009818;0.020627
1.106501;2.618494;0.764352;-0.773773;0.074942;-0.048081;0.778879;0.015211;0.003181;-6.024865e-04;-0.206741;-4.781736;-0.209129;-4.836965;0.015241;0.003151;0.006045;47.569427;2.569426;0.00806;0.00929;0.015211;0.001162;-0.002366;0.003181;-0.003528;0.716271;0.018392;-0.018392;0.038674
1.173667;2.618494;0.731919;-0.773865;0.074787;-0.054278;0.779363;0.010514;0.003865;-2.237241e-04;-0.366632;-2.72028;-0.367609;-2.727531;0.010522;0.003858;0.003332;49.208672;4.208673;0.004443;0.006146;0.010514;0.00134;-0.001787;0.003865;-0.003127;0.677641;0.01438;-0.01438;0.038043
1.240832;2.618494;0.692935;-0.773905;0.074536;-0.052301;0.779244;-0.010888;0.003614;-0.00131;2.949468;3.012772;0.33192;0.339044;0.003731;-0.011005;0.007368;49.56662;4.566618;0.009824;0.008847;-0.010888;-0.00124;-0.00138;0.003614;-1.404692e-04;0.640634;-0.007274;0.007274;0.023666
1.307997;2.618494;0.646508;-0.773852;0.074517;-0.050696;0.779082;0.01702;0.002112;0.005199;-0.025651;-8.056991;-0.124116;-38.984516;0.018653;4.784837e-04;0.009087;76.837105;31.837103;0.012117;0.012279;0.01702;0.010453;-5.570849e-05;0.002112;-0.010509;0.595812;0.019132;-0.019132;0.026635
1.375163;2.618494;0.559515;-0.773634;0.074475;-0.057716;0.77935;-0.013911;4.625339e-04;0.003932;10.16156;30.074919;0.03325;0.09841;0.001468;-0.014916;0.008192;17.375317;152.37532;0.010923;0.010468;-0.013911;0.007294;5.700344e-04;4.625339e-04;-0.006724;0.501799;-0.013448;0.013448;0.00434
1.442328;2.618494;0.427099;-0.774108;0.074463;-0.04855;0.779195;-0.052286;-9.693704e-04;-0.003813;-76.443413;-53.937634;-0.01854;-0.013082;-6.876623e-04;-0.052567;0.02594;53.926895;8.926894;0.034586;0.034818;-0.052286;-0.008222;5.965594e-04;-9.693704e-04;0.008818;0.37855;-0.053255;0.053255;0.053144
-0.371137;2.551329;0.27489;-0.772356;0.076577;-0.050223;0.777766;0.042695;0.005229;-0.008049;-0.080563;-8.164659;-0.122479;-12.412614;0.044351;0.003573;0.020389;22.132282;157.132278;0.027185;0.028451;0.042695;-0.017966;0.001867;0.005229;0.019834;0.224667;0.047924;-0.047924;0.016997
-0.303971;2.551329;0.367065;-0.772275;0.076804;-0.042415;0.777243;0.001731;0.004237;-0.001483;-0.211712;-0.408585;-2.447473;-4.723392;0.004926;0.001043;0.001941;143.63121;98.63121;0.002589;0.002997;0.001731;-0.003387;4.213302e-04;0.004237;0.003809;0.324649;0.005969;-0.005969;0.105948
-0.236806;2.551329;0.499967;-0.772316;0.076803;-0.049068;0.777675;-0.025339;0.005423;0.010073;3.363175;4.672552;0.214016;0.297338;0.008428;-0.028344;0.018386;3.501081;138.501083;0.024514;0.022244;-0.025339;0.021847;-0.001702;0.005423;-0.023549;0.450899;-0.019916;0.019916;0.079151
-0.169641;2.551329;0.580347;-0.772409;0.076389;-0.053889;0.778046;-0.01058;0.006919;0.017756;1.203824;1.529195;0.653939;0.830686;0.017964;-0.021625;0.019794;150.621933;105.621925;0.026393;0.022889;-0.01058;0.038635;-0.003124;0.006919;-0.04176;0.526458;-0.003661;0.003661;0.101509
-0.102475;2.551329;0.628628;-0.772363;0.076187;-0.053876;0.77798;-0.003245;0.002688;0.018056;1.030902;1.207147;0.828399;0.970024;0.01802;-0.018577;0.018298;140.089096;95.089096;0.024397;0.02113;-0.003245;0.036868;-7.563951e-04;0.002688;-0.037625;0.574752;-5.568459e-04;5.568459e-04;0.082362
-0.03531;2.551329;0.701961;-0.772674;0.076408;-0.05362;0.778292;-0.00178;0.001942;0.00887;0.982267;0.916503;1.091104;1.018053;0.009144;-0.008982;0.009063;140.68071;95.680702;0.012084;0.010465;-0.00178;0.018396;-6.559675e-04;0.001942;-0.019052;0.648341;1.62157e-04;-1.62157e-04;0.052474
0.031855;2.551329;0.752543;-0.772581;0.076275;-0.05258;0.778115;-0.010704;0.002581;-0.001922;3.846048;4.146598;0.241162;0.260007;0.002854;-0.010976;0.006915;49.859226;4.859225;0.00922;0.008432;-0.010704;-0.001465;-0.00238;0.002581;-9.143375e-04;0.699964;-0.008122;0.008122;0.023497
0.099021;2.551329;0.759397;-0.772613;0.075957;-0.057061;0.778432;-0.002798;0.004111;0.00306;0.750933;0.680619;1.469251;1.331677;0.005271;-0.003958;0.004615;155.902084;110.902084;0.006153;0.005346;-0.002798;0.008683;-0.002563;0.004111;-0.011246;0.702336;0.001313;-0.001313;0.055283
0.166186;2.551329;0.810178;-0.772832;0.075571;-0.051583;0.778229;0.02287;0.002312;0.018768;0.259116;-9.891141;-0.101101;3.859282;0.03399;-0.008807;0.021398;104.841667;59.841671;0.028531;0.026096;0.02287;0.039228;-0.001693;0.002312;-0.040921;0.758595;0.025182;-0.025182;0.062897
0.233352;2.551329;0.859251;-0.772763;0.075374;-0.049027;0.777976;-4.820992e-04;-8.176368e-04;0.012063;1.11387;-0.589625;-1.695993;0.897771;0.011414;-0.012714;0.012064;135.793625;90.793625;0.016085;0.013937;-4.820992e-04;0.027672;-0.003546;-8.176368e-04;-0.031218;0.810224;-0.0013;0.0013;0.080803
0.300517;2.551329;0.862962;-0.772764;0.075409;-0.056172;0.778464;-1.584517e-04;0.004146;0.001998;0.191276;0.038217;26.1665;5.228044;0.004931;-9.43149e-04;0.002937;149.611893;104.6119;0.003916;0.003643;-1.584517e-04;0.008172;-0.004175;0.004146;-0.012346;0.80679;0.003988;-0.003988;0.056175
0.367682;2.551329;0.893203;-0.772637;0.075028;-0.053151;0.778089;-2.101355e-04;0.007628;8.308876e-04;0.038527;0.027548;36.300919;25.955761;0.007715;-2.972451e-04;0.004006;148.366669;103.366676;0.005342;0.005245;-2.101355e-04;0.003803;-0.002141;0.007628;-0.005944;0.840052;0.007418;-0.007418;0.034641
0.434848;2.551329;0.916518;-0.773239;0.075117;-0.0558;0.77888;-0.012164;0.011543;-6.261732e-04;1.053699;1.053776;0.948968;0.949038;0.011559;-0.01218;0.01187;87.515152;42.515152;0.015826;0.013708;-0.012164;-0.002836;0.001584;0.011543;0.00442;0.860718;-6.2073e-04;6.2073e-04;0.032585
0.502013;2.551329;0.924192;-0.773611;0.075255;-0.057149;0.779361;-0.001874;0.01372;-0.002411;0.158932;0.136601;7.320611;6.292016;0.014084;-0.002238;0.008161;128.809616;83.809608;0.010882;0.010217;-0.001874;-0.005771;9.486476e-04;0.01372;0.006719;0.867043;0.011846;-0.011846;0.027153
0.569178;2.551329;0.918501;-0.77328;0.075142;-0.057417;0.779041;0.003327;0.010197;8.581953e-05;-0.32616;-0.326299;-3.06467;-3.06598;0.010198;0.003326;0.003436;137.200287;92.200287;0.004581;0.006005;0.003327;7.764752e-04;-6.048362e-04;0.010197;-0.001381;0.861084;0.013524;-0.013524;0.046394
0.636344;2.551329;0.924261;-0.772804;0.074947;-0.055108;0.778383;-0.001093;0.008421;0.003692;0.243469;0.129833;7.702215;4.107297;0.009686;-0.002358;0.006022;142.923233;97.923233;0.008029;0.00737;-0.001093;0.008674;-0.001289;0.008421;-0.009963;0.869154;0.007328;-0.007328;0.059786
0.703509;2.551329;0.913981;-0.773215;0.074798;-0.050448;0.77846;-0.010772;0.006296;-0.001181;1.70186;1.710921;0.58448;0.587592;0.006377;-0.010853;0.008615;54.382385;9.382387;0.011487;0.010059;-0.010772;-0.001611;-7.502192e-04;0.006296;8.609656e-04;0.863533;-0.004476;0.004476;0.052352
0.770674;2.551329;0.901646;-0.773533;0.074847;-0.047255;0.778581;-0.00225;-0.002199;-5.450553e-05;-1.055504;-1.022967;-0.977548;-0.947414;-0.002165;-0.002285;6.007334e-05;58.28093;13.28093;8.009778e-05;0.001485;-0.00225;0.00172;-0.001829;-0.002199;-0.003549;0.854391;-0.004449;0.004449;0.044077
0.83784;2.551329;0.904874;-0.773649;0.074783;-0.049272;0.778816;0.006055;-0.00128;-0.001286;0.23883;4.732074;0.211324;4.187081;0.006274;-0.001498;0.003886;54.330421;9.330422;0.005182;0.004762;0.006055;5.785412e-04;-0.00315;-0.00128;-0.003728;0.855602;0.004776;-0.004776;0.030272
0.905005;2.551329;0.868751;-0.773628;0.074565;-0.052746;0.779001;0.011498;1.837382e-04;0.001282;-0.003467;-62.579826;-0.01598;-288.423187;0.011642;4.036319e-05;0.005801;61.099365;16.099365;0.007734;0.007748;0.011498;0.003342;-7.79058e-04;1.837382e-04;-0.004122;0.816005;0.011682;-0.011682;0.037448
0.97217;2.551329;0.837051;-0.773586;0.074712;-0.054114;0.779067;-0.006966;0.003882;0.004789;1.541754;1.794583;0.557233;0.648612;0.005693;-0.008778;0.007235;173.150391;128.150391;0.009647;0.008418;-0.006966;0.007721;0.001857;0.003882;-0.005864;0.782937;-0.003084;0.003084;0.031013
1.039336;2.551329;0.821457;-0.773892;0.074842;-0.050295;0.779127;-0.006688;0.003704;-0.002196;1.719227;1.805677;0.553809;0.581657;0.004149;-0.007133;0.005641;82.333939;37.333935;0.007521;0.006589;-0.006688;-0.004089;-3.036695e-04;0.003704;0.003785;0.771162;-0.002984;0.002984;0.008077
1.106501;2.551329;0.793084;-0.773994;0.074512;-0.050909;0.779237;0.015205;-0.006186;-0.011088;0.547144;2.457877;0.406855;1.827672;0.019915;-0.010896;0.015406;169.665115;124.665115;0.020541;0.018041;0.015205;-0.020601;-0.001575;-0.006186;0.019025;0.742174;0.009019;-0.009019;0.018426
1.173667;2.551329;0.744801;-0.77396;0.074524;-0.054616;0.779456;0.010253;-0.002156;-0.011391;0.524237;4.75612;0.210255;1.907534;0.01702;-0.008923;0.012971;159.619614;114.619614;0.017295;0.015219;0.010253;-0.022127;-6.55318e-04;-0.002156;0.021472;0.690185;0.008097;-0.008097;0.001097
1.240832;2.551329;0.691615;-0.774092;0.07444;-0.055328;0.779629;-0.017667;0.001598;-0.008023;4.569408;11.055312;0.090454;0.218847;0.004502;-0.020571;0.012536;84.469383;39.469387;0.016715;0.015435;-0.017667;-0.014564;-0.001483;0.001598;0.013081;0.636287;-0.016069;0.016069;0.002262
1.307997;2.551329;0.62269;-0.774371;0.074361;-0.05154;0.779639;-0.006555;0.002279;0.008367;1.583923;2.876526;0.347642;0.631344;0.007323;-0.0116;0.009462;157.013885;112.013893;0.012616;0.011018;-0.006555;0.015728;0.001007;0.002279;-0.014721;0.57115;-0.004276;0.004276;0.021916
1.375163;2.551329;0.53335;-0.774462;0.074764;-0.055164;0.780016;-0.002396;-1.332568e-04;0.024111;1.110598;-17.983814;-0.055606;0.900416;0.022873;-0.025403;0.024138;137.98143;92.981438;0.032184;0.027885;-0.002396;0.04621;0.002013;-1.332568e-04;-0.044198;0.478186;-0.00253;0.00253;0.02194
1.442328;2.551329;0.435625;-0.77452;0.074999;-0.050921;0.779807;-0.01974;-0.001362;0.007684;15.788348;-14.490587;-0.06901;0.063338;0.001427;-0.02253;0.011978;10.032714;145.032715;0.015971;0.015517;-0.01974;0.013784;0.001584;-0.001362;-0.012199;0.384704;-0.021103;0.021103;0.096485
-0.371137;2.484163;0.286075;-0.772613;0.076371;-0.052569;0.778156;0.023585;0.003559;0.019536;0.235908;-6.626107;-0.150918;4.238939;0.035525;-0.008381;0.021953;102.722328;57.722328;0.029271;0.026915;0.023585;0.037276;0.001797;0.003559;-0.035479;0.233507;0.027144;-0.027144;0.018118
-0.303971;2.484163;0.382128;-0.772168;0.07665;-0.049993;0.777572;0.001761;0.002778;0.023004;0.820447;-0.633954;-1.577402;1.218848;0.025279;-0.02074;0.02301;132.788666;87.788666;0.03068;0.026613;0.001761;0.045787;2.217068e-04;0.002778;-0.045565;0.332135;0.004539;-0.004539;0.080615
-0.236806;2.484163;0.484977;-0.772424;0.076554;-0.052832;0.778004;-0.023838;0.003051;0.012772;3.550551;7.81439;0.127969;0.281646;0.00815;-0.028938;0.018544;176.678513;131.678513;0.024726;0.022506;-0.023838;0.026622;-0.001077;0.003051;-0.027698;0.432145;-0.020788;0.020788;0.052815
-0.169641;2.484163;0.572788;-0.772582;0.076405;-0.056069;0.778372;-0.013908;0.001608;0.006947;3.884417;8.647156;0.115645;0.257439;0.004264;-0.016564;0.010414;176.505142;131.505142;0.013885;0.012705;-0.013908;0.015778;-0.001884;0.001608;-0.017662;0.516719;-0.0123;0.0123;0.088788
-0.102475;2.484163;0.628353;-0.772686;0.076051;-0.054975;0.778363;5.376332e-04;0.001725;0.007317;0.733;-0.311757;-3.207628;1.364256;0.008473;-0.00621;0.007341;133.808701;88.808701;0.009789;0.008511;5.376332e-04;0.016504;-0.001869;0.001725;-0.018373;0.573378;0.002262;-0.002262;0.094957
-0.03531;2.484163;0.706088;-0.772887;0.075976;-0.055339;0.778582;0.010181;0.004608;0.006997;0.009173;-2.209666;-0.452557;109.0103;0.014926;-1.369239e-04;0.007532;102.831032;57.831032;0.010042;0.009997;0.010181;0.015033;-0.001039;0.004608;-0.016072;0.650749;0.014789;-0.014789;0.064984
0.031855;2.484163;0.753033;-0.772702;0.075873;-0.050956;0.778088;-0.007779;0.006798;0.002735;1.134415;1.144226;0.873953;0.881512;0.007294;-0.008275;0.007785;172.268463;127.268456;0.01038;0.008995;-0.007779;0.008223;-0.002753;0.006798;-0.010975;0.702077;-9.804768e-04;9.804768e-04;0.029744
0.099021;2.484163;0.753906;-0.772736;0.075591;-0.058936;0.778658;-0.018894;0.005338;0.006953;2.885009;3.539398;0.282534;0.346619;0.007191;-0.020747;0.013969;3.626239;138.626236;0.018626;0.016751;-0.018894;0.015914;-0.002009;0.005338;-0.017923;0.69497;-0.013556;0.013556;0.052599
0.166186;2.484163;0.803602;-0.77264;0.07593;-0.06274;0.778893;0.01548;0.001578;0.017538;0.37733;-9.810882;-0.101928;2.650203;0.027394;-0.010337;0.018865;111.056023;66.056023;0.025154;0.022514;0.01548;0.034819;2.571509e-04;0.001578;-0.034562;0.740861;0.017058;-0.017058;0.064003
0.233352;2.484163;0.861881;-0.772907;0.075809;-0.056987;0.778703;0.015957;-0.001991;0.008027;0.265856;8.013373;0.124791;3.76143;0.019023;-0.005057;0.01204;94.697945;49.697945;0.016054;0.014662;0.015957;0.019024;-0.00297;-0.001991;-0.021994;0.804894;0.013966;-0.013966;0.041382
0.300517;2.484163;0.880641;-0.772789;0.075203;-0.055147;0.778395;0.00729;0.001216;-0.003769;0.064609;-5.995974;-0.166779;15.477715;0.009093;-5.875169e-04;0.00484;40.939762;175.939758;0.006454;0.006267;0.00729;1.993145e-04;-0.007737;0.001216;-0.007937;0.825494;0.008506;-0.008506;0.059968
0.367682;2.484163;0.88401;-0.772625;0.074542;-0.049026;0.777759;-0.002638;0.003018;-9.047131e-04;0.87973;0.874104;1.144029;1.136712;0.003159;-0.002779;0.002969;6.466517;141.466522;0.003959;0.003431;-0.002638;0.001354;-0.003164;0.003018;-0.004518;0.834985;3.799562e-04;-3.799562e-04;0.059395
0.434848;2.484163;0.895776;-0.772966;0.07468;-0.053408;0.778399;-0.015029;0.004682;0.001858;3.131342;3.210374;0.31149;0.319352;0.004855;-0.015203;0.010029;38.860901;173.860901;0.013372;0.012083;-0.015029;0.002003;0.001713;0.004682;-2.894656e-04;0.842368;-0.010348;0.010348;0.060035
0.502013;2.484163;0.900972;-0.773441;0.074953;-0.056275;0.7791;-0.004335;0.002921;3.669167e-04;1.48063;1.483674;0.674002;0.675388;0.00294;-0.004353;0.003647;36.381237;171.381241;0.004862;0.004237;-0.004335;5.101809e-04;2.236526e-04;0.002921;-2.865283e-04;0.844697;-0.001413;0.001413;0.051823
0.569178;2.484163;0.895391;-0.773741;0.074799;-0.05638;0.77939;0.001653;0.00276;-5.009567e-04;-0.494493;-0.599068;-1.669261;-2.022273;0.002953;0.00146;7.463414e-04;176.110626;131.110626;9.951218e-04;0.001705;0.001653;0.001354;-0.002356;0.00276;-0.003711;0.83901;0.004413;-0.004413;0.033365
0.636344;2.484163;0.901094;-0.773344;0.074669;-0.055342;0.778909;0.001862;0.003432;0.001489;-0.222533;-0.542464;-1.843439;-4.493717;0.00433;9.634939e-04;0.001683;128.62413;83.624123;0.002244;0.002625;0.001862;0.004582;-0.001604;0.003432;-0.006186;0.845752;0.005293;-0.005293;0.041948
0.703509;2.484163;0.894264;-0.773332;0.07477;-0.053414;0.778772;-0.002592;0.003346;0.001121;0.787724;0.774746;1.290746;1.269481;0.003551;-0.002797;0.003174;105.928329;60.928326;0.004232;0.003674;-0.002592;8.322953e-04;0.00141;0.003346;5.775263e-04;0.84085;7.537481e-04;-7.537481e-04;0.034875
0.770674;2.484163;0.905099;-0.773488;0.074867;-0.051083;0.77878;-0.002566;0.001751;0.002481;1.282866;1.465456;0.682382;0.779505;0.002881;-0.003697;0.003289;52.202888;7.202887;0.004385;0.003808;-0.002566;0.001668;0.003295;0.001751;0.001627;0.854016;-8.150662e-04;8.150662e-04;0.057774
0.83784;2.484163;0.918025;-0.773464;0.074844;-0.050647;0.778725;1.689988e-04;4.37761e-04;-0.006381;0.909252;-0.386053;-2.59032;1.099805;0.006686;-0.006079;0.006383;136.339066;91.339058;0.00851;0.007373;1.689988e-04;-0.010849;-0.001913;4.37761e-04;0.008936;0.867378;6.067597e-04;-6.067597e-04;0.064478
0.905005;2.484163;0.880608;-0.773574;0.074596;-0.051812;0.778887;1.676438e-05;7.369616e-04;-0.004455;0.844461;-0.022748;-43.95998;1.184187;0.004846;-0.004092;0.004469;138.473541;93.473549;0.005959;0.005167;1.676438e-05;-0.006296;-0.002613;7.369616e-04;0.003682;0.828797;7.53726e-04;-7.53726e-04;0.054756
0.97217;2.484163;0.849184;-0.773793;0.074325;-0.051398;0.779052;-0.003542;0.002289;-9.022081e-04;1.516582;1.547364;0.646261;0.659378;0.002425;-0.003678;0.003052;61.76675;16.766748;0.004069;0.003549;-0.003542;-0.001086;-7.185469e-04;0.002289;3.673226e-04;0.797786;-0.001253;0.001253;0.054945
1.039336;2.484163;0.847895;-0.773911;0.074254;-0.05042;0.779099;0.007495;-0.001524;-0.001542;0.229719;4.916755;0.203386;4.35315;0.007751;-0.001781;0.004766;9.013955;144.013962;0.006355;0.005852;0.007495;-0.005518;0.002434;-0.001524;0.007952;0.797476;0.005971;-0.005971;0.038647
1.106501;2.484163;0.824304;-0.773827;0.074391;-0.058426;0.779587;0.008331;-6.542919e-04;-0.008874;0.443117;12.732253;0.078541;2.256741;0.013784;-0.006108;0.009946;160.161682;115.161682;0.013262;0.011767;0.008331;-0.017713;-3.509386e-05;-6.542919e-04;0.017678;0.765878;0.007676;-0.007676;0.036564
1.173667;2.484163;0.753917;-0.773974;0.074389;-0.057561;0.779668;-0.009241;0.001919;0.005047;2.89564;4.816583;0.207616;0.345347;0.003863;-0.011185;0.007524;173.690079;128.690079;0.010032;0.009024;-0.009241;0.011515;-0.001421;0.001919;-0.012936;0.696356;-0.007322;0.007322;0.015439
1.240832;2.484163;0.705981;-0.774324;0.07428;-0.05784;0.780026;-0.024139;0.002012;0.010389;4.925579;11.999066;0.08334;0.203022;0.005637;-0.027764;0.0167;2.475973;137.475967;0.022267;0.020646;-0.024139;0.02208;-0.001302;0.002012;-0.023382;0.648141;-0.022127;0.022127;0.014944
1.307997;2.484163;0.634466;-0.774605;0.074072;-0.049922;0.779738;-0.030259;0.005137;0.012383;3.779331;5.890659;0.16976;0.264597;0.009039;-0.034161;0.0216;6.223176;141.223175;0.0288;0.02631;-0.030259;0.023923;8.437875e-04;0.005137;-0.023079;0.584544;-0.025122;0.025122;0.026349
1.375163;2.484163;0.538682;-0.774606;0.07431;-0.04436;0.779426;0.003581;0.007699;0.017197;0.508716;-0.465086;-2.15014;1.965734;0.022959;-0.01168;0.01732;127.599258;82.599258;0.023093;0.020349;0.003581;0.03142;0.002974;0.007699;-0.028446;0.494322;0.01128;-0.01128;0.038579
1.442328;2.484163;0.418042;-0.774878;0.074811;-0.051401;0.780176;0.021883;0.007444;0.01179;-0.029443;-2.939678;-0.340173;-33.964485;0.028488;8.387676e-04;0.013825;88.3498;43.3498;0.018433;0.018719;0.021883;0.019646;0.003934;0.007444;-0.015712;0.36664;0.029327;-0.029327;0.090243
-0.371137;2.416998;0.263439;-0.773098;0.076147;-0.053832;0.778702;3.045292e-04;0.001119;0.006806;0.810936;-0.272136;-3.674631;1.233143;0.00753;-0.006106;0.006818;133.431473;88.431473;0.00909;0.007887;3.045292e-04;0.012994;6.175191e-04;0.001119;-0.012376;0.209608;0.001424;-0.001424;0.07733
-0.303971;2.416998;0.392201;-0.772225;0.076392;-0.052694;0.777781;0.002598;4.484934e-04;0.014412;0.809284;-5.793308;-0.172613;1.23566;0.015975;-0.012929;0.014452;129.958038;84.958038;0.019269;0.016719;0.002598;0.029361;-5.373089e-04;4.484934e-04;-0.029899;0.339507;0.003047;-0.003047;0.075662
-0.236806;2.416998;0.508432;-0.772524;0.076089;-0.051628;0.777977;-0.012204;0.001955;0.005682;3.592144;6.241183;0.160226;0.278385;0.003954;-0.014203;0.009078;1.492128;136.492126;0.012104;0.011025;-0.012204;0.011427;-6.198193e-05;0.001955;-0.011489;0.456803;-0.010249;0.010249;0.044449
-0.169641;2.416998;0.574415;-0.77255;0.076379;-0.0569;0.778399;-0.017265;0.001132;0.004253;8.803411;15.253888;0.065557;0.113592;0.002067;-0.0182;0.010134;18.016874;153.016876;0.013512;0.012878;-0.017265;0.008752;-2.465332e-04;0.001132;-0.008999;0.517515;-0.016133;0.016133;0.064156
-0.102475;2.416998;0.628537;-0.772759;0.076091;-0.0566;0.778557;0.003319;0.001136;0.004121;0.313695;-2.923018;-0.342112;3.18781;0.006491;-0.002036;0.004264;119.201324;74.201324;0.005685;0.005142;0.003319;0.011518;-0.003275;0.001136;-0.014793;0.571937;0.004455;-0.004455;0.085525
-0.03531;2.416998;0.705071;-0.772882;0.075717;-0.056756;0.778653;0.010345;0.001536;0.001255;-0.129302;-6.736689;-0.148441;-7.73384;0.01052;0.00136;0.00458;70.837051;25.837049;0.006107;0.006607;0.010345;0.005535;-0.003024;0.001536;-0.008559;0.648315;0.011881;-0.011881;0.063552
0.031855;2.416998;0.739419;-0.772844;0.075433;-0.05419;0.778406;-0.014503;0.001565;0.003464;6.674026;9.266255;0.107918;0.149835;0.00228;-0.015218;0.008749;11.909083;146.909088;0.011666;0.010985;-0.014503;0.009466;-0.002538;0.001565;-0.012004;0.685229;-0.012938;0.012938;0.044198
0.099021;2.416998;0.760582;-0.77287;0.075332;-0.062175;0.779018;-0.013854;0.002375;0.002164;5.318073;5.833938;0.171411;0.188038;0.002659;-0.014138;0.008398;25.060389;160.060394;0.011198;0.010425;-0.013854;0.004834;-5.052516e-04;0.002375;-0.005339;0.698407;-0.01148;0.01148;0.083915
0.166186;2.416998;0.812058;-0.77299;0.075368;-0.059404;0.778924;0.019214;0.009493;-0.011886;-0.05561;-2.024096;-0.494048;-17.982483;0.027195;0.001512;0.012841;170.55719;125.557198;0.017122;0.017647;0.019214;-0.02442;6.48056e-04;0.009493;0.025068;0.752655;0.028707;-0.028707;0.075111
0.233352;2.416998;0.868398;-0.773194;0.075558;-0.056412;0.778923;0.01607;0.006696;-0.008777;-0.067179;-2.399814;-0.416699;-14.885605;0.021333;0.001433;0.00995;0.5085;135.508499;0.013266;0.013769;0.01607;-0.014598;-0.002956;0.006696;0.011642;0.811987;0.022766;-0.022766;0.030528
0.300517;2.416998;0.889311;-0.77294;0.075036;-0.053024;0.778382;0.004528;9.413688e-04;-0.00237;0.041648;-4.80975;-0.207911;24.010723;0.005707;-2.376769e-04;0.002972;47.217945;2.217943;0.003963;0.003886;0.004528;0.001894;-0.006635;9.413688e-04;-0.008528;0.836287;0.005469;-0.005469;0.066732
0.367682;2.416998;0.879416;-0.77288;0.074642;-0.053266;0.778301;-0.005374;-6.416441e-04;0.001475;-26.388285;-8.375325;-0.119398;-0.037896;-2.196422e-04;-0.005796;0.002788;2.014518;137.014511;0.003718;0.003793;-0.005374;0.00562;-0.00267;-6.416441e-04;-0.008291;0.82615;-0.006016;0.006016;0.077881
0.434848;2.416998;0.905766;-0.773158;0.074715;-0.060359;0.779101;-0.016875;-0.002055;0.006732;35.639355;-8.213299;-0.121754;0.028059;5.464921e-04;-0.019477;0.010012;11.494953;146.494949;0.013349;0.01317;-0.016875;0.011097;0.002367;-0.002055;-0.00873;0.845408;-0.01893;0.01893;0.057085
0.502013;2.416998;0.928547;-0.773389;0.0749;-0.06133;0.779424;-0.001539;-2.678527e-04;-4.568334e-04;-13.968192;-5.746582;-0.174016;-0.071591;-1.207287e-04;-0.001686;7.828165e-04;67.840576;22.840574;0.001044;0.001086;-0.001539;-6.158057e-04;-2.978611e-04;-2.678527e-04;3.179446e-04;0.867217;-0.001807;0.001807;0.060436
0.569178;2.416998;0.921799;-0.773578;0.074815;-0.058505;0.779386;6.475869e-04;0.004229;-0.005808;0.42735;-0.153131;-6.530346;2.340001;0.008516;-0.003639;0.006077;165.770248;120.770248;0.008103;0.007203;6.475869e-04;-0.006296;-0.005319;0.004229;9.765009e-04;0.863294;0.004877;-0.004877;0.039411
0.636344;2.416998;0.911347;-0.773229;0.074495;-0.055658;0.7788;3.01208e-04;0.001115;-0.005873;0.785333;-0.270257;-3.700182;1.273345;0.006595;-0.005179;0.005887;149.349228;104.34922;0.00785;0.006814;3.01208e-04;-0.006977;-0.004769;0.001115;0.002209;0.855689;0.001416;-0.001416;0.044729
0.703509;2.416998;0.914076;-0.773333;0.074397;-0.051916;0.778636;-0.001773;-0.002657;6.533361e-04;-2.105718;-0.667476;-1.498182;-0.474897;-0.001427;-0.003004;7.886618e-04;174.951706;129.951706;0.001052;0.001735;-0.001773;-3.31422e-04;0.001638;-0.002657;0.00197;0.86216;-0.00443;0.00443;0.029619
0.770674;2.416998;0.912334;-0.773536;0.074489;-0.057683;0.779252;5.221879e-04;0.00124;-0.00112;0.143311;-0.421192;-2.374216;6.977841;0.002057;-2.94751e-04;0.001176;143.471375;98.471375;0.001568;0.001479;5.221879e-04;-0.002391;1.521272e-04;0.00124;0.002544;0.854651;0.001762;-0.001762;0.055149
0.83784;2.416998;0.907351;-0.773852;0.074412;-0.059189;0.779671;-0.006026;0.011613;-0.006138;0.587322;0.518897;1.927164;1.702645;0.013538;-0.007951;0.010745;120.272606;75.272606;0.014327;0.012546;-0.006026;-0.011939;-3.358184e-04;0.011613;0.011604;0.848162;0.005587;-0.005587;0.066572
0.905005;2.416998;0.887854;-0.773912;0.074314;-0.053811;0.779332;-0.012476;0.005659;-0.006908;1.853164;2.204684;0.45358;0.539618;0.00799;-0.014807;0.011399;94.543129;49.543133;0.015198;0.013357;-0.012476;-0.01326;-5.549185e-04;0.005659;0.012705;0.834043;-0.006817;0.006817;0.046071
0.97217;2.416998;0.856478;-0.773832;0.074228;-0.053372;0.779214;-0.001426;0.003413;-0.004037;0.651376;0.417817;2.393395;1.535211;0.0057;-0.003713;0.004707;129.305084;84.305077;0.006275;0.005475;-0.001426;-0.006835;-0.001239;0.003413;0.005596;0.803106;0.001987;-0.001987;0.052199
1.039336;2.416998;0.843215;-0.773805;0.074392;-0.054834;0.779304;0.006118;0.002606;-0.001125;-0.353066;-2.347759;-0.425938;-2.832328;0.006448;0.002276;0.002086;19.909996;154.910004;0.002781;0.003776;0.006118;-0.002503;2.530126e-04;0.002606;0.002756;0.788381;0.008724;-0.008724;0.03165
1.106501;2.416998;0.815217;-0.773787;0.074597;-0.05782;0.779522;-0.010467;0.002594;0.012538;1.771904;4.035689;0.247789;0.564365;0.0102;-0.018073;0.014136;157.664154;112.664146;0.018849;0.016533;-0.010467;0.024787;2.882079e-04;0.002594;-0.024499;0.757397;-0.007873;0.007873;0.059316
1.173667;2.416998;0.733403;-0.774123;0.074158;-0.049804;0.77926;-0.01596;0.005798;0.019625;1.585427;2.752541;0.363301;0.630745;0.017358;-0.02752;0.022439;156.377182;111.377182;0.029918;0.02613;-0.01596;0.040385;-0.001135;0.005798;-0.04152;0.683599;-0.010162;0.010162;0.090492
1.240832;2.416998;0.666976;-0.774499;0.073903;-0.05086;0.779678;-0.011554;0.00285;0.011139;1.976633;4.054123;0.246662;0.505911;0.008913;-0.017617;0.013265;160.715424;115.715416;0.017686;0.015589;-0.011554;0.024112;-0.001834;0.00285;-0.025946;0.616116;-0.008704;0.008704;0.0815
1.307997;2.416998;0.619062;-0.774569;0.073694;-0.048715;0.77959;-0.022689;0.004972;0.001359;4.516052;4.563169;0.219146;0.221432;0.005039;-0.022756;0.013897;35.899479;170.899475;0.01853;0.017099;-0.022689;0.003337;-6.189587e-04;0.004972;-0.003956;0.570348;-0.017717;0.017717;0.049941
1.375163;2.416998;0.545028;-0.774276;0.073698;-0.04751;0.779225;-0.00158;0.0057;5.4209e-04;0.282296;0.277243;3.606948;3.542377;0.005741;-0.001621;0.003681;116.324005;71.324005;0.004907;0.004466;-0.00158;-5.942772e-04;0.001678;0.0057;0.002273;0.497518;0.00412;-0.00412;0.047339
1.442328;2.416998;0.439911;-0.774676;0.074053;-0.049627;0.779788;0.010611;0.008592;0.015603;0.239102;-1.235002;-0.809715;4.18231;0.025238;-0.006034;0.015636;115.291763;70.291763;0.020848;0.019156;0.010611;0.028958;0.002248;0.008592;-0.02671;0.390284;0.019203;-0.019203;0.058939
-0.371137;2.349833;0.300276;-0.773271;0.076422;-0.051444;0.778739;-0.032202;0.006019;-0.021108;2.702214;5.350359;0.186903;0.370067;0.015382;-0.041565;0.028473;97.554527;52.554523;0.037964;0.034017;-0.032202;-0.041473;-7.423122e-04;0.006019;0.04073;0.248832;-0.026183;0.026183;0.070935
-0.303971;2.349833;0.446184;-0.772337;0.076147;-0.058006;0.778246;-0.012354;0.004064;0.001895;2.937002;3.039881;0.32896;0.340483;0.00428;-0.01257;0.008425;20.302792;155.302795;0.011233;0.010113;-0.012354;0.00495;-0.001161;0.004064;-0.006111;0.388178;-0.00829;0.00829;0.065778
-0.236806;2.349833;0.54877;-0.772619;0.075877;-0.053165;0.778154;-0.005683;0.002944;0.016061;1.179486;1.930485;0.518004;0.847827;0.01526;-0.017999;0.01663;145.004074;100.004074;0.022173;0.019224;-0.005683;0.03179;3.310339e-04;0.002944;-0.031459;0.495605;-0.002739;0.002739;0.044209
-0.169641;2.349833;0.56131;-0.772648;0.076323;-0.057451;0.778532;-0.009316;0.004219;0.008782;1.597047;2.208353;0.452826;0.626156;0.008538;-0.013635;0.011087;161.644958;116.644958;0.014782;0.012914;-0.009316;0.017866;-3.033733e-04;0.004219;-0.01817;0.503859;-0.005097;0.005097;0.059514
-0.102475;2.349833;0.614364;-0.772684;0.076121;-0.058974;0.778661;0.018583;0.002592;-0.007241;0.00934;-7.169215;-0.139485;107.071396;0.021375;-1.996336e-04;0.010787;13.602015;148.60202;0.014383;0.014317;0.018583;-0.011227;-0.003255;0.002592;0.007972;0.55539;0.021175;-0.021175;0.077085
-0.03531;2.349833;0.69847;-0.772864;0.07574;-0.053564;0.778412;0.007344;0.001686;-0.010352;0.407769;-4.357117;-0.22951;2.45237;0.015247;-0.006217;0.010732;158.195847;113.195847;0.014309;0.012753;0.007344;-0.017835;-0.00287;0.001686;0.014965;0.644906;0.00903;-0.00903;0.048121
0.031855;2.349833;0.740504;-0.772926;0.075671;-0.055724;0.778618;-0.020545;4.796189e-04;-0.004338;15.977812;42.835613;0.023345;0.062587;0.00134;-0.021405;0.011372;63.208035;18.208035;0.015163;0.014737;-0.020545;-0.006838;-0.001839;4.796189e-04;0.004999;0.68478;-0.020065;0.020065;0.033675
0.099021;2.349833;0.785316;-0.772892;0.075474;-0.061938;0.779034;5.340425e-04;0.004438;-0.0118;0.655814;-0.120329;-8.310548;1.524823;0.014446;-0.009474;0.01196;139.358917;94.358925;0.015947;0.01391;5.340425e-04;-0.019401;-0.004199;0.004438;0.015202;0.723378;0.004972;-0.004972;0.074688
0.166186;2.349833;0.834661;-0.773153;0.075055;-0.053218;0.778608;0.019358;0.005569;-0.01008;-0.010206;-3.475746;-0.287708;-97.981476;0.024675;2.518383e-04;0.012212;0.216907;135.216904;0.016282;0.016367;0.019358;-0.018467;-0.001692;0.005569;0.016774;0.781443;0.024927;-0.024927;0.069391
0.233352;2.349833;0.876982;-0.773155;0.075274;-0.053572;0.778656;0.00294;0.005283;-5.795725e-04;-0.517579;-0.556517;-1.79689;-1.932072;0.005418;0.002804;0.001307;149.443542;104.443535;0.001743;0.003129;0.00294;-3.956477e-04;-7.634973e-04;0.005283;-3.678496e-04;0.82341;0.008222;-0.008222;0.060319
0.300517;2.349833;0.879604;-0.773037;0.075081;-0.054814;0.778606;0.00248;0.004414;-3.33014e-04;-0.542299;-0.56177;-1.780087;-1.844;0.00447;0.002424;0.001023;167.900299;122.900307;0.001364;0.002584;0.00248;0.003338;-0.004004;0.004414;-0.007341;0.82479;0.006894;-0.006894;0.087678
0.367682;2.349833;0.882019;-0.773032;0.074802;-0.054545;0.778555;-0.003686;0.005508;-0.001419;0.681533;0.66916;1.494412;1.467281;0.005723;-0.0039;0.004811;152.790146;107.790146;0.006415;0.005589;-0.003686;-0.001115;-0.001723;0.005508;-6.071852e-04;0.827475;0.001822;-0.001822;0.096895
0.434848;2.349833;0.897755;-0.773357;0.074908;-0.058126;0.779148;-0.01091;0.003242;-0.010063;1.905471;3.365067;0.297171;0.524805;0.008468;-0.016136;0.012302;106.071136;61.071136;0.016403;0.014433;-0.01091;-0.019208;-9.185949e-04;0.003242;0.01829;0.83963;-0.007668;0.007668;0.066701
0.502013;2.349833;0.92952;-0.773498;0.074735;-0.056726;0.779167;0.002874;0.004674;-0.012003;0.522581;-0.614849;-1.626415;1.913579;0.01581;-0.008262;0.012036;145.403473;100.403465;0.016048;0.014124;0.002874;-0.020061;-0.003944;0.004674;0.016117;0.872794;0.007548;-0.007548;0.065737
0.569178;2.349833;0.948727;-0.773405;0.07443;-0.053765;0.778836;0.002485;0.011893;-0.003895;-0.081369;-0.208946;-4.785932;-12.289638;0.013296;0.001082;0.006107;147.854263;102.854256;0.008143;0.008526;0.002485;-0.005676;-0.002114;0.011893;0.003562;0.894962;0.014378;-0.014378;0.049905
0.636344;2.349833;0.938996;-0.77319;0.074337;-0.056911;0.778837;-7.103059e-04;0.007859;-8.801692e-04;0.100617;0.090379;11.064556;9.938675;0.007949;-7.997734e-04;0.004374;123.696175;78.696175;0.005832;0.005585;-7.103059e-04;-0.003311;0.00155;0.007859;0.004861;0.882085;0.007149;-0.007149;0.026416
0.703509;2.349833;0.936393;-0.773518;0.074384;-0.055175;0.779043;0.001029;0.001181;0.003762;0.545935;-0.871787;-1.147069;1.83172;0.004867;-0.002657;0.003762;127.707199;82.707199;0.005016;0.004406;0.001029;0.007683;-1.596995e-04;0.001181;-0.007843;0.881218;0.00221;-0.00221;0.02268
0.770674;2.349833;0.915629;-0.773496;0.074332;-0.059346;0.779322;0.014677;8.939577e-04;0.00168;-0.046521;-16.418301;-0.060908;-21.495758;0.014879;6.921849e-04;0.007093;62.89521;17.89521;0.009458;0.009697;0.014677;0.00484;-0.00148;8.939577e-04;-0.00632;0.856283;0.015571;-0.015571;0.05894
0.83784;2.349833;0.894939;-0.773537;0.074157;-0.062285;0.779576;-0.006623;0.00119;-0.002515;3.815844;5.565425;0.179681;0.262065;0.00193;-0.007363;0.004646;77.929672;32.929672;0.006195;0.005662;-0.006623;-0.004285;-7.446188e-04;0.00119;0.00354;0.832654;-0.005433;0.005433;0.08207
0.905005;2.349833;0.876716;-0.77372;0.074238;-0.055816;0.779275;-0.016361;-1.62435e-04;-0.003279;35.711048;-100.721466;-0.009928;0.028003;4.760192e-04;-0.016999;0.008738;67.120178;22.120182;0.01165;0.011495;-0.016361;-0.00665;9.310975e-05;-1.62435e-04;0.006743;0.8209;-0.016523;0.016523;0.045398
0.97217;2.349833;0.846977;-0.773878;0.074193;-0.054767;0.779354;-0.001759;-3.432719e-04;-0.004798;1.553195;-5.122909;-0.195202;0.643834;0.003799;-0.005901;0.00485;123.172295;78.172295;0.006467;0.005644;-0.001759;-0.008649;-9.480591e-04;-3.432719e-04;0.007701;0.792209;-0.002102;0.002102;0.03611
1.039336;2.349833;0.8187;-0.773957;0.07395;-0.053155;0.779297;-0.002202;0.004576;-0.005209;0.679283;0.481259;2.077884;1.47214;0.007401;-0.005027;0.006214;126.334351;81.334351;0.008285;0.007219;-0.002202;-0.009426;-9.914805e-04;0.004576;0.008434;0.765544;0.002374;-0.002374;0.03417
1.106501;2.349833;0.80822;-0.773627;0.073645;-0.049696;0.778711;-0.010971;0.006673;-0.008388;1.42877;1.644137;0.608222;0.699903;0.010024;-0.014322;0.012173;100.049515;55.049511;0.016231;0.014129;-0.010971;-0.013341;-0.003436;0.006673;0.009904;0.758524;-0.004298;0.004298;0.075384
1.173667;2.349833;0.758979;-0.773814;0.073298;-0.049074;0.778826;-0.003608;3.329764e-04;-0.021649;1.162931;10.83569;0.092288;0.859896;0.020101;-0.023376;0.021738;129.974625;84.974625;0.028985;0.025125;-0.003608;-0.040948;-0.00235;3.329764e-04;0.038598;0.709905;-0.003275;0.003275;0.102862
1.240832;2.349833;0.66517;-0.77434;0.073299;-0.052796;0.779591;-0.011636;-3.023235e-04;-0.017602;1.9533;-38.487011;-0.025983;0.511954;0.012523;-0.024461;0.018492;116.953133;71.953133;0.024655;0.02172;-0.011636;-0.035705;5.006957e-04;-3.023235e-04;0.036205;0.612374;-0.011938;0.011938;0.062603
1.307997;2.349833;0.598382;-0.774533;0.073481;-0.049523;0.779585;-0.017713;0.001431;-0.008518;4.485117;12.381174;0.080768;0.22296;0.004672;-0.020955;0.012813;90.884712;45.884708;0.017084;0.01576;-0.017713;-0.018256;0.00122;0.001431;0.019476;0.548859;-0.016283;0.016283;0.033817
1.375163;2.349833;0.518702;-0.774532;0.073723;-0.047794;0.7795;-0.008527;0.004325;-0.011682;1.374153;1.97167;0.507184;0.727721;0.011232;-0.015434;0.013333;115.598129;70.598129;0.017777;0.015459;-0.008527;-0.023611;2.471869e-04;0.004325;0.023858;0.470908;-0.004202;0.004202;0.050794
1.442328;2.349833;0.430637;-0.774792;0.07344;-0.043476;0.779478;-0.01084;0.008088;-0.014562;1.172116;1.340306;0.746098;0.853158;0.015991;-0.018744;0.017367;115.747284;70.747284;0.023157;0.020075;-0.01084;-0.028892;-2.320612e-04;0.008088;0.02866;0.387161;-0.002752;0.002752;0.049802
-0.371137;2.282667;0.303925;-0.772847;0.075862;-0.045174;0.777874;-0.045681;0.00658;-0.023446;3.513501;6.942533;0.14404;0.284616;0.015556;-0.054657;0.035107;89.93457;44.934574;0.046809;0.042582;-0.045681;-0.045135;-0.001756;0.00658;0.043379;0.258752;-0.039101;0.039101;0.108776
-0.303971;2.282667;0.423148;-0.772525;0.075614;-0.054855;0.778153;-0.037523;0.002752;-0.012864;6.340849;13.632545;0.073354;0.157708;0.00651;-0.041281;0.023896;77.681442;32.681442;0.031861;0.029928;-0.037523;-0.024065;-0.001662;0.002752;0.022402;0.368294;-0.034771;0.034771;0.052286
-0.236806;2.282667;0.521724;-0.772666;0.075625;-0.058629;0.778569;-0.034405;0.011834;0.013209;2.471234;2.907225;0.343971;0.404656;0.015342;-0.037913;0.026627;8.069012;143.069016;0.035503;0.031653;-0.034405;0.024154;0.002264;0.011834;-0.02189;0.463095;-0.022571;0.022571;0.039946
-0.169641;2.282667;0.554876;-0.77273;0.075946;-0.062436;0.778959;0.019563;0.006907;0.017188;0.161032;-2.832091;-0.353096;6.209928;0.031551;-0.005081;0.018316;106.665962;61.665962;0.024421;0.022916;0.019563;0.035102;-7.25876e-04;0.006907;-0.035828;0.49244;0.02647;-0.02647;0.043461
-0.102475;2.282667;0.629574;-0.772929;0.075703;-0.052578;0.778405;0.040542;0.004918;-0.004619;-0.105237;-8.24433;-0.121295;-9.502384;0.041131;0.004329;0.018401;35.536861;170.536865;0.024535;0.026098;0.040542;-0.006364;-0.002874;0.004918;0.00349;0.576995;0.04546;-0.04546;0.063982
-0.03531;2.282667;0.700584;-0.773114;0.07541;-0.050967;0.778454;-0.00661;0.006468;-0.003482;1.019416;1.022027;0.978448;0.980953;0.007337;-0.00748;0.007408;103.09156;58.091557;0.009878;0.008555;-0.00661;-0.005681;-0.001284;0.006468;0.004398;0.649617;-1.424631e-04;1.424631e-04;0.069445
0.031855;2.282667;0.74041;-0.773035;0.075588;-0.055289;0.778687;-0.011393;0.004597;-0.001051;2.456618;2.47843;0.403481;0.407064;0.004666;-0.011462;0.008064;52.142605;7.142606;0.010752;0.009583;-0.011393;-0.001456;-6.466054e-04;0.004597;8.095824e-04;0.68512;-0.006796;0.006796;0.043803
0.099021;2.282667;0.786168;-0.772904;0.075272;-0.054285;0.778456;0.004953;0.003127;-0.010306;0.438343;-1.584048;-0.631294;2.281317;0.014387;-0.006306;0.010347;153.171188;108.171188;0.013796;0.012247;0.004953;-0.016957;-0.003656;0.003127;0.013301;0.731883;0.00808;-0.00808;0.060517
0.166186;2.282667;0.821633;-0.773255;0.074779;-0.054733;0.778788;-0.001998;0.002182;-0.002455;0.944318;0.915386;1.092436;1.058965;0.003316;-0.003131;0.003224;21.644094;156.644089;0.004298;0.003723;-0.001998;-0.001618;-0.003291;0.002182;-0.001672;0.7669;1.846446e-04;-1.846446e-04;0.052783
0.233352;2.282667;0.851053;-0.773395;0.074626;-0.056153;0.779013;-9.159746e-04;0.004117;0.003257;0.440007;0.222471;4.494964;2.272693;0.005717;-0.002515;0.004116;144.566315;99.566307;0.005488;0.004871;-9.159746e-04;0.008024;-0.00151;0.004117;-0.009535;0.7949;0.003201;-0.003201;0.074059
0.300517;2.282667;0.879533;-0.773436;0.074426;-0.05381;0.77887;0.009961;0.002707;-5.496356e-04;-0.266527;-3.679284;-0.271792;-3.751968;0.010003;0.002666;0.003668;52.321724;7.321722;0.004891;0.005981;0.009961;0.002173;-0.003272;0.002707;-0.005446;0.825723;0.012669;-0.012669;0.062075
0.367682;2.282667;0.89144;-0.773489;0.074134;-0.046402;0.778417;2.139501e-04;0.00316;4.223925e-04;-0.048013;-0.067696;-14.771968;-20.82753;0.00322;1.545944e-04;0.001533;156.82814;111.828148;0.002043;0.002097;2.139501e-04;0.003304;-0.00246;0.00316;-0.005764;0.845038;0.003374;-0.003374;0.069305
0.434848;2.282667;0.893869;-0.773427;0.074221;-0.04871;0.778506;-0.004878;0.002826;-4.419886e-05;1.726246;1.726311;0.57927;0.579292;0.002826;-0.004879;0.003852;56.673683;11.673683;0.005136;0.004501;-0.004878;-4.732652e-04;3.848675e-04;0.002826;8.581327e-04;0.845159;-0.002052;0.002052;0.083129
0.502013;2.282667;0.917094;-0.773574;0.074337;-0.050521;0.778777;-0.003188;0.002153;-0.001297;1.421767;1.480196;0.675586;0.70335;0.002452;-0.003486;0.002969;22.144348;157.144348;0.003958;0.003445;-0.003188;2.587748e-04;-0.002853;0.002153;-0.003112;0.866573;-0.001034;0.001034;0.068114
0.569178;2.282667;0.944364;-0.773437;0.074248;-0.053112;0.778805;-5.167767e-05;0.002905;-6.312234e-04;0.059578;0.017787;56.220398;16.784788;0.003034;-1.807856e-04;0.001608;179.379272;134.379272;0.002143;0.002086;-5.167767e-05;0.00252;-0.003782;0.002905;-0.006302;0.891252;0.002854;-0.002854;0.064411
0.636344;2.282667;0.961587;-0.77324;0.074043;-0.053026;0.778585;-0.001416;0.00304;0.001259;0.518297;0.465842;2.14665;1.929396;0.003371;-0.001747;0.002559;150.221344;105.221344;0.003412;0.003004;-0.001416;0.00266;-1.42284e-04;0.00304;-0.002802;0.908561;0.001624;-0.001624;0.03981
0.703509;2.282667;0.958944;-0.773618;0.07426;-0.05344;0.779009;0.005413;0.002434;0.003398;-0.027949;-2.223792;-0.449682;-35.779514;0.007634;2.133722e-04;0.00371;92.552803;47.552807;0.004947;0.00502;0.005413;0.005553;0.001244;0.002434;-0.00431;0.905504;0.007848;-0.007848;0.045767
0.770674;2.282667;0.923451;-0.77372;0.07428;-0.057331;0.779389;0.015133;0.002526;0.002197;-0.138928;-5.990525;-0.16693;-7.197978;0.015505;0.002154;0.006675;63.708099;18.708099;0.008901;0.009699;0.015133;0.0051;-7.049043e-04;0.002526;-0.005805;0.86612;0.017659;-0.017659;0.02203
0.83784;2.282667;0.904944;-0.773453;0.074172;-0.061137;0.779402;-0.010226;0.007213;0.004263;1.367485;1.41774;0.705348;0.731269;0.008199;-0.011212;0.009705;175.535461;130.535461;0.012941;0.011252;-0.010226;0.009152;-6.260586e-04;0.007213;-0.009778;0.843807;-0.003013;0.003013;0.053546
0.905005;2.282667;0.889596;-0.773666;0.074347;-0.055979;0.779243;-0.0157;0.007303;0.008717;1.820485;2.149703;0.465181;0.549304;0.010234;-0.01863;0.014432;175.595062;130.595062;0.019242;0.016898;-0.0157;0.016498;9.36866e-04;0.007303;-0.015561;0.833617;-0.008396;0.008396;0.056952
0.97217;2.282667;0.863986;-0.7738;0.074416;-0.055257;0.779331;0.009906;0.003836;0.006659;0.031493;-2.58216;-0.387273;31.752678;0.014189;-4.468701e-04;0.007318;99.397736;54.397736;0.009757;0.009612;0.009906;0.013133;1.848496e-04;0.003836;-0.012949;0.808729;0.013742;-0.013742;0.038589
1.039336;2.282667;0.82001;-0.773915;0.074221;-0.060256;0.779797;0.004501;-1.157776e-04;-0.004126;0.366315;38.879929;0.02572;2.729894;0.006921;-0.002535;0.004728;13.193192;148.193192;0.006304;0.005652;0.004501;-0.004235;-0.004017;-1.157776e-04;2.176518e-04;0.759754;0.004386;-0.004386;0.054388
1.106501;2.282667;0.796927;-0.773963;0.073738;-0.058573;0.779671;-0.001484;0.001712;-0.00776;0.971536;0.866395;1.154207;1.029298;0.008037;-0.007809;0.007923;130.052734;85.052727;0.010564;0.009149;-0.001484;-0.011523;-0.003997;0.001712;0.007526;0.738354;2.287789e-04;-2.287789e-04;0.061494
1.173667;2.282667;0.784105;-0.773941;0.073326;-0.060912;0.77979;-0.001814;-0.001499;-0.016881;1.217593;-1.210146;-0.826346;0.821293;0.015225;-0.018538;0.016882;131.52478;86.52478;0.022509;0.019525;-0.001814;-0.031612;-0.00215;-0.001499;0.029462;0.723193;-0.003313;0.003313;0.043587
1.240832;2.282667;0.709205;-0.773986;0.073205;-0.057218;0.779543;-0.030372;-0.004212;-0.012731;37.013817;-7.210157;-0.138693;0.027017;9.603201e-04;-0.035545;0.018253;85.478691;40.478687;0.024337;0.024023;-0.030372;-0.025635;1.735209e-04;-0.004212;0.025809;0.651988;-0.034585;0.034585;0.064056
1.307997;2.282667;0.621533;-0.774181;0.073664;-0.049716;0.779265;-0.018395;-0.001632;-0.00576;128.915451;-11.273135;-0.088706;0.007757;1.5656e-04;-0.020183;0.01017;78.328598;33.328594;0.01356;0.013508;-0.018395;-0.012056;5.361869e-04;-0.001632;0.012592;0.571817;-0.020026;0.020026;0.081416
1.375163;2.282667;0.516829;-0.774504;0.073476;-0.05217;0.779729;0.009383;-3.805096e-04;-0.019134;0.62873;24.659056;0.040553;1.590508;0.024248;-0.015245;0.019747;149.494125;104.494118;0.026329;0.022998;0.009383;-0.036322;-0.001946;-3.805096e-04;0.034376;0.464659;0.009002;-0.009002;0.040694
1.442328;2.282667;0.412577;-0.774739;0.073017;-0.053934;0.780039;0.008752;0.00196;-0.035504;0.738862;-4.464494;-0.22399;1.353433;0.041023;-0.03031;0.035666;142.306198;97.306206;0.047555;0.041339;0.008752;-0.068763;-0.002246;0.00196;0.066518;0.358643;0.010713;-0.010713;0.021555
-0.371137;2.215502;0.29339;-0.772466;0.075177;-0.045058;0.777422;-0.021645;0.004288;0.005536;4.202554;5.048177;0.198091;0.237951;0.00542;-0.022777;0.014099;20.851997;155.852005;0.018798;0.017277;-0.021645;0.009615;0.001456;0.004288;-0.00816;0.248332;-0.017357;0.017357;0.122435
-0.303971;2.215502;0.365725;-0.772702;0.075384;-0.047188;0.777803;-0.043766;-3.563748e-04;-0.014594;11.777804;-122.80941;-0.008143;0.084905;0.004094;-0.048216;0.026155;79.01516;34.01516;0.034873;0.033592;-0.043766;-0.029539;3.503765e-04;-3.563748e-04;0.029889;0.318537;-0.044123;0.044123;0.049382
-0.236806;2.215502;0.467417;-0.772798;0.075611;-0.061092;0.778888;-0.058253;-6.655026e-04;-0.015741;18.55529;-87.532784;-0.011424;0.053893;0.003356;-0.062275;0.032816;73.509506;28.509504;0.043754;0.042679;-0.058253;-0.031639;1.577616e-04;-6.655026e-04;0.031797;0.406325;-0.058919;0.058919;0.045655
-0.169641;2.215502;0.55928;-0.772862;0.07565;-0.068182;0.779543;0.018198;0.003181;-0.001505;-0.165268;-5.719975;-0.174826;-6.05078;0.018347;0.003032;0.007657;37.02536;172.02536;0.01021;0.011356;0.018198;-0.002368;-6.411389e-04;0.003181;0.001727;0.491098;0.021379;-0.021379;0.032105
-0.102475;2.215502;0.651875;-0.772982;0.07544;-0.052241;0.77841;0.0474;0.002628;0.011943;0.007121;-18.037502;-0.05544;140.42746;0.050387;-3.588126e-04;0.025373;74.816986;29.81699;0.033831;0.033712;0.0474;0.027304;-0.003418;0.002628;-0.030722;0.599634;0.050028;-0.050028;0.049652
-0.03531;2.215502;0.711233;-0.77328;0.074933;-0.052624;0.778682;-0.015417;0.004525;0.012966;1.998365;3.407308;0.293487;0.500409;0.01091;-0.021803;0.016357;163.274628;118.274635;0.021809;0.019233;-0.015417;0.028794;-0.002861;0.004525;-0.031655;0.658609;-0.010893;0.010893;0.071141
0.031855;2.215502;0.744456;-0.773253;0.075047;-0.05799;0.779048;0.003224;0.005432;0.00982;0.390834;-0.593523;-1.684855;2.55863;0.01421;-0.005554;0.009882;125.437065;80.437065;0.013175;0.011769;0.003224;0.018877;7.623509e-04;0.005432;-0.018115;0.686466;0.008656;-0.008656;0.062652
0.099021;2.215502;0.789068;-0.773042;0.075189;-0.052745;0.778478;0.02039;0.005152;-0.004819;-0.172374;-3.958133;-0.252644;-5.801328;0.021786;0.003755;0.009016;21.810499;156.810501;0.012021;0.013448;0.02039;-0.008019;-0.001619;0.005152;0.0064;0.736323;0.025542;-0.025542;0.080149
0.166186;2.215502;0.833634;-0.773061;0.07487;-0.05456;0.778592;-0.007738;0.007549;-0.01129;1.014023;1.025151;0.975466;0.986171;0.013539;-0.013729;0.013634;117.594208;72.594208;0.018179;0.015743;-0.007738;-0.018925;-0.003655;0.007549;0.01527;0.779074;-1.89857e-04;1.89857e-04;0.084635
0.233352;2.215502;0.855408;-0.773175;0.074719;-0.057236;0.778883;-0.010587;0.003624;-0.008858;1.88428;2.921466;0.342294;0.530707;0.007874;-0.014838;0.011356;101.04332;56.043316;0.015141;0.013317;-0.010587;-0.015093;-0.002624;0.003624;0.01247;0.798172;-0.006963;0.006963;0.138211
0.300517;2.215502;0.906377;-0.773495;0.074553;-0.055438;0.779055;0.001594;-0.002239;0.003025;1.197986;0.711871;1.404748;0.834734;0.003258;-0.003903;0.003581;120.527016;75.527016;0.004774;0.00414;0.001594;0.008438;-0.002389;-0.002239;-0.010826;0.850939;-6.450607e-04;6.450607e-04;0.088946
0.367682;2.215502;0.898534;-0.773635;0.074439;-0.054269;0.779101;0.001491;-0.006983;-0.002005;3.829758;0.213457;4.68479;0.261113;0.001941;-0.007433;0.004687;126.248795;81.248795;0.006249;0.005713;0.001491;-0.002382;-0.001628;-0.006983;7.543727e-04;0.844265;-0.005492;0.005492;0.043888
0.434848;2.215502;0.891644;-0.773356;0.074469;-0.05764;0.779068;7.520927e-05;0.001376;0.003175;0.634217;-0.054674;-18.290283;1.576748;0.003966;-0.002515;0.003241;136.571869;91.571869;0.004321;0.003773;7.520927e-05;0.00807;-0.00172;0.001376;-0.00979;0.834004;0.001451;-0.001451;0.037435
0.502013;2.215502;0.903511;-0.773636;0.074336;-0.054481;0.779106;4.116419e-04;0.003963;0.00392;0.326062;-0.103877;-9.626814;3.0669;0.006491;-0.002116;0.004304;137.642227;92.642227;0.005738;0.005179;4.116419e-04;0.010243;-0.002402;0.003963;-0.012645;0.84903;0.004374;-0.004374;0.033899
0.569178;2.215502;0.920658;-0.773745;0.074137;-0.056532;0.779342;-3.781261e-04;0.001955;9.13566e-04;0.305361;0.193399;5.170654;3.274812;0.00227;-6.932587e-04;0.001482;154.634903;109.634895;0.001976;0.00179;-3.781261e-04;0.004422;-0.002595;0.001955;-0.007017;0.864127;0.001577;-0.001577;0.057037
0.636344;2.215502;0.936484;-0.773719;0.073757;-0.053327;0.779053;-0.003039;0.002286;9.979276e-04;1.305082;1.329214;0.752324;0.766235;0.002467;-0.00322;0.002844;59.313896;14.313898;0.003792;0.003293;-0.003039;5.623352e-04;0.001434;0.002286;8.71185e-04;0.883157;-7.527292e-04;7.527292e-04;0.051449
0.703509;2.215502;0.950217;-0.773892;0.074062;-0.056475;0.779477;0.001539;0.009086;-0.006165;0.152802;-0.169337;-5.905397;6.544429;0.012541;-0.001916;0.007228;133.563461;88.563454;0.009638;0.009067;0.001539;-0.01591;0.003579;0.009086;0.019489;0.893742;0.010624;-0.010624;0.073991
0.770674;2.215502;0.935155;-0.773686;0.074089;-0.06101;0.779616;0.008054;0.004228;-0.006151;0.023919;-1.904706;-0.525015;41.807499;0.012583;-3.009682e-04;0.006442;170.796982;125.796989;0.008589;0.008491;0.008054;-0.01056;-0.001742;0.004228;0.008818;0.874145;0.012282;-0.012282;0.053356
0.83784;2.215502;0.904992;-0.773631;0.073609;-0.055627;0.779113;-0.02442;0.004571;-0.00596;4.452899;5.342351;0.187183;0.224573;0.005748;-0.025597;0.015673;61.780102;16.780102;0.020897;0.019269;-0.02442;-0.007927;-0.003993;0.004571;0.003933;0.849365;-0.019849;0.019849;0.029983
0.905005;2.215502;0.875476;-0.774118;0.073467;-0.046941;0.779011;-0.016098;0.010553;-7.76139e-04;1.52423;1.525352;0.655587;0.656069;0.010576;-0.01612;0.013348;65.988197;20.988195;0.017798;0.015523;-0.016098;-0.002993;0.00144;0.010553;0.004433;0.828535;-0.005544;0.005544;0.029899
0.97217;2.215502;0.856654;-0.774131;0.073899;-0.050815;0.779309;0.016286;0.008912;-0.002986;-0.452857;-1.827522;-0.547189;-2.208201;0.017344;0.007854;0.004745;14.015535;149.015533;0.006326;0.010028;0.016286;-0.008326;0.002354;0.008912;0.010679;0.80584;0.025198;-0.025198;0.030576
1.039336;2.215502;0.833228;-0.774224;0.073952;-0.057087;0.77984;0.005175;0.00335;4.011989e-04;-0.620967;-1.544708;-0.647372;-1.610391;0.00526;0.003266;9.967947e-04;70.357552;25.357553;0.001329;0.003066;0.005175;0.002571;-0.001769;0.00335;-0.004341;0.776142;0.008526;-0.008526;0.037329
1.106501;2.215502;0.795475;-0.77457;0.073654;-0.055367;0.780031;-0.007695;0.002456;0.004972;2.167934;3.133125;0.31917;0.461269;0.004486;-0.009724;0.007105;165.653702;120.653709;0.009473;0.008388;-0.007695;0.014279;-0.004335;0.002456;-0.018615;0.740108;-0.005239;0.005239;0.051894
1.173667;2.215502;0.763803;-0.774346;0.073231;-0.057221;0.779903;0.005372;-0.002231;0.016357;0.828974;2.40779;0.415319;1.20631;0.018363;-0.015223;0.016793;126.090874;81.090874;0.022391;0.019419;0.005372;0.035313;-0.002598;-0.002231;-0.037911;0.706582;0.003141;-0.003141;0.040426
1.240832;2.215502;0.709438;-0.774061;0.07337;-0.058776;0.779748;-0.025318;-3.351334e-05;0.011113;7.099585;-755.457642;-0.001324;0.140853;0.004156;-0.029508;0.016832;5.253631;140.253632;0.022443;0.021193;-0.025318;0.021079;0.001146;-3.351334e-05;-0.019933;0.650662;-0.025351;0.025351;0.048719
1.307997;2.215502;0.652166;-0.774338;0.07359;-0.04961;0.779407;-0.027851;0.003081;0.009347;5.356466;9.039626;0.110624;0.18669;0.005686;-0.030456;0.018071;10.462098;145.462097;0.024095;0.022441;-0.027851;0.018999;-3.054344e-04;0.003081;-0.019304;0.602556;-0.02477;0.02477;0.048142
1.375163;2.215502;0.556072;-0.774691;0.073238;-0.05301;0.779948;0.00399;0.007384;0.032604;0.703317;-0.540329;-1.850724;1.421834;0.038335;-0.026962;0.032649;131.541428;86.541428;0.043531;0.037889;0.00399;0.065199;9.931055e-06;0.007384;-0.065189;0.503062;0.011373;-0.011373;0.033326
1.442328;2.215502;0.421603;-0.774787;0.073262;-0.056475;0.78029;0.009502;0.007597;0.051026;0.713031;-1.250846;-0.799459;1.402464;0.059584;-0.042485;0.051034;129.560303;84.560303;0.068046;0.059204;0.009502;0.100471;0.00158;0.007597;-0.098892;0.365129;0.017099;-0.017099;0.057047
-0.371137;2.148337;0.308609;-0.772785;0.07537;-0.051789;0.778177;0.003675;-6.728754e-04;0.00879;0.715634;5.461031;0.183116;1.397362;0.010556;-0.007554;0.009055;123.637756;78.637756;0.012073;0.010504;0.003675;0.018447;-8.663647e-04;-6.728754e-04;-0.019313;0.256819;0.003002;-0.003002;0.078336
-0.303971;2.148337;0.374159;-0.772891;0.075284;-0.044416;0.777818;-0.012226;0.001592;-5.408858e-04;7.593685;7.681255;0.130187;0.131688;0.001613;-0.012248;0.00693;51.970291;6.970292;0.00924;0.008752;-0.012226;-0.001427;3.455251e-04;0.001592;0.001773;0.329742;-0.010635;0.010635;0.042614
-0.236806;2.148337;0.485764;-0.7729;0.075396;-0.05109;0.778247;-0.047617;0.01705;-0.037895;1.885196;2.792737;0.358072;0.530449;0.034531;-0.065098;0.049814;104.030617;59.030617;0.066419;0.058416;-0.047617;-0.076761;9.714523e-04;0.01705;0.077732;0.434674;-0.030567;0.030567;0.055543
-0.169641;2.148337;0.565621;-0.773006;0.075418;-0.061951;0.779144;-0.014103;0.014051;-0.037583;1.001304;1.003723;0.996291;0.998697;0.040107;-0.040159;0.040133;124.713531;79.713531;0.053511;0.046342;-0.014103;-0.076015;8.484408e-04;0.014051;0.076863;0.50367;-5.230984e-05;5.230984e-05;0.052156
-0.102475;2.148337;0.640963;-0.77308;0.075341;-0.05846;0.778939;0.021982;0.003937;-0.010771;0.040386;-5.583461;-0.1791;24.761324;0.02701;-0.001091;0.014051;6.422767;141.42276;0.018734;0.018381;0.021982;-0.017405;-0.004137;0.003937;0.013268;0.582503;0.025919;-0.025919;0.054382
-0.03531;2.148337;0.708974;-0.773214;0.074554;-0.057397;0.778918;-0.013268;0.004528;-0.001918;2.847012;2.930349;0.341256;0.351245;0.004732;-0.013472;0.009102;42.356003;177.356003;0.012136;0.010907;-0.013268;-5.439282e-04;-0.003291;0.004528;-0.002747;0.651577;-0.00874;0.00874;0.082042
0.031855;2.148337;0.741551;-0.773335;0.074714;-0.061577;0.779373;0.015243;0.004315;-0.003452;-0.204158;-3.532552;-0.283081;-4.89816;0.016242;0.003316;0.006463;16.874062;151.874054;0.008618;0.00991;0.015243;-0.0078;8.956144e-04;0.004315;0.008695;0.679973;0.019559;-0.019559;0.075314
0.099021;2.148337;0.796234;-0.773265;0.074713;-0.051938;0.778601;0.042749;0.006469;-0.011453;-0.068518;-6.608405;-0.151322;-14.594773;0.046061;0.003156;0.021453;18.567522;153.56752;0.028604;0.029712;0.042749;-0.020702;-0.002203;0.006469;0.018498;0.744295;0.049218;-0.049218;0.060674
0.166186;2.148337;0.843642;-0.773257;0.074347;-0.045928;0.778179;-8.207667e-04;0.006775;-0.008551;0.51723;0.121144;8.254657;1.933376;0.012334;-0.006379;0.009357;136.61412;91.61412;0.012475;0.010985;-8.207667e-04;-0.01435;-0.002752;0.006775;0.011598;0.797714;0.005954;-0.005954;0.03598
0.233352;2.148337;0.836526;-0.773423;0.074325;-0.049853;0.778583;-0.023427;-0.001723;-0.009711;13.650358;-13.600042;-0.073529;0.073258;0.001988;-0.027138;0.014563;80.314758;35.314754;0.019417;0.01879;-0.023427;-0.016626;-0.002796;-0.001723;0.01383;0.786673;-0.02515;0.02515;0.080875
0.300517;2.148337;0.910792;-0.77367;0.074451;-0.055995;0.779259;-0.019754;0.004065;-0.002967;4.542666;4.859975;0.205762;0.220135;0.004429;-0.020118;0.012273;49.091026;4.091027;0.016364;0.015106;-0.019754;-0.002169;-0.003765;0.004065;-0.001596;0.854797;-0.015689;0.015689;0.061234
0.367682;2.148337;0.911878;-0.773815;0.074217;-0.058574;0.779569;0.002579;0.007441;-4.770625e-05;-0.346481;-0.346566;-2.885455;-2.88616;0.007441;0.002578;0.002431;147.818558;102.818565;0.003242;0.004363;0.002579;0.002237;-0.002332;0.007441;-0.004569;0.853304;0.010019;-0.010019;0.059849
0.434848;2.148337;0.887111;-0.773463;0.074381;-0.060181;0.779358;0.002342;0.003241;0.001732;-0.218709;-0.722561;-1.383967;-4.572279;0.004582;0.001002;0.00179;124.430916;79.430916;0.002386;0.002781;0.002342;0.005619;-0.002154;0.003241;-0.007774;0.826929;0.005584;-0.005584;0.029078
0.502013;2.148337;0.919753;-0.773653;0.07402;-0.054193;0.779073;0.004025;7.112572e-04;-0.001023;-0.097517;-5.659378;-0.176698;-10.254669;0.004316;4.208503e-04;0.001947;42.000111;177.000107;0.002597;0.002748;0.004025;1.163143e-04;-0.002163;7.112572e-04;-0.002279;0.86556;0.004737;-0.004737;0.056845
0.569178;2.148337;0.905593;-0.773935;0.073952;-0.051915;0.779191;-0.005439;0.002812;-4.478193e-04;1.926349;1.934334;0.516974;0.519117;0.002836;-0.005463;0.004149;18.319906;153.319901;0.005533;0.004871;-0.005439;0.001787;-0.002683;0.002812;-0.00447;0.853678;-0.002627;0.002627;0.091678
0.636344;2.148337;0.885807;-0.774276;0.073814;-0.0526;0.779563;-0.00372;0.004361;-0.001104;0.857782;0.85295;1.172402;1.165797;0.004509;-0.003868;0.004189;179.993195;134.993195;0.005585;0.004841;-0.00372;6.795071e-05;-0.002276;0.004361;-0.002344;0.833208;6.412907e-04;-6.412907e-04;0.07642
0.703509;2.148337;0.914696;-0.774307;0.073952;-0.057082;0.779922;-0.006653;0.004632;-0.007677;1.237346;1.436398;0.696186;0.808181;0.008517;-0.010538;0.009527;113.026665;68.026665;0.012703;0.011022;-0.006653;-0.015222;-1.307893e-04;0.004632;0.015091;0.857614;-0.002021;0.002021;0.068254
0.770674;2.148337;0.93028;-0.773741;0.074099;-0.064107;0.77992;0.007894;0.003842;-0.003573;-0.176528;-2.054539;-0.486727;-5.664824;0.009975;0.001761;0.004107;16.556396;151.556396;0.005476;0.006148;0.007894;-0.003208;-0.003938;0.003842;-7.297679e-04;0.866173;0.011736;-0.011736;0.092659
0.83784;2.148337;0.911839;-0.773558;0.073705;-0.064105;0.779701;-0.014848;0.004873;-0.009344;2.160423;3.047354;0.328154;0.462872;0.008597;-0.018573;0.013585;72.87693;27.876932;0.018113;0.016035;-0.014848;-0.010431;-0.008257;0.004873;0.002174;0.847735;-0.009976;0.009976;0.063879
0.905005;2.148337;0.871018;-0.774025;0.072996;-0.058439;0.779653;-0.011204;0.004307;-0.023686;1.321193;2.601578;0.384382;0.756892;0.021474;-0.028372;0.024923;121.222122;76.222122;0.033231;0.02887;-0.011204;-0.044459;-0.002912;0.004307;0.041547;0.812579;-0.006897;0.006897;0.051434
0.97217;2.148337;0.835787;-0.774193;0.073412;-0.059414;0.779932;0.002808;0.012945;-0.013791;0.302012;-0.216918;-4.610045;3.311129;0.02257;-0.006816;0.014693;135.324936;90.324944;0.019591;0.01776;0.002808;-0.034495;0.006912;0.012945;0.041407;0.776373;0.015754;-0.015754;0.013799
1.039336;2.148337;0.838645;-0.773975;0.073819;-0.058971;0.77972;-0.004712;0.008641;-0.005899;0.638655;0.545281;1.833916;1.565792;0.010874;-0.006944;0.008909;116.608261;71.608261;0.011879;0.01037;-0.004712;-0.015342;0.003544;0.008641;0.018885;0.779675;0.003929;-0.003929;0.025268
1.106501;2.148337;0.806235;-0.774321;0.073664;-0.056464;0.779864;-0.020064;0.003818;-0.008284;3.534547;5.255449;0.190279;0.282922;0.00641;-0.022656;0.014533;77.45771;32.45771;0.019378;0.017634;-0.020064;-0.013005;-0.003563;0.003818;0.009442;0.749772;-0.016246;0.016246;0.059059
1.173667;2.148337;0.757794;-0.774497;0.073115;-0.049234;0.779497;-0.00387;0.001147;-0.0018;2.577852;3.374103;0.296375;0.38792;0.001726;-0.004449;0.003088;53.011948;8.011947;0.004117;0.003679;-0.00387;-0.001314;-0.002286;0.001147;-9.714949e-04;0.708559;-0.002723;0.002723;0.066452
1.240832;2.148337;0.693683;-0.774489;0.073268;-0.055316;0.779911;-0.008425;0.001873;0.004052;2.999783;4.497728;0.222334;0.333357;0.003276;-0.009829;0.006553;1.556641;136.556641;0.008737;0.007875;-0.008425;0.007779;3.24786e-04;0.001873;-0.007455;0.638368;-0.006552;0.006552;0.042155
1.307997;2.148337;0.631717;-0.774518;0.073234;-0.050102;0.779584;-0.045006;0.003218;0.001483;13.802621;13.983943;0.071511;0.07245;0.003264;-0.045051;0.024158;39.699085;174.699081;0.03221;0.031179;-0.045006;0.004079;-0.001112;0.003218;-0.005191;0.581616;-0.041787;0.041787;0.035427
1.375163;2.148337;0.553998;-0.77467;0.073072;-0.040158;0.779144;-0.025198;0.003851;0.019862;2.532204;6.543276;0.152829;0.394913;0.013932;-0.03528;0.024606;167.062714;122.062714;0.032808;0.02929;-0.025198;0.03998;-2.564534e-04;0.003851;-0.040237;0.51384;-0.021347;0.021347;0.064204
1.442328;2.148337;0.447094;-0.774746;0.073398;-0.036452;0.779068;-0.002202;0.003723;0.035729;0.958475;0.591592;1.690354;1.043324;0.036612;-0.035092;0.035852;136.740662;91.740662;0.047802;0.041401;-0.002202;0.070335;0.001123;0.003723;-0.069213;0.410642;0.00152;-0.00152;0.080198
-0.371137;2.081171;0.275476;-0.773223;0.075334;-0.046087;0.77825;-0.025143;0.003183;-0.016043;3.107388;7.898921;0.1266;0.321814;0.010421;-0.032381;0.021401;98.384262;53.384266;0.028534;0.025773;-0.025143;-0.033757;0.00167;0.003183;0.035427;0.22939;-0.02196;0.02196;0.103313
-0.303971;2.081171;0.410809;-0.773053;0.075407;-0.053153;0.778538;0.002481;0.003547;-0.009333;0.51235;-0.699442;-1.42971;1.951791;0.012363;-0.006334;0.009348;142.399536;97.399529;0.012464;0.01098;0.002481;-0.018573;-9.342184e-05;0.003547;0.018479;0.357656;0.006029;-0.006029;0.043974
-0.236806;2.081171;0.51935;-0.772784;0.075053;-0.043912;0.777661;-0.006501;0.009349;-0.025815;0.899789;0.695289;1.438251;1.111372;0.028429;-0.02558;0.027004;128.262253;83.262253;0.036006;0.031196;-0.006501;-0.048516;-0.003114;0.009349;0.045402;0.475439;0.002849;-0.002849;0.063501
-0.169641;2.081171;0.585961;-0.772879;0.074919;-0.05059;0.778148;-0.034649;0.008853;-0.027811;2.151151;3.913817;0.255505;0.464867;0.022409;-0.048205;0.035307;103.478203;58.478203;0.047076;0.041666;-0.034649;-0.055452;-1.702739e-04;0.008853;0.055282;0.53537;-0.025796;0.025796;0.06651
-0.102475;2.081171;0.632323;-0.773151;0.074821;-0.053259;0.778587;-0.006376;0.001661;-0.018401;1.286122;3.837933;0.260557;0.777531;0.016477;-0.021192;0.018835;124.624001;79.624001;0.025113;0.021805;-0.006376;-0.034301;-0.002501;0.001661;0.031801;0.579064;-0.004715;0.004715;0.052589
-0.03531;2.081171;0.694366;-0.773196;0.074352;-0.052975;0.778567;-0.015752;-1.456319e-04;-0.008169;5.748309;-108.163322;-0.009245;0.173964;0.003348;-0.019246;0.011297;86.716705;41.716705;0.015063;0.01408;-0.015752;-0.014185;-0.002152;-1.456319e-04;0.012033;0.641391;-0.015898;0.015898;0.064248
0.031855;2.081171;0.740301;-0.77335;0.074496;-0.05584;0.778934;0.00858;0.001165;0.002872;-0.019063;-7.367783;-0.135726;-52.458778;0.009562;1.822766e-04;0.00469;77.591469;32.591469;0.006253;0.006315;0.00858;0.0054;3.442012e-04;0.001165;-0.005056;0.684461;0.009744;-0.009744;0.053987
0.099021;2.081171;0.794519;-0.773233;0.074342;-0.048556;0.778314;0.035765;0.004535;0.01751;0.075926;-7.887093;-0.126789;13.170637;0.043611;-0.003311;0.023461;90.142868;45.142868;0.031281;0.030238;0.035765;0.035661;-6.413831e-04;0.004535;-0.036302;0.745963;0.0403;-0.0403;0.052853
0.166186;2.081171;0.853463;-0.773211;0.074349;-0.04709;0.778203;-2.300596e-04;0.013037;0.01118;0.339964;0.017647;56.667866;2.941487;0.019403;-0.006596;0.013;138.064087;93.064079;0.017333;0.015606;-2.300596e-04;0.025196;-0.002836;0.013037;-0.028032;0.806374;0.012807;-0.012807;0.029705
0.233352;2.081171;0.822078;-0.773393;0.074212;-0.051177;0.77863;-0.012214;0.011418;-0.002671;1.067935;1.069709;0.934833;0.936386;0.011717;-0.012513;0.012115;9.61167;144.611664;0.016153;0.013991;-0.012214;8.301428e-04;-0.006173;0.011418;-0.007003;0.770901;-7.959734e-04;7.959734e-04;0.054194
0.300517;2.081171;0.852607;-0.773884;0.074062;-0.056502;0.779471;-0.019654;0.005436;-0.003167;3.438678;3.615268;0.276605;0.290809;0.00583;-0.020047;0.012939;54.85054;9.850539;0.017251;0.015674;-0.019654;-0.003856;-0.002479;0.005436;0.001377;0.796105;-0.014217;0.014217;0.037148
0.367682;2.081171;0.907126;-0.774072;0.073326;-0.055671;0.779528;-0.011675;0.005412;-0.004981;1.926654;2.157111;0.463583;0.519035;0.006758;-0.013021;0.00989;88.143463;43.143463;0.013186;0.011609;-0.011675;-0.009631;-3.311188e-04;0.005412;0.0093;0.851455;-0.006263;0.006263;0.070506
0.434848;2.081171;0.90912;-0.77375;0.07349;-0.061849;0.77969;-2.081645e-04;0.003286;0.003657;0.449604;0.063352;15.784903;2.224181;0.005592;-0.002514;0.004053;135.309937;90.309944;0.005404;0.004791;-2.081645e-04;0.00697;3.44073e-04;0.003286;-0.006626;0.847271;0.003078;-0.003078;0.040421
0.502013;2.081171;0.940556;-0.773893;0.073677;-0.059156;0.77964;0.00298;-7.341516e-04;-6.818565e-04;0.275774;4.059738;0.246321;3.626164;0.003102;-8.553586e-04;0.001979;8.609893;143.609894;0.002638;0.002404;0.00298;-0.002152;7.882854e-04;-7.341516e-04;0.00294;0.8814;0.002246;-0.002246;0.051813
0.569178;2.081171;0.91285;-0.774052;0.073888;-0.056385;0.779613;-0.006849;-0.001533;-0.005095;6.388191;-4.468342;-0.223797;0.156539;0.001556;-0.009938;0.005747;95.081024;50.081028;0.007662;0.0072;-0.006849;-0.008336;-0.001854;-0.001533;0.006482;0.856465;-0.008382;0.008382;0.056115
0.636344;2.081171;0.896109;-0.774231;0.073704;-0.056566;0.779785;-9.713039e-04;-0.001156;4.5106e-05;-1.214236;-0.839979;-1.190506;-0.823563;-9.608943e-04;-0.001167;1.029292e-04;114.637115;69.637115;1.372389e-04;7.191055e-04;-9.713039e-04;0.002517;-0.002427;-0.001156;-0.004944;0.839542;-0.002128;0.002128;0.049584
0.703509;2.081171;0.902494;-0.774359;0.073711;-0.057208;0.77996;0.002779;0.004812;-6.458504e-04;-0.51832;-0.577599;-1.731305;-1.92931;0.005;0.002591;0.001204;145.6427;100.6427;0.001605;0.002887;0.002779;-0.001394;1.023522e-04;0.004812;0.001496;0.845285;0.007591;-0.007591;0.055447
0.770674;2.081171;0.89758;-0.774026;0.073624;-0.060379;0.77986;0.004292;-0.002471;-0.001581;0.607875;1.736818;0.575765;1.645076;0.004644;-0.002823;0.003733;43.384624;178.384628;0.004978;0.004353;0.004292;-0.001217;-0.001946;-0.002471;-7.29423e-04;0.837201;0.001821;-0.001821;0.091624
0.83784;2.081171;0.903032;-0.773899;0.073485;-0.060969;0.779768;4.88545e-04;-0.001193;0.001276;1.599302;0.409421;2.442476;0.625273;0.001176;-0.001881;0.001528;119.95092;74.95092;0.002038;0.00178;4.88545e-04;0.007415;-0.004862;-0.001193;-0.012277;0.842063;-7.047144e-04;7.047144e-04;0.052965
0.905005;2.081171;0.891231;-0.773939;0.073227;-0.064699;0.780083;5.342596e-05;0.003071;0.004302;0.489559;-0.017395;-57.48774;2.042655;0.006122;-0.002997;0.004559;136.440765;91.440765;0.006079;0.005367;5.342596e-05;0.009595;-9.905945e-04;0.003071;-0.010586;0.826533;0.003125;-0.003125;0.063377
0.97217;2.081171;0.839584;-0.774048;0.073286;-0.064683;0.780196;-0.010193;0.005131;0.004856;1.774045;1.98663;0.503365;0.563684;0.00654;-0.011602;0.009071;179.283264;134.283264;0.012095;0.010609;-0.010193;0.00908;6.319164e-04;0.005131;-0.008448;0.774901;-0.005062;0.005062;0.022833
1.039336;2.081171;0.815806;-0.774121;0.073466;-0.059133;0.779844;-0.002081;0.007268;0.002104;0.328092;0.286344;3.4923;3.047929;0.00772;-0.002533;0.005126;127.697784;82.697784;0.006835;0.006167;-0.002081;0.002544;0.001664;0.007268;-8.796582e-04;0.756673;0.005187;-0.005187;0.02174
1.106501;2.081171;0.786569;-0.774484;0.073514;-0.062166;0.780445;-0.006973;0.009472;-0.011245;0.835355;0.736145;1.358427;1.197096;0.01518;-0.012681;0.013931;120.378624;75.378624;0.018574;0.016107;-0.006973;-0.021521;-9.682707e-04;0.009472;0.020553;0.724403;0.002499;-0.002499;0.048945
1.173667;2.081171;0.754594;-0.774376;0.073136;-0.056602;0.779879;-0.020782;0.003359;-0.021244;2.108133;6.186443;0.161644;0.474353;0.015722;-0.033145;0.024434;108.700722;63.700722;0.032578;0.028805;-0.020782;-0.041772;-7.1557e-04;0.003359;0.041057;0.697992;-0.017423;0.017423;0.062053
1.240832;2.081171;0.701632;-0.774555;0.073118;-0.055562;0.77998;-0.014962;0.001275;-0.010049;3.253133;11.738904;0.085187;0.307396;0.006075;-0.019762;0.012919;98.543213;53.543213;0.017225;0.015599;-0.014962;-0.020203;1.048814e-04;0.001275;0.020308;0.646069;-0.013687;0.013687;0.023597
1.307997;2.081171;0.636033;-0.774559;0.07303;-0.05304;0.779801;-0.035003;0.003278;-0.014769;4.816266;10.679021;0.093642;0.20763;0.008313;-0.040039;0.024176;84.416214;39.416218;0.032235;0.029852;-0.035003;-0.028645;-8.92532e-04;0.003278;0.027753;0.582993;-0.031726;0.031726;0.029254
1.375163;2.081171;0.56458;-0.77473;0.072741;-0.04506;0.779441;-0.024881;0.007236;-0.037537;1.551337;3.438693;0.290808;0.644605;0.032005;-0.04965;0.040827;116.853981;71.853981;0.054436;0.047509;-0.024881;-0.075358;2.845988e-04;0.007236;0.075642;0.519519;-0.017645;0.017645;0.05334
1.442328;2.081171;0.444007;-0.775122;0.073283;-0.044961;0.779876;-0.003748;0.008893;-0.052909;0.907896;0.421479;2.372595;1.101448;0.055858;-0.050713;0.053285;132.936813;87.936813;0.071047;0.061553;-0.003748;-0.107743;0.001924;0.008893;0.109667;0.399046;0.005145;-0.005145;0.062794
-0.371137;2.014006;0.248071;-0.772658;0.074532;-0.04281;0.777424;-0.019092;0.0053;-0.003266;3.4071;3.602226;0.277606;0.293505;0.00573;-0.019522;0.012626;74.360054;29.360052;0.016835;0.015287;-0.019092;-0.009863;0.003331;0.0053;0.013194;0.205261;-0.013792;0.013792;0.128149
-0.303971;2.014006;0.423708;-0.772997;0.075281;-0.047088;0.77808;0.006908;0.003688;-0.016836;0.522926;-1.87322;-0.53384;1.912318;0.022211;-0.011615;0.016913;146.008682;101.008675;0.022551;0.019846;0.006908;-0.034661;9.883018e-04;0.003688;0.035649;0.37662;0.010596;-0.010596;0.0694
-0.236806;2.014006;0.521877;-0.77315;0.074921;-0.040321;0.777817;0.004696;0.001735;-0.013802;0.623828;-2.706113;-0.369534;1.603006;0.017097;-0.010665;0.013881;145.953171;100.953171;0.018508;0.016171;0.004696;-0.025177;-0.002426;0.001735;0.022751;0.481556;0.006431;-0.006431;0.03849
-0.169641;2.014006;0.569034;-0.77305;0.074854;-0.047936;0.778144;-0.040301;-1.068262e-04;-0.009428;21.255917;-377.259277;-0.002651;0.047046;0.001995;-0.042403;0.022199;68.87645;23.876446;0.029598;0.028956;-0.040301;-0.017847;-0.00101;-1.068262e-04;0.016837;0.521098;-0.040408;0.040408;0.064722
-0.102475;2.014006;0.629785;-0.773114;0.074813;-0.052962;0.778529;-0.020247;-7.897242e-05;-0.00672;11.397157;-256.386505;-0.0039;0.087741;0.001955;-0.022281;0.012118;75.228859;30.228857;0.016158;0.015547;-0.020247;-0.011849;-0.001591;-7.897242e-05;0.010258;0.576823;-0.020326;0.020326;0.061274
-0.03531;2.014006;0.685461;-0.77325;0.074576;-0.054042;0.778715;-0.026101;1.872899e-04;-0.00259;59.890045;139.360947;0.007176;0.016697;4.400337e-04;-0.026354;0.013397;51.816364;6.816366;0.017862;0.017718;-0.026101;-0.003152;-0.002028;1.872899e-04;0.001125;0.631419;-0.025914;0.025914;0.061543
0.031855;2.014006;0.743175;-0.773334;0.074584;-0.061903;0.779385;-0.01304;0.002206;0.005853;3.583412;5.911228;0.16917;0.279064;0.004194;-0.015028;0.009611;179.791199;134.791199;0.012814;0.01167;-0.01304;0.013016;-0.00131;0.002206;-0.014326;0.681271;-0.010834;0.010834;0.063323
0.099021;2.014006;0.783855;-0.773117;0.07447;-0.059975;0.779007;0.015803;0.008857;0.015986;0.14044;-1.784256;-0.560458;7.120465;0.028688;-0.004029;0.016359;111.54525;66.54525;0.021811;0.0206;0.015803;0.033824;-0.001852;0.008857;-0.035676;0.72388;0.024659;-0.024659;0.078853
0.166186;2.014006;0.81944;-0.773307;0.074588;-0.05858;0.779101;0.008343;0.010891;0.010585;0.051504;-0.766057;-1.305385;19.415985;0.020279;-0.001044;0.010662;121.006058;76.006058;0.014216;0.013881;0.008343;0.024397;-0.003226;0.010891;-0.027623;0.760861;0.019235;-0.019235;0.055543
0.233352;2.014006;0.826361;-0.773522;0.074338;-0.056357;0.779127;-0.001628;0.003969;-0.002286;0.510743;0.41027;2.437418;1.957933;0.004784;-0.002443;0.003614;174.455765;129.455765;0.004818;0.004245;-0.001628;-0.001316;-0.003257;0.003969;-0.001941;0.770004;0.002341;-0.002341;0.009293
0.300517;2.014006;0.839622;-0.774;0.074017;-0.053894;0.779397;-0.013273;0.002995;-0.00893;2.481148;4.432333;0.225615;0.403039;0.00694;-0.017218;0.012079;93.599724;48.599728;0.016105;0.014362;-0.013273;-0.014953;-0.002906;0.002995;0.012047;0.785728;-0.010279;0.010279;0.020336
0.367682;2.014006;0.876823;-0.773952;0.073833;-0.059325;0.779726;-0.016607;-0.00629;-0.011305;24.406807;-2.640349;-0.378738;0.040972;9.782161e-04;-0.023875;0.012427;93.274673;48.27467;0.016569;0.016253;-0.016607;-0.018205;-0.004405;-0.00629;0.0138;0.817498;-0.022897;0.022897;0.054402
0.434848;2.014006;0.905858;-0.773386;0.073742;-0.06455;0.77957;-1.648748e-05;-0.010204;-0.008978;2.961068;-0.001616;-618.909729;0.337716;0.005212;-0.015433;0.010322;132.145966;87.145973;0.013763;0.012396;-1.648748e-05;-0.016201;-0.001754;-0.010204;0.014447;0.841308;-0.010221;0.010221;0.102685
0.502013;2.014006;0.933494;-0.773674;0.073619;-0.059603;0.779451;0.005489;-0.007303;-3.96905e-04;1.329704;0.75163;1.330443;0.752047;0.005502;-0.007316;0.006409;147.466492;102.466499;0.008545;0.007425;0.005489;-8.890131e-04;9.520308e-05;-0.007303;9.842162e-04;0.873891;-0.001814;0.001814;0.090801
0.569178;2.014006;0.926836;-0.773933;0.073583;-0.054964;0.779364;-0.002768;0.002598;8.663617e-04;1.062274;1.065544;0.938488;0.941377;0.002734;-0.002905;0.00282;171.776901;126.776901;0.003759;0.003256;-0.002768;0.004233;-0.0025;0.002598;-0.006733;0.871871;-1.702806e-04;1.702806e-04;0.065234
0.636344;2.014006;0.933962;-0.773966;0.073325;-0.056321;0.77947;0.001745;0.004063;8.712385e-04;-0.333869;-0.429357;-2.329064;-2.995188;0.004354;0.001454;0.00145;139.300583;94.300583;0.001934;0.00256;0.001745;0.003829;-0.002086;0.004063;-0.005915;0.877642;0.005808;-0.005808;0.052369
0.703509;2.014006;0.915606;-0.774;0.073297;-0.057983;0.779622;0.006693;0.003013;-0.001708;-0.318047;-2.221629;-0.45012;-3.144194;0.007364;0.002342;0.002511;18.864265;153.864273;0.003348;0.004344;0.006693;-0.002512;-9.047826e-04;0.003013;0.001607;0.857622;0.009706;-0.009706;0.065828
0.770674;2.014006;0.880705;-0.773949;0.073317;-0.058493;0.779612;-2.443587e-04;0.003423;4.726343e-04;0.087368;0.071388;14.007868;11.445863;0.003483;-3.042913e-04;0.001894;136.456055;91.456062;0.002525;0.00243;-2.443587e-04;9.696477e-04;-2.437911e-05;0.003423;-9.940268e-04;0.822211;0.003179;-0.003179;0.071675
0.83784;2.014006;0.895095;-0.774063;0.073401;-0.056436;0.779581;3.513337e-04;0.001527;-0.001143;0.155525;-0.230081;-4.346299;6.42985;0.002224;-3.459276e-04;0.001285;9.811871;144.811874;0.001713;0.001611;3.513337e-04;-1.410898e-04;-0.002144;0.001527;-0.002003;0.83866;0.001878;-0.001878;0.04842
0.905005;2.014006;0.905116;-0.774005;0.073336;-0.057575;0.779601;0.001775;0.002272;0.011495;0.700671;-0.781466;-1.279646;1.427203;0.013521;-0.009474;0.011498;131.639755;86.639755;0.01533;0.013345;0.001775;0.025971;-0.002982;0.002272;-0.028953;0.847541;0.004047;-0.004047;0.075248
0.97217;2.014006;0.849848;-0.774237;0.072854;-0.056027;0.779673;-0.003665;0.00379;0.010553;0.988957;0.967204;1.033908;1.011167;0.011254;-0.01113;0.011192;144.588913;99.588905;0.014923;0.012924;-0.003665;0.023461;-0.002354;0.00379;-0.025814;0.793821;1.242853e-04;-1.242853e-04;0.060884
1.039336;2.014006;0.819102;-0.77448;0.072608;-0.056404;0.779918;0.013382;0.004906;0.002374;-0.306148;-2.72759;-0.366624;-3.266393;0.014002;0.004287;0.004858;65.804901;20.804899;0.006477;0.008284;0.013382;0.004377;3.71198e-04;0.004906;-0.004006;0.762697;0.018288;-0.018288;0.065495
1.106501;2.014006;0.795188;-0.77449;0.072873;-0.064183;0.780554;0.011539;0.004493;-0.002797;-0.281123;-2.568132;-0.389388;-3.557163;0.012515;0.003518;0.004498;10.480712;145.480713;0.005998;0.007453;0.011539;-0.007537;0.001943;0.004493;0.009479;0.731005;0.016033;-0.016033;0.077083
1.173667;2.014006;0.76063;-0.774324;0.073112;-0.064227;0.780415;-0.035264;0.002695;-0.003827;11.584403;13.084779;0.076425;0.086323;0.003077;-0.035646;0.019362;56.122459;11.12246;0.025815;0.024853;-0.035264;-0.006947;-7.077658e-04;0.002695;0.006239;0.696403;-0.032569;0.032569;0.057329
1.240832;2.014006;0.701117;-0.774716;0.072972;-0.054709;0.780066;-0.035848;0.002714;0.007365;9.134986;13.207433;0.075715;0.109469;0.004073;-0.037207;0.02064;20.949093;155.949097;0.02752;0.026268;-0.035848;0.015878;-0.001148;0.002714;-0.017026;0.646408;-0.033134;0.033134;0.038364
1.307997;2.014006;0.622893;-0.774706;0.073018;-0.054909;0.780074;-0.021564;0.00164;0.017922;2.749753;13.152845;0.076029;0.363669;0.011387;-0.031312;0.02135;165.151077;120.151085;0.028466;0.025532;-0.021564;0.037154;-0.00131;0.00164;-0.038464;0.567984;-0.019925;0.019925;0.028575
1.375163;2.014006;0.536975;-0.774592;0.072809;-0.053063;0.779814;0.001016;0.003559;0.010714;0.650138;-0.285402;-3.503832;1.538135;0.013077;-0.008502;0.010789;132.60939;87.60939;0.014385;0.012551;0.001016;0.021907;-4.791926e-04;0.003559;-0.022386;0.483912;0.004575;-0.004575;0.026937
1.442328;2.014006;0.438368;-0.774689;0.072784;-0.055004;0.780043;0.027193;0.008461;-0.008301;-0.175079;-3.213881;-0.31115;-5.711711;0.030342;0.005312;0.012515;10.704293;145.7043;0.016687;0.018711;0.027193;-0.017401;7.993302e-04;0.008461;0.0182;0.383364;0.035655;-0.035655;0.026796
-0.371137;1.946841;0.281176;-0.772052;0.074494;-0.048511;0.777153;5.708936e-04;4.386535e-04;0.031136;0.968093;-1.301468;-0.768363;1.032958;0.031641;-0.030631;0.031136;134.432327;89.432327;0.041514;0.035954;5.708936e-04;0.059664;0.002607;4.386535e-04;-0.057057;0.232665;0.00101;-0.00101;0.11626
-0.303971;1.946841;0.417288;-0.772985;0.075024;-0.043897;0.777857;0.009936;0.003442;0.03348;0.668262;-2.886829;-0.346401;1.49642;0.040326;-0.026948;0.033637;126.412971;81.412971;0.044849;0.039096;0.009936;0.065966;9.941187e-04;0.003442;-0.064972;0.373392;0.013378;-0.013378;0.080162
-0.236806;1.946841;0.519362;-0.77337;0.074857;-0.041001;0.778065;-4.188357e-04;0.00573;0.030404;0.840097;0.073097;13.68047;1.190339;0.033214;-0.027903;0.030559;135.569382;90.569382;0.040745;0.03533;-4.188357e-04;0.063156;-0.002349;0.00573;-0.065506;0.478361;0.005311;-0.005311;0.063523
-0.169641;1.946841;0.547936;-0.773352;0.074474;-0.04517;0.778242;-0.03353;0.004427;0.01693;3.674732;7.573905;0.132032;0.272129;0.010881;-0.039984;0.025433;179.027328;134.027328;0.03391;0.030928;-0.03353;0.034402;-5.425126e-04;0.004427;-0.034945;0.502766;-0.029103;0.029103;0.07292
-0.102475;1.946841;0.618436;-0.773142;0.074715;-0.051512;0.77845;-0.01903;0.001228;0.009697;4.476243;15.50281;0.064504;0.223402;0.005121;-0.022924;0.014023;179.510666;134.510666;0.018697;0.017245;-0.01903;0.019319;7.619605e-05;0.001228;-0.019242;0.566924;-0.017803;0.017803;0.045869
-0.03531;1.946841;0.686054;-0.773362;0.074467;-0.051326;0.778633;-0.021681;9.367555e-04;-0.001065;22.021648;23.145021;0.043206;0.04541;9.868146e-04;-0.021731;0.011359;42.676628;177.67662;0.015145;0.014827;-0.021681;7.688527e-04;-0.002899;9.367555e-04;-0.003668;0.634728;-0.020744;0.020744;0.075728
0.031855;1.946841;0.743215;-0.773457;0.074158;-0.058111;0.779174;-0.017196;0.003123;-0.008849;3.186281;5.505575;0.181634;0.313846;0.006437;-0.020509;0.013473;87.76049;42.760494;0.017964;0.016249;-0.017196;-0.015755;-0.001943;0.003123;0.013812;0.685104;-0.014073;0.014073;0.082645
0.099021;1.946841;0.776799;-0.773299;0.074078;-0.057575;0.77897;0.005601;0.004417;-0.006314;0.117425;-1.268048;-0.788614;8.516046;0.01135;-0.001333;0.006342;156.310028;111.31002;0.008455;0.008048;0.005601;-0.012897;2.696397e-04;0.004417;0.013167;0.719223;0.010018;-0.010018;0.084412
0.166186;1.946841;0.798697;-0.773602;0.074064;-0.055288;0.779103;0.017299;0.004141;-0.004309;-0.153638;-4.17784;-0.239358;-6.508824;0.018584;0.002855;0.007864;29.001278;164.001282;0.010486;0.011556;0.017299;-0.00408;-0.004538;0.004141;-4.580949e-04;0.743409;0.021439;-0.021439;0.058579
0.233352;1.946841;0.837274;-0.773676;0.073351;-0.046106;0.778512;0.007585;0.004848;-0.003143;-0.289126;-1.564384;-0.639229;-3.458706;0.009644;0.002788;0.003428;17.645958;152.64595;0.004571;0.005731;0.007585;-0.001848;-0.004438;0.004848;-0.00259;0.791168;0.012433;-0.012433;0.003827
0.300517;1.946841;0.855101;-0.774005;0.073463;-0.049636;0.779066;-0.011975;0.00336;0.002294;3.330974;3.563896;0.280592;0.300212;0.003696;-0.012311;0.008003;25.649635;160.649643;0.010671;0.009677;-0.011975;0.004038;5.494973e-04;0.00336;-0.003489;0.805465;-0.008615;0.008615;0.066595
0.367682;1.946841;0.86741;-0.774198;0.073573;-0.052413;0.77945;-0.008469;0.004127;-4.727284e-04;2.047585;2.052083;0.48731;0.48838;0.004145;-0.008486;0.006316;57.988586;12.988588;0.008421;0.007435;-0.008469;-0.001336;3.905062e-04;0.004127;0.001726;0.814997;-0.004342;0.004342;0.004228
0.434848;1.946841;0.879693;-0.773997;0.073539;-0.05324;0.779304;6.863616e-04;0.001462;-0.004712;0.62976;-0.469471;-2.130055;1.587907;0.005803;-0.003654;0.004728;141.164612;96.164604;0.006305;0.005507;6.863616e-04;-0.008219;-0.001206;0.001462;0.007012;0.826453;0.002148;-0.002148;0.026491
0.502013;1.946841;0.910331;-0.774055;0.073436;-0.051049;0.779205;0.004758;1.527122e-04;-0.001206;0.028447;-31.154694;-0.032098;35.152931;0.005054;-1.437773e-04;0.002599;45.015942;0.015942;0.003465;0.003418;0.004758;8.169584e-05;-0.002493;1.527122e-04;-0.002574;0.859282;0.00491;-0.00491;0.035664
0.569178;1.946841;0.908821;-0.774281;0.073434;-0.051477;0.779457;-0.001284;0.001453;-8.730029e-04;0.90081;0.88342;1.131965;1.110112;0.001708;-0.001538;0.001623;14.139019;149.139023;0.002164;0.001875;-0.001284;2.64334e-04;-0.00201;0.001453;-0.002275;0.857344;1.69401e-04;-1.69401e-04;0.043089
0.636344;1.946841;0.919987;-0.774153;0.073259;-0.055557;0.779594;0.00331;7.997569e-04;-9.739352e-04;-0.127953;-4.139225;-0.241591;-7.815382;0.003644;4.662453e-04;0.001589;32.174706;167.174713;0.002118;0.00229;0.00331;-5.312799e-04;-0.001417;7.997569e-04;-8.853105e-04;0.86443;0.00411;-0.00411;0.046971
0.703509;1.946841;0.910531;-0.774157;0.073203;-0.060947;0.779995;0.00756;5.984451e-04;-5.232231e-04;-0.073608;-12.632434;-0.079161;-13.585546;0.007599;5.593388e-04;0.00352;43.522923;178.522919;0.004693;0.00489;0.00756;-1.236456e-04;-9.228006e-04;5.984451e-04;-7.99155e-04;0.849585;0.008158;-0.008158;0.038528
0.770674;1.946841;0.887573;-0.774133;0.073126;-0.060062;0.779895;-0.002513;7.155437e-04;-0.001359;2.483684;3.511808;0.284754;0.402628;0.001211;-0.003009;0.00211;68.933472;23.933475;0.002813;0.002509;-0.002513;-0.001482;-0.001236;7.155437e-04;2.453949e-04;0.827512;-0.001797;0.001797;0.034091
0.83784;1.946841;0.896625;-0.774153;0.0731;-0.056366;0.779637;5.935723e-04;0.002485;3.368138e-04;-0.210493;-0.238828;-4.18711;-4.750755;0.002544;5.353948e-04;0.001004;141.075821;96.075813;0.001339;0.001548;5.935723e-04;0.00129;-6.158901e-04;0.002485;-0.001905;0.840259;0.003079;-0.003079;0.033714
0.905005;1.946841;0.889871;-0.774212;0.073154;-0.054443;0.779564;0.002234;0.003825;-0.003016;0.014619;-0.584021;-1.712268;68.405914;0.006149;-8.988898e-05;0.003119;162.871094;117.871094;0.004159;0.00413;0.002234;-0.004088;-0.001945;0.003825;0.002143;0.835428;0.006059;-0.006059;0.080851
0.97217;1.946841;0.842724;-0.774509;0.072984;-0.058684;0.78015;0.003042;0.001819;-0.005112;0.358534;-1.672288;-0.597983;2.789134;0.007579;-0.002717;0.005148;165.327805;120.327797;0.006864;0.006162;0.003042;-0.006889;-0.003335;0.001819;0.003554;0.78404;0.004862;-0.004862;0.078314
1.039336;1.946841;0.819921;-0.774701;0.072666;-0.059752;0.780393;0.011055;7.201226e-04;0.003579;0.032712;-15.351135;-0.065142;30.570127;0.012173;-3.981999e-04;0.006286;82.094521;37.094521;0.008381;0.008251;0.011055;0.008429;-0.001271;7.201226e-04;-0.0097;0.760168;0.011775;-0.011775;0.068758
1.106501;1.946841;0.783788;-0.774645;0.072852;-0.065377;0.780805;0.009857;0.001253;0.012722;0.414791;-7.863464;-0.12717;2.410855;0.018985;-0.007875;0.01343;111.239792;66.239792;0.017907;0.015944;0.009857;0.022811;0.002634;0.001253;-0.020177;0.718412;0.01111;-0.01111;0.104035
1.173667;1.946841;0.754967;-0.774689;0.07304;-0.061243;0.780531;-0.03251;0.00309;0.011741;5.448097;10.519945;0.095058;0.18355;0.006614;-0.036033;0.021324;8.860036;143.860031;0.028431;0.026503;-0.03251;0.023598;-1.15327e-04;0.00309;-0.023713;0.693724;-0.029419;0.029419;0.062351
1.240832;1.946841;0.694782;-0.775075;0.072638;-0.052039;0.780209;-0.042253;0.004748;-0.001919;8.77122;8.899213;0.112369;0.114009;0.004826;-0.042332;0.023579;46.70612;1.706118;0.031439;0.02996;-0.042253;-0.001508;-0.00233;0.004748;-8.21924e-04;0.642743;-0.037505;0.037505;0.019247
1.307997;1.946841;0.614817;-0.775063;0.072387;-0.045298;0.779753;-0.036257;0.006219;-8.935715e-04;5.815669;5.830219;0.17152;0.171949;0.006238;-0.036276;0.021257;44.898846;179.898849;0.028342;0.026509;-0.036257;-2.085189e-04;-0.001579;0.006219;-0.00137;0.569519;-0.030038;0.030038;0.05101
1.375163;1.946841;0.533369;-0.774976;0.072351;-0.039077;0.779327;0.011781;0.006406;0.002729;-0.407284;-1.839011;-0.54377;-2.455289;0.012924;0.005264;0.00383;79.648857;34.648861;0.005107;0.007504;0.011781;0.006751;-0.001293;0.006406;-0.008044;0.494292;0.018188;-0.018188;0.074917
1.442328;1.946841;0.44355;-0.77495;0.071957;-0.051375;0.779977;0.058359;0.004831;-0.005192;-0.073609;-12.078959;-0.082789;-13.585318;0.058858;0.004332;0.027263;35.869423;170.869415;0.03635;0.037877;0.058359;-0.00923;-0.001155;0.004831;0.008075;0.392175;0.06319;-0.06319;0.020265
-0.371137;1.879675;0.249557;-0.772633;0.074751;-0.05144;0.777943;-0.01942;-4.254241e-04;0.021017;2.510261;-45.649406;-0.021906;0.398365;0.013141;-0.032986;0.023064;160.349396;115.349396;0.030751;0.027441;-0.01942;0.041023;0.001011;-4.254241e-04;-0.040012;0.198118;-0.019846;0.019846;0.070612
-0.303971;1.879675;0.408824;-0.773097;0.074775;-0.055945;0.778717;-0.007991;0.004785;0.043391;1.075877;1.670028;0.598792;0.929475;0.042255;-0.045462;0.043859;140.262344;95.262337;0.058478;0.050655;-0.007991;0.086104;6.772907e-04;0.004785;-0.085427;0.352878;-0.003206;0.003206;0.058714
-0.236806;1.879675;0.519607;-0.773282;0.074723;-0.054203;0.778772;0.002016;0.012557;0.045208;0.723998;-0.16056;-6.228215;1.381219;0.0528;-0.038227;0.045514;133.777115;88.777107;0.060685;0.052779;0.002016;0.090722;-3.069261e-04;0.012557;-0.091029;0.465405;0.014573;-0.014573;0.057816
-0.169641;1.879675;0.562505;-0.773308;0.074462;-0.054886;0.778821;-0.009743;0.003383;0.027958;1.24902;2.879815;0.347245;0.800628;0.025538;-0.031898;0.028718;144.766266;99.766273;0.038291;0.033228;-0.009743;0.056658;-7.419656e-04;0.003383;-0.0574;0.507619;-0.00636;0.00636;0.06338
-0.102475;1.879675;0.626972;-0.773197;0.074779;-0.056493;0.778856;-0.003182;0.001688;0.01371;1.11338;1.884979;0.53051;0.898166;0.013178;-0.014672;0.013925;141.609085;96.609085;0.018566;0.016086;-0.003182;0.027302;1.176845e-04;0.001688;-0.027185;0.570479;-0.001494;0.001494;0.010752
-0.03531;1.879675;0.689215;-0.773365;0.074575;-0.054885;0.778888;-0.005556;0.003126;9.335261e-04;1.753389;1.777306;0.562649;0.570324;0.003225;-0.005655;0.00444;1.285057;136.285065;0.00592;0.005191;-0.005556;0.005563;-0.003695;0.003126;-0.009258;0.63433;-0.00243;0.00243;0.044556
0.031855;1.879675;0.735229;-0.773534;0.074079;-0.056364;0.779115;-0.004998;0.002703;-0.008291;1.287146;1.849241;0.540762;0.776912;0.007994;-0.010289;0.009141;116.031334;71.031334;0.012189;0.010583;-0.004998;-0.013252;-0.00333;0.002703;0.009922;0.678865;-0.002295;0.002295;0.054332
0.099021;1.879675;0.794076;-0.773462;0.073969;-0.054979;0.778934;0.001211;0.003677;-0.007743;0.524715;-0.329321;-3.036549;1.905797;0.010285;-0.005397;0.007841;141.117783;96.117783;0.010455;0.009199;0.001211;-0.014018;-0.001469;0.003677;0.012548;0.739097;0.004888;-0.004888;0.06556
0.166186;1.879675;0.809037;-0.773648;0.074064;-0.057429;0.779304;0.006618;0.003891;-0.003964;-0.112426;-1.701107;-0.587853;-8.894755;0.009447;0.001062;0.004192;4.383744;139.383743;0.00559;0.005976;0.006618;-0.004912;-0.003017;0.003891;0.001894;0.751608;0.010509;-0.010509;0.064929
0.233352;1.879675;0.837073;-0.773656;0.073605;-0.054258;0.779041;-3.024589e-04;0.002618;0.002482;0.426466;0.115513;8.657062;2.344854;0.004038;-0.001722;0.00288;144.864395;99.864395;0.00384;0.003414;-3.024589e-04;0.008587;-0.003622;0.002618;-0.012209;0.782815;0.002316;-0.002316;0.054312
0.300517;1.879675;0.863701;-0.773661;0.073454;-0.05844;0.779334;-0.011212;-4.99428e-05;0.0057;5.799913;-224.497711;-0.004454;0.172416;0.002346;-0.013608;0.007977;177.656021;132.656021;0.010636;0.009947;-0.011212;0.012197;-7.970989e-04;-4.99428e-05;-0.012994;0.805261;-0.011262;0.011262;0.012955
0.367682;1.879675;0.886767;-0.774009;0.073438;-0.055763;0.779483;-0.004405;-0.00204;0.00433;6.090982;-2.159117;-0.463152;0.164177;0.001266;-0.007712;0.004489;162.724945;117.724945;0.005985;0.005611;-0.004405;0.008147;5.135003e-04;-0.00204;-0.007634;0.831004;-0.006446;0.006446;0.015036
0.434848;1.879675;0.902618;-0.774102;0.073626;-0.058329;0.77978;0.001039;0.001286;0.001362;0.081201;-0.807864;-1.237831;12.315121;0.002531;-2.054836e-04;0.001368;121.740105;76.740105;0.001824;0.00176;0.001039;0.003245;-5.197691e-04;0.001286;-0.003764;0.844289;0.002325;-0.002325;0.00105
0.502013;1.879675;0.917589;-0.77406;0.073322;-0.056399;0.779567;0.006061;0.004866;-4.892117e-04;-0.752363;-1.245491;-0.802896;-1.329146;0.006235;0.004691;7.720656e-04;37.937214;172.93721;0.001029;0.00375;0.006061;0.002081;-0.003059;0.004866;-0.00514;0.86119;0.010927;-0.010927;0.02075
0.569178;1.879675;0.920828;-0.774073;0.073101;-0.051999;0.779254;0.001296;0.005555;-0.001384;-0.148526;-0.233362;-4.285195;-6.732817;0.005966;8.860391e-04;0.00254;141.001389;96.001381;0.003386;0.003717;0.001296;-0.002701;-6.762313e-05;0.005555;0.002633;0.868829;0.006852;-0.006852;0.045395
0.636344;1.879675;0.928124;-0.773987;0.073275;-0.054695;0.779369;0.004761;0.003931;0.002685;-0.230652;-1.211028;-0.825745;-4.335533;0.007063;0.001629;0.002717;97.276451;52.276451;0.003623;0.004271;0.004761;0.00456;8.103256e-04;0.003931;-0.00375;0.873429;0.008693;-0.008693;0.068718
0.703509;1.879675;0.915348;-0.774064;0.073259;-0.059525;0.779799;0.007384;7.043529e-04;0.004581;0.167319;-10.483955;-0.095384;5.976603;0.009714;-0.001625;0.00567;102.342041;57.342045;0.00756;0.00708;0.007384;0.011811;-0.002648;7.043529e-04;-0.01446;0.855822;0.008089;-0.008089;0.074804
0.770674;1.879675;0.905681;-0.774178;0.07299;-0.059488;0.779883;-0.002123;8.759775e-04;0.002064;1.646844;2.423554;0.412617;0.607222;0.001928;-0.003175;0.002551;156.597107;111.597099;0.003402;0.002975;-0.002123;0.007001;-0.002872;8.759775e-04;-0.009873;0.846193;-0.001247;0.001247;0.032496
0.83784;1.879675;0.905553;-0.774269;0.07293;-0.059809;0.779993;-0.001456;0.002659;0.002163;0.664465;0.547407;1.826795;1.504971;0.003587;-0.002383;0.002985;151.845963;106.84597;0.00398;0.00347;-0.001456;0.005619;-0.001293;0.002659;-0.006913;0.845744;0.001204;-0.001204;0.016444
0.905005;1.879675;0.89378;-0.77431;0.072774;-0.057862;0.779872;0.006144;0.00547;-0.002538;-0.388056;-1.123098;-0.890394;-2.576946;0.008367;0.003247;0.00256;176.014008;131.014008;0.003413;0.004871;0.006144;-0.004151;-9.242591e-04;0.00547;0.003227;0.835918;0.011614;-0.011614;0.064503
0.97217;1.879675;0.851967;-0.774433;0.072764;-0.061017;0.780233;-0.007241;0.002905;-0.003261;2.122574;2.492751;0.401163;0.471126;0.003863;-0.008199;0.006031;79.913277;34.913277;0.008041;0.007112;-0.007241;-0.0049;-0.001622;0.002905;0.003278;0.790951;-0.004336;0.004336;0.061698
1.039336;1.879675;0.813973;-0.774831;0.072557;-0.053927;0.780087;-0.009876;0.003757;0.004934;2.142362;2.628307;0.380473;0.466774;0.005356;-0.011474;0.008415;173.472;128.472;0.01122;0.009928;-0.009876;0.012196;-0.002328;0.003757;-0.014524;0.760045;-0.006118;0.006118;0.047422
1.106501;1.879675;0.779679;-0.775024;0.072388;-0.056192;0.780423;0.009267;0.00358;0.009162;0.197901;-2.588273;-0.386358;5.053035;0.016017;-0.00317;0.009593;109.814178;64.814178;0.012791;0.011876;0.009267;0.019004;-6.796219e-04;0.00358;-0.019684;0.723486;0.012847;-0.012847;0.077869
1.173667;1.879675;0.759721;-0.775061;0.072515;-0.057298;0.780551;-0.008463;0.003924;0.002584;2.02213;2.15696;0.463616;0.494528;0.004441;-0.008981;0.006711;4.105329;139.105331;0.008948;0.007895;-0.008463;0.006383;-0.001214;0.003924;-0.007597;0.702423;-0.004539;0.004539;0.036998
1.240832;1.879675;0.685496;-0.775077;0.072453;-0.058655;0.780663;-0.018385;0.008574;-0.016214;1.606406;2.144341;0.466344;0.622508;0.01618;-0.025991;0.021085;105.074287;60.074284;0.028114;0.024566;-0.018385;-0.02961;-0.002818;0.008574;0.026792;0.626841;-0.009811;0.009811;0.028525
1.307997;1.879675;0.627484;-0.774835;0.072032;-0.055035;0.78012;-0.025489;0.012101;-0.038511;1.370246;2.106313;0.474763;0.729796;0.036159;-0.049547;0.042853;116.97625;71.97625;0.057137;0.049683;-0.025489;-0.076346;-6.767191e-04;0.012101;0.075669;0.572449;-0.013388;0.013388;0.05076
1.375163;1.879675;0.560356;-0.77473;0.072023;-0.049886;0.779668;0.012373;0.005247;-0.054857;0.723754;-2.358155;-0.42406;1.381686;0.063783;-0.046163;0.054973;141.428131;96.428139;0.073297;0.063748;0.012373;-0.109614;-1.007268e-04;0.005247;0.109513;0.510471;0.01762;-0.01762;0.026267
1.442328;1.879675;0.460307;-0.774872;0.072064;-0.057293;0.780322;0.047719;4.773555e-04;-0.045794;0.36269;-99.965775;-0.010003;2.757178;0.075625;-0.027428;0.051527;162.567978;117.567986;0.068702;0.061629;0.047719;-0.091402;-1.84949e-04;4.773555e-04;0.091217;0.403014;0.048197;-0.048197;0.025912
-0.371137;1.81251;0.269391;-0.773359;0.074733;-0.049713;0.778551;-0.045011;0.002375;-0.011674;9.367727;18.949175;0.052773;0.106749;0.005095;-0.047731;0.026413;73.375801;28.375805;0.035218;0.033648;-0.045011;-0.024242;8.937804e-04;0.002375;0.025136;0.219679;-0.042636;0.042636;0.059997
-0.303971;1.81251;0.404678;-0.773334;0.074777;-0.059447;0.779212;-0.024294;2.97469e-04;-0.006128;14.793332;81.668968;0.012245;0.067598;0.00174;-0.025736;0.013738;71.253845;26.253847;0.018317;0.017766;-0.024294;-0.011984;-2.708705e-04;2.97469e-04;0.011713;0.345231;-0.023997;0.023997;0.051484
-0.236806;1.81251;0.485054;-0.773216;0.074506;-0.058979;0.779033;0.009611;6.481675e-04;-0.006572;0.215918;-14.827299;-0.067443;4.63139;0.013084;-0.002825;0.007954;177.048782;132.048782;0.010606;0.009801;0.009611;-0.010905;-0.002239;6.481675e-04;0.008667;0.426075;0.010259;-0.010259;0.057338
-0.169641;1.81251;0.562604;-0.773087;0.074372;-0.0581;0.778826;0.012343;0.00259;-0.01342;0.313294;-4.766159;-0.209813;3.191889;0.021745;-0.006813;0.014279;160.949936;115.949928;0.019039;0.017223;0.012343;-0.025401;-0.001439;0.00259;0.023962;0.504504;0.014933;-0.014933;0.083545
-0.102475;1.81251;0.623848;-0.773109;0.074379;-0.054876;0.778614;0.004907;0.006586;-0.016445;0.482584;-0.744978;-1.342321;2.072176;0.022213;-0.010719;0.016466;143.767944;98.767944;0.021955;0.019395;0.004907;-0.031848;-0.001041;0.006586;0.030806;0.568972;0.011493;-0.011493;0.044686
-0.03531;1.81251;0.680295;-0.773324;0.074154;-0.054229;0.778761;-5.626768e-04;0.008236;-0.011999;0.538224;0.068323;14.636447;1.857963;0.016616;-0.008943;0.01278;138.077759;93.077759;0.01704;0.014977;-5.626768e-04;-0.019764;-0.004233;0.008236;0.015532;0.626066;0.007673;-0.007673;0.060634
0.031855;1.81251;0.724328;-0.773544;0.073626;-0.053024;0.778847;-0.001526;0.005417;-0.007518;0.619518;0.281753;3.549214;1.614158;0.010227;-0.006336;0.008281;135.523758;90.523766;0.011041;0.00965;-0.001526;-0.011536;-0.0035;0.005417;0.008036;0.671305;0.003891;-0.003891;0.063004
0.099021;1.81251;0.776744;-0.773626;0.073543;-0.05313;0.778928;-3.028501e-04;0.003577;-0.002197;0.283179;0.084662;11.811717;3.531341;0.004568;-0.001294;0.002931;143.114761;98.114761;0.003908;0.003556;-3.028501e-04;-0.003232;-0.001161;0.003577;0.002072;0.723613;0.003274;-0.003274;0.073424
0.166186;1.81251;0.794007;-0.773795;0.073318;-0.050536;0.778902;-0.001875;0.005599;-3.488002e-04;0.336813;0.334889;2.986066;2.96901;0.005615;-0.001891;0.003753;157.718384;112.718384;0.005005;0.004508;-0.001875;0.001219;-0.001917;0.005599;-0.003136;0.743471;0.003724;-0.003724;0.071705
0.233352;1.81251;0.83032;-0.773926;0.07318;-0.051073;0.779054;-0.005892;0.003088;0.002651;1.735586;1.90806;0.524093;0.576174;0.003812;-0.006616;0.005214;174.263153;129.263153;0.006952;0.006093;-0.005892;0.006704;-0.001402;0.003088;-0.008106;0.779247;-0.002804;0.002804;0.050226
0.300517;1.81251;0.874029;-0.773936;0.073044;-0.05243;0.779142;-0.010343;0.00342;0.001502;2.932335;3.023804;0.330709;0.341025;0.003582;-0.010505;0.007044;35.625092;170.625092;0.009391;0.008454;-0.010343;0.001892;0.001111;0.00342;-7.814825e-04;0.821598;-0.006922;0.006922;0.063729
0.367682;1.81251;0.898466;-0.773994;0.073194;-0.058088;0.779614;-0.004107;0.002171;2.320516e-05;1.891955;1.89199;0.528544;0.528554;0.002171;-0.004107;0.003139;42.21283;177.21283;0.004185;0.003682;-0.004107;1.104753e-04;-6.406494e-05;0.002171;-1.745402e-04;0.840377;-0.001936;0.001936;0.046601
0.434848;1.81251;0.900141;-0.774037;0.073013;-0.055289;0.779436;0.001386;0.003206;-8.521259e-04;-0.296125;-0.432213;-2.313675;-3.376955;0.003543;0.001049;0.001247;170.509857;125.509857;0.001662;0.002101;0.001386;3.63862e-04;-0.002068;0.003206;-0.002432;0.844853;0.004592;-0.004592;0.042708
0.502013;1.81251;0.899429;-0.774114;0.072777;-0.053973;0.779399;0.004245;0.003772;7.707553e-04;-0.665138;-1.125193;-0.888737;-1.503447;0.004815;0.003202;8.061167e-04;103.22316;58.22316;0.001075;0.00283;0.004245;0.004572;-0.00303;0.003772;-0.007602;0.845456;0.008017;-0.008017;0.050774
0.569178;1.81251;0.912718;-0.774383;0.07255;-0.046958;0.779191;0.00398;0.00432;0.00403;-0.014182;-0.921272;-1.085455;-70.513809;0.008184;1.16061e-04;0.004034;112.14682;67.14682;0.005379;0.005418;0.00398;0.007751;3.097001e-04;0.00432;-0.007441;0.86576;0.0083;-0.0083;0.051134
0.636344;1.81251;0.920239;-0.774026;0.072917;-0.047472;0.778901;0.006839;-0.001004;8.378298e-04;0.157741;6.810096;0.146841;6.339521;0.006927;-0.001093;0.00401;53.710587;8.710586;0.005347;0.005022;0.006839;0.001112;5.640527e-04;-0.001004;-5.475543e-04;0.872767;0.005835;-0.005835;0.063058
0.703509;1.81251;0.898171;-0.774249;0.072952;-0.053913;0.779545;0.010013;-0.005822;-7.122925e-04;0.582794;1.719805;0.581461;1.715873;0.010045;-0.005854;0.007949;56.610207;11.610209;0.010599;0.009285;0.010013;4.188248e-04;-0.001843;-0.005822;-0.002262;0.844258;0.004191;-0.004191;0.066476
0.770674;1.81251;0.882733;-0.774474;0.072687;-0.055496;0.779855;-0.001747;-0.00292;0.002009;-18.41309;-0.598163;-1.671784;-0.054309;-2.404244e-04;-0.004427;0.002093;141.519745;96.519753;0.002791;0.002875;-0.001747;0.006165;-0.002146;-0.00292;-0.008311;0.827237;-0.004667;0.004667;0.040911
0.83784;1.81251;0.873264;-0.774666;0.072567;-0.054796;0.779985;-9.192751e-04;-0.003184;0.003393;3.689858;-0.288713;-3.463642;0.271013;0.001525;-0.005629;0.003577;134.067535;89.067535;0.00477;0.004351;-9.192751e-04;0.01028;-0.003493;-0.003184;-0.013773;0.818467;-0.004103;0.004103;0.016971
0.905005;1.81251;0.872323;-0.774428;0.07242;-0.05659;0.779862;0.007109;1.746695e-04;0.004919;0.246019;-40.697517;-0.024572;4.064724;0.00966;-0.002376;0.006018;105.244957;60.244957;0.008024;0.007361;0.007109;0.012972;-0.003133;1.746695e-04;-0.016105;0.815733;0.007283;-0.007283;0.047543
0.97217;1.81251;0.86588;-0.774372;0.072558;-0.062619;0.780281;-0.007625;0.005676;0.010882;1.165467;1.343371;0.744396;0.858025;0.011779;-0.013727;0.012753;153.157364;108.157372;0.017004;0.01474;-0.007625;0.022288;-5.246538e-04;0.005676;-0.022813;0.80326;-0.001949;0.001949;0.047664
1.039336;1.81251;0.826757;-0.774614;0.072536;-0.05446;0.779907;-0.013467;0.003461;0.006161;2.830912;3.891541;0.256968;0.353243;0.005465;-0.015472;0.010468;179.875137;134.875137;0.013958;0.01254;-0.013467;0.013098;-7.764188e-04;0.003461;-0.013874;0.772297;-0.010006;0.010006;0.050631
1.106501;1.81251;0.783468;-0.774694;0.072434;-0.058033;0.780235;0.014434;0.002725;0.00259;-0.145333;-5.297247;-0.188777;-6.880727;0.014981;0.002177;0.006402;67.718285;22.718287;0.008536;0.009346;0.014434;0.005982;-8.009211e-04;0.002725;-0.006783;0.725435;0.017158;-0.017158;0.064515
1.173667;1.81251;0.746186;-0.774936;0.07232;-0.060631;0.780662;-0.007573;0.005103;0.008494;1.263857;1.484152;0.673786;0.791229;0.009363;-0.011833;0.010598;157.733734;112.733734;0.014131;0.012265;-0.007573;0.01653;4.586667e-04;0.005103;-0.016071;0.685555;-0.00247;0.00247;0.041924
1.240832;1.81251;0.655103;-0.775252;0.072236;-0.056587;0.780664;-0.001306;0.005647;0.017177;0.779615;0.23131;4.323205;1.282685;0.019695;-0.015355;0.017525;137.285095;92.285103;0.023367;0.020288;-0.001306;0.035186;-8.329078e-04;0.005647;-0.036019;0.598516;0.004341;-0.004341;0.058918
1.307997;1.81251;0.60516;-0.775246;0.071926;-0.061399;0.780993;0.017639;0.001277;0.004424;-0.008391;-13.812738;-0.072397;-119.178589;0.018759;1.574007e-04;0.009301;73.156624;28.156622;0.012401;0.012454;0.017639;0.009434;-5.857328e-04;0.001277;-0.01002;0.543761;0.018916;-0.018916;0.067241
1.375163;1.81251;0.538281;-0.775142;0.072044;-0.061809;0.780933;0.018316;0.001716;-0.016935;0.306257;-10.672757;-0.093697;3.265234;0.028876;-0.008843;0.01886;162.242523;117.242516;0.025146;0.022778;0.018316;-0.035479;0.001609;0.001716;0.037088;0.476472;0.020032;-0.020032;0.019705
1.442328;1.81251;0.438019;-0.774959;0.072432;-0.062655;0.780855;0.025396;0.002964;-0.021892;0.268652;-8.569751;-0.11669;3.722282;0.038778;-0.010418;0.024598;163.672485;118.672478;0.032797;0.029935;0.025396;-0.04624;0.002457;0.002964;0.048696;0.375363;0.02836;-0.02836;0.006305
-0.371137;1.745344;0.281493;-0.773505;0.074532;-0.047726;0.778552;-0.050198;0.006117;-0.012667;5.989468;8.206413;0.121856;0.16696;0.008835;-0.052916;0.030875;74.60347;29.603468;0.041167;0.038561;-0.050198;-0.028092;0.002758;0.006117;0.03085;0.233766;-0.044081;0.044081;0.027192
-0.303971;1.745344;0.399432;-0.773559;0.074859;-0.053637;0.779022;-0.026917;0.005093;-0.012416;3.335551;5.285194;0.189208;0.299801;0.009344;-0.031169;0.020257;88.876686;43.87669;0.027009;0.024496;-0.026917;-0.025398;5.653514e-04;0.005093;0.025963;0.345796;-0.021824;0.021824;0.064124
-0.236806;1.745344;0.496209;-0.773258;0.074521;-0.053885;0.778707;0.012228;0.004218;-0.013047;0.248053;-2.899276;-0.344914;4.031391;0.021872;-0.005425;0.013648;162.600571;117.600578;0.018198;0.016686;0.012228;-0.023521;-0.002574;0.004218;0.020948;0.442324;0.016446;-0.016446;0.077046
-0.169641;1.745344;0.562058;-0.77336;0.074122;-0.049177;0.778459;0.01426;0.002367;-0.008813;0.122367;-6.024509;-0.165989;8.17216;0.018945;-0.002318;0.010632;176.449341;131.449341;0.014176;0.01347;0.01426;-0.016068;-0.001558;0.002367;0.01451;0.512881;0.016627;-0.016627;0.064809
-0.102475;1.745344;0.625451;-0.773562;0.073976;-0.048313;0.778592;-0.007294;0.001468;-6.286783e-04;4.85188;4.969652;0.201221;0.206106;0.001513;-0.007339;0.004426;34.738274;169.738281;0.005901;0.005467;-0.007294;9.656114e-04;-0.002223;0.001468;-0.003189;0.577138;-0.005827;0.005827;0.031291
-0.03531;1.745344;0.701538;-0.773693;0.073559;-0.051792;0.778906;-0.008784;-8.292418e-04;0.006724;4.199026;-10.593228;-0.0944;0.23815;0.003005;-0.012619;0.007812;162.817169;117.817177;0.010416;0.009573;-0.008784;0.017019;-0.003572;-8.292418e-04;-0.020592;0.649746;-0.009614;0.009614;0.055613
0.031855;1.745344;0.739933;-0.773394;0.073309;-0.051982;0.778598;-0.003675;-0.002742;0.005306;4.029287;-1.34042;-0.746035;0.248183;0.002118;-0.008535;0.005326;148.727142;103.727142;0.007102;0.006512;-0.003675;0.013079;-0.002467;-0.002742;-0.015546;0.687951;-0.006417;0.006417;0.079278
0.099021;1.745344;0.749604;-0.773771;0.073368;-0.055455;0.779217;-0.009668;-0.002727;0.008494;5.161284;-3.545428;-0.282053;0.19375;0.002979;-0.015373;0.009176;161.981552;116.981544;0.012235;0.011373;-0.009668;0.018513;-0.001525;-0.002727;-0.020038;0.69415;-0.012395;0.012395;0.051399
0.166186;1.745344;0.809402;-0.774106;0.073078;-0.054762;0.779474;-0.019364;-0.01255;0.026171;4.058291;-1.543;-0.648088;0.246409;0.010435;-0.042349;0.026392;154.84436;109.84436;0.03519;0.032278;-0.019364;0.051441;9.016871e-04;-0.01255;-0.050539;0.754639;-0.031914;0.031914;0.04184
0.233352;1.745344;0.87466;-0.773999;0.073221;-0.058819;0.779676;-0.00201;-0.025627;0.028362;2.634915;-0.078419;-12.751955;0.379519;0.016904;-0.04454;0.030722;137.136612;92.136604;0.040963;0.036651;-0.00201;0.055625;0.001099;-0.025627;-0.054527;0.815841;-0.027636;0.027636;0.048267
0.300517;1.745344;0.885023;-0.774;0.073103;-0.053584;0.779289;9.651787e-04;-0.005633;0.003793;2.733612;0.171329;5.836711;0.365816;0.002693;-0.007361;0.005027;124.942009;79.942009;0.006703;0.00601;9.651787e-04;0.009904;-0.002318;-0.005633;-0.012222;0.831439;-0.004668;0.004668;0.0969
0.367682;1.745344;0.880711;-0.773973;0.073256;-0.058245;0.779611;-0.001653;0.002376;7.243821e-04;0.710922;0.695562;1.437687;1.406624;0.002503;-0.001779;0.002141;166.477997;121.478004;0.002855;0.002484;-0.001653;0.003561;-0.002112;0.002376;-0.005673;0.822466;7.234635e-04;-7.234635e-04;0.082599
0.434848;1.745344;0.892301;-0.774227;0.072976;-0.055534;0.779639;0.003325;0.001236;-0.00241;0.070518;-2.689211;-0.371856;14.180685;0.004908;-3.460795e-04;0.002627;19.891666;154.891663;0.003502;0.003393;0.003325;-0.001741;-0.00308;0.001236;-0.001339;0.836767;0.004562;-0.004562;0.043433
0.502013;1.745344;0.906847;-0.774148;0.072893;-0.056543;0.779625;-0.001861;-0.002133;-5.217143e-04;-1.739403;-0.872666;-1.145914;-0.57491;-0.001458;-0.002536;5.391012e-04;69.840012;24.840012;7.188016e-04;0.00147;-0.001861;0.002321;-0.003365;-0.002133;-0.005686;0.850304;-0.003995;0.003995;0.037162
0.569178;1.745344;0.911954;-0.774779;0.072491;-0.054023;0.780036;-0.001357;-0.005477;-0.002496;-36.77459;-0.247828;-4.035052;-0.027193;-1.80924e-04;-0.006653;0.003236;109.118271;64.118271;0.004315;0.004377;-0.001357;-0.002419;-0.002573;-0.005477;-1.543262e-04;0.85793;-0.006834;0.006834;0.03371
0.636344;1.745344;0.893216;-0.774333;0.07268;-0.050263;0.779359;0.001362;0.004931;-0.009269;0.499959;-0.276309;-3.619138;2.000165;0.012586;-0.006293;0.009439;140.051071;95.051071;0.012586;0.0111;0.001362;-0.017468;-0.001071;0.004931;0.016397;0.842953;0.006294;-0.006294;0.046404
0.703509;1.745344;0.870389;-0.774733;0.07258;-0.052557;0.779898;0.007269;0.004044;-0.006861;0.109556;-1.797767;-0.556246;9.127788;0.012705;-0.001392;0.007048;165.153564;120.153572;0.009398;0.00897;0.007269;-0.012122;-0.001601;0.004044;0.010521;0.817832;0.011313;-0.011313;0.002262
0.770674;1.745344;0.871208;-0.77474;0.072345;-0.057172;0.780208;-0.001657;-0.001068;-0.002355;3.69471;-1.552054;-0.644307;0.270657;0.001011;-0.003735;0.002373;93.039749;48.039753;0.003164;0.002887;-0.001657;-0.002675;-0.002035;-0.001068;6.395897e-04;0.814036;-0.002724;0.002724;0.037109
0.83784;1.745344;0.874999;-0.774809;0.071973;-0.052441;0.779909;-0.002828;9.729461e-04;-0.002654;1.79403;2.906875;0.344012;0.557404;0.002337;-0.004192;0.003264;77.225082;32.225082;0.004352;0.00382;-0.002828;-0.002818;-0.002489;9.729461e-04;3.291227e-04;0.822558;-0.001855;0.001855;0.046037
0.905005;1.745344;0.870501;-0.774804;0.071925;-0.049395;0.779701;0.002003;0.002493;0.003103;0.161279;-0.803315;-1.244841;6.200428;0.005361;-8.645502e-04;0.003113;119.860687;74.860687;0.00415;0.003894;0.002003;0.006338;-1.319757e-04;0.002493;-0.00647;0.821106;0.004496;-0.004496;0.047238
0.97217;1.745344;0.860235;-0.774828;0.072031;-0.05358;0.780011;0.002913;0.001474;0.007541;0.550849;-1.975765;-0.506133;1.815378;0.009769;-0.005381;0.007575;121.829063;76.829063;0.0101;0.008868;0.002913;0.013288;0.001793;0.001474;-0.011495;0.806655;0.004388;-0.004388;0.01412
1.039336;1.745344;0.815614;-0.774808;0.072263;-0.051305;0.77986;-0.001774;0.00293;8.610605e-04;0.625066;0.605532;1.651441;1.59983;0.003083;-0.001927;0.002505;151.233002;106.232994;0.00334;0.002918;-0.001774;0.001616;1.059506e-04;0.00293;-0.00151;0.764309;0.001156;-0.001156;0.008622
1.106501;1.745344;0.778694;-0.774776;0.072155;-0.054188;0.780013;0.004558;0.004346;0.002133;-0.351562;-1.048962;-0.953323;-2.844448;0.006588;0.002316;0.002136;113.162621;68.162621;0.002848;0.003859;0.004558;0.007287;-0.003021;0.004346;-0.010308;0.724506;0.008904;-0.008904;0.017411
1.173667;1.745344;0.765799;-0.774841;0.071889;-0.055395;0.780138;-0.019827;0.006234;0.015621;2.003494;3.18052;0.314414;0.499128;0.013546;-0.027139;0.020342;165.312454;120.312462;0.027123;0.023922;-0.019827;0.033521;-0.002279;0.006234;-0.0358;0.710404;-0.013593;0.013593;0.033824
1.240832;1.745344;0.694255;-0.775261;0.071735;-0.048808;0.780101;-0.004676;0.003327;0.02162;1.063263;1.405236;0.711624;0.940501;0.021313;-0.022662;0.021987;141.196838;96.196838;0.029316;0.025393;-0.004676;0.041858;0.001383;0.003327;-0.040475;0.645447;-0.001348;0.001348;0.025711
1.307997;1.745344;0.629402;-0.775409;0.071991;-0.052814;0.780532;0.031083;0.001332;0.026528;0.304707;-23.332851;-0.042858;3.281846;0.046622;-0.014206;0.030414;103.119019;58.119019;0.040552;0.036743;0.031083;0.050128;0.002927;0.001332;-0.047201;0.576588;0.032416;-0.032416;0.04313
1.375163;1.745344;0.550248;-0.775321;0.072093;-0.059401;0.780928;0.02832;0.002517;0.025775;0.302997;-11.253661;-0.08886;3.300364;0.044242;-0.013405;0.028823;105.928894;60.928894;0.038431;0.034833;0.02832;0.050884;6.649089e-04;0.002517;-0.050219;0.490847;0.030837;-0.030837;0.075699
1.442328;1.745344;0.443194;-0.774967;0.071936;-0.06411;0.780935;0.01965;0.005436;0.024168;0.335204;-3.614875;-0.276635;2.983259;0.037735;-0.012649;0.025192;113.307388;68.307388;0.033589;0.030267;0.01965;0.048787;-4.500161e-04;0.005436;-0.049237;0.379083;0.025086;-0.025086;0.055288
-0.371137;1.678179;0.242876;-0.77365;0.073597;-0.043755;0.778374;-0.0636;0.00722;-0.003713;8.603991;8.80839;0.113528;0.116225;0.007415;-0.063794;0.035605;54.940598;9.940599;0.047473;0.045204;-0.0636;-0.010687;0.003262;0.00722;0.013948;0.199121;-0.05638;0.05638;0.057021
-0.303971;1.678179;0.401587;-0.773504;0.074163;-0.056427;0.779097;-0.031544;0.007065;0.002339;4.396659;4.464533;0.223988;0.227445;0.007207;-0.031685;0.019446;38.935112;173.93512;0.025928;0.023891;-0.031544;0.003457;0.001221;0.007065;-0.002237;0.34516;-0.024479;0.024479;0.035879
-0.236806;1.678179;0.503257;-0.773392;0.074051;-0.053923;0.778798;0.008962;0.005626;0.006143;-0.06792;-1.593051;-0.627726;-14.723226;0.01366;9.277573e-04;0.006366;105.22464;60.22464;0.008488;0.008813;0.008962;0.013602;-0.001315;0.005626;-0.014917;0.449333;0.014587;-0.014587;0.078516
-0.169641;1.678179;0.557032;-0.773561;0.07413;-0.054159;0.77899;0.009896;0.004701;0.009363;0.142102;-2.105196;-0.475015;7.037221;0.017015;-0.002418;0.009717;108.87059;63.87059;0.012955;0.012229;0.009896;0.019136;-4.104756e-04;0.004701;-0.019547;0.502873;0.014597;-0.014597;0.04905
-0.102475;1.678179;0.629445;-0.773589;0.074287;-0.054245;0.779039;-0.007808;0.005191;7.093661e-05;1.504132;1.50417;0.664818;0.664835;0.005192;-0.007809;0.0065;13.874816;148.874817;0.008667;0.007556;-0.007808;0.002494;-0.002352;0.005191;-0.004846;0.5752;-0.002617;0.002617;0.052659
-0.03531;1.678179;0.70955;-0.773609;0.073789;-0.058717;0.779335;-0.019932;0.004493;-4.092972e-04;4.431409;4.436646;0.225395;0.225662;0.004499;-0.019939;0.012219;37.578968;172.578964;0.016292;0.015019;-0.019932;0.001916;-0.002734;0.004493;-0.00465;0.650833;-0.01544;0.01544;0.061098
0.031855;1.678179;0.752569;-0.773556;0.073643;-0.057079;0.779147;0.003802;0.001371;0.00226;-0.00392;-2.774206;-0.360464;-255.095825;0.005153;2.019939e-05;0.002566;104.832748;59.832748;0.003422;0.003428;0.003802;0.006391;-0.001871;0.001371;-0.008261;0.69549;0.005173;-0.005173;0.055293
0.099021;1.678179;0.783512;-0.773661;0.073321;-0.055484;0.779106;-0.01189;0.004235;-0.005386;2.304384;2.807615;0.356174;0.433956;0.005869;-0.013524;0.009696;87.259468;42.259468;0.012928;0.011483;-0.01189;-0.010075;-6.981635e-04;0.004235;0.009377;0.728028;-0.007655;0.007655;0.060199
0.166186;1.678179;0.838335;-0.773735;0.073226;-0.062524;0.779704;-0.044332;0.003161;-0.003753;12.912879;14.023738;0.071308;0.077442;0.003456;-0.044626;0.024041;54.837936;9.837936;0.032055;0.030967;-0.044332;-0.007641;1.342941e-04;0.003161;0.007775;0.77581;-0.04117;0.04117;0.023551
0.233352;1.678179;0.887907;-0.773739;0.073219;-0.07105;0.780436;-0.011489;0.003532;-2.154766e-05;3.252504;3.252524;0.307454;0.307455;0.003532;-0.011489;0.007511;38.515045;173.515045;0.010015;0.009069;-0.011489;9.0678e-04;-9.498753e-04;0.003532;-0.001857;0.816857;-0.007957;0.007957;0.013351
0.300517;1.678179;0.888265;-0.773714;0.073093;-0.064446;0.779826;-2.699887e-04;0.006585;0.004289;0.269749;0.041002;24.38887;3.70715;0.008647;-0.002333;0.00549;129.896225;84.896225;0.00732;0.00668;-2.699887e-04;0.007049;0.001528;0.006585;-0.005521;0.823819;0.006315;-0.006315;0.065299
0.367682;1.678179;0.866101;-0.773944;0.073203;-0.057625;0.779531;0.00602;0.00468;-3.912812e-05;-0.777099;-1.28628;-0.777436;-1.286837;0.006021;0.004679;6.710764e-04;51.768017;6.768018;8.947685e-04;0.00365;0.00602;0.001584;-0.001662;0.00468;-0.003247;0.808476;0.0107;-0.0107;0.066192
0.434848;1.678179;0.906973;-0.774246;0.072845;-0.053654;0.779514;0.005084;0.006169;-0.005579;-0.001908;-0.824101;-1.213444;-524.084473;0.011232;2.143109e-05;0.005605;170.004837;125.004829;0.007474;0.007481;0.005084;-0.007027;-0.00413;0.006169;0.002897;0.853319;0.011253;-0.011253;0.025619
0.502013;1.678179;0.930096;-0.774201;0.072553;-0.053635;0.779441;-0.007678;0.003282;0.001214;2.287319;2.339477;0.427446;0.437193;0.003415;-0.007811;0.005613;16.325607;151.325607;0.007483;0.006644;-0.007678;0.003401;-9.721614e-04;0.003282;-0.004373;0.876461;-0.004396;0.004396;0.03096
0.569178;1.678179;0.93394;-0.774507;0.072536;-0.060621;0.780255;4.594209e-04;-0.002298;-0.001855;2.321056;0.199933;5.001669;0.430838;0.001392;-0.00323;0.002311;139.207047;94.207047;0.003081;0.002738;4.594209e-04;-0.003568;-1.410978e-04;-0.002298;0.003427;0.873319;-0.001838;0.001838;0.009318
0.636344;1.678179;0.912781;-0.7741;0.072496;-0.057526;0.779612;-0.00117;-0.005462;-0.005982;3.182572;-0.214239;-4.667687;0.314211;0.003039;-0.009672;0.006355;126.348839;81.348839;0.008474;0.007664;-0.00117;-0.010377;-0.001587;-0.005462;0.00879;0.855255;-0.006633;0.006633;0.044927
0.703509;1.678179;0.896825;-0.774497;0.072466;-0.060377;0.780219;0.003222;-0.003087;0.003166;0.970242;1.04373;0.958102;1.030671;0.004537;-0.004402;0.004469;111.591232;66.591232;0.005959;0.005161;0.003222;0.005183;0.001148;-0.003087;-0.004035;0.836448;1.350113e-04;-1.350113e-04;0.00612
0.770674;1.678179;0.898117;-0.774724;0.072559;-0.064399;0.780774;-0.003638;6.422577e-04;-0.003594;2.11574;5.664434;0.17654;0.472648;0.002685;-0.005681;0.004183;87.005363;42.005367;0.005577;0.004932;-0.003638;-0.004286;-0.002902;6.422577e-04;0.001383;0.833718;-0.002996;0.002996;0.02882
0.83784;1.678179;0.886544;-0.774774;0.072183;-0.057255;0.780233;-0.008936;-0.001631;-0.00551;8.964261;-5.477302;-0.182572;0.111554;0.001327;-0.011894;0.006611;84.597504;39.597504;0.008814;0.008407;-0.008936;-0.007724;-0.003296;-0.001631;0.004428;0.82929;-0.010568;0.010568;0.0471
0.905005;1.678179;0.869645;-0.774896;0.072123;-0.053292;0.780067;-0.00218;0.00224;-0.006674;0.991518;0.973264;1.027471;1.008554;0.00706;-0.007001;0.00703;126.002792;81.002792;0.009374;0.008118;-0.00218;-0.011944;-0.001405;0.00224;0.010539;0.816353;5.988329e-05;-5.988329e-05;0.04115
0.97217;1.678179;0.849752;-0.775088;0.072111;-0.055973;0.780445;0.003949;0.004354;-0.007478;0.286233;-0.906847;-1.102722;3.493657;0.011632;-0.00333;0.007481;149.425415;104.425415;0.009975;0.009071;0.003949;-0.014553;-4.035359e-04;0.004354;0.014149;0.793779;0.008303;-0.008303;0.023267
1.039336;1.678179;0.820275;-0.77496;0.072199;-0.057847;0.780463;-0.002011;0.003342;-0.001945;0.665041;0.601704;1.661946;1.503667;0.003973;-0.002643;0.003308;119.586182;74.586182;0.004411;0.003845;-0.002011;-0.003499;-3.895804e-04;0.003342;0.00311;0.762428;0.001331;-0.001331;0.034603
1.106501;1.678179;0.795748;-0.774949;0.07196;-0.057968;0.780439;-0.023664;0.009942;0.008448;2.148716;2.380313;0.420113;0.465394;0.011946;-0.025669;0.018807;1.826817;136.826813;0.025076;0.022193;-0.023664;0.020168;-0.003271;0.009942;-0.023439;0.737781;-0.013723;0.013723;0.043897
1.173667;1.678179;0.747927;-0.77539;0.071515;-0.05095;0.780346;-0.014411;0.001154;0.026717;1.625395;12.489021;0.08007;0.615235;0.021199;-0.034456;0.027827;150.262665;105.262672;0.037103;0.032435;-0.014411;0.052752;6.816395e-04;0.001154;-0.052071;0.696977;-0.013258;0.013258;0.026694
1.240832;1.678179;0.657001;-0.775368;0.071858;-0.051986;0.780424;0.003;-0.001728;0.011612;0.898127;1.736147;0.575988;1.113429;0.012486;-0.011214;0.01185;126.712372;81.712372;0.0158;0.01369;0.003;0.018783;0.004441;-0.001728;-0.014342;0.605015;0.001272;-0.001272;0.053677
1.307997;1.678179;0.605801;-0.775268;0.072242;-0.049019;0.780168;0.020243;-0.001208;0.007885;0.16619;16.762646;0.059656;6.017208;0.022829;-0.003794;0.013312;79.68531;34.685314;0.017749;0.016629;0.020243;0.014077;0.001692;-0.001208;-0.012385;0.556782;0.019035;-0.019035;0.031472
1.375163;1.678179;0.54854;-0.775109;0.072104;-0.054424;0.780356;0.021048;5.417492e-04;0.015148;0.257757;-38.851383;-0.025739;3.879621;0.029087;-0.007497;0.018292;102.106361;57.106361;0.024389;0.022314;0.021048;0.032629;-0.002333;5.417492e-04;-0.034962;0.494116;0.021589;-0.021589;0.042816
1.442328;1.678179;0.445233;-0.775057;0.07166;-0.054593;0.780275;4.330009e-06;9.655649e-04;0.029325;0.967468;0;0;1.033626;0.029814;-0.028844;0.029329;135.041916;90.041908;0.039105;0.033867;4.330009e-06;0.061815;-0.003165;9.655649e-04;-0.06498;0.39064;9.698949e-04;-9.698949e-04;0.041418
-0.371137;1.611014;0.266158;-0.774072;0.073461;-0.043341;0.778757;-0.059325;-2.277068e-04;2.986288e-04;-262.277771;-260.533081;-0.003838;-0.003813;-2.261979e-04;-0.059327;0.02955;46.967796;1.967797;0.0394;0.039476;-0.059325;-0.002052;0.00265;-2.277068e-04;0.004702;0.222817;-0.059553;0.059553;0.116633
-0.303971;1.611014;0.397794;-0.773579;0.07391;-0.056159;0.779129;-0.029588;0.001402;-0.014755;4.859124;21.101189;0.047391;0.205798;0.007304;-0.03549;0.021397;90.703407;45.703407;0.028529;0.026433;-0.029588;-0.030302;7.914611e-04;0.001402;0.031093;0.341635;-0.028186;0.028186;0.062824
-0.236806;1.611014;0.5081;-0.773551;0.073684;-0.053862;0.778917;-0.012346;0.001949;-0.003533;4.747215;6.334565;0.157864;0.21065;0.002775;-0.013172;0.007973;69.997696;24.997694;0.010631;0.009837;-0.012346;-0.005814;-0.001252;0.001949;0.004562;0.454238;-0.010397;0.010397;0.097424
-0.169641;1.611014;0.560697;-0.773509;0.073551;-0.056364;0.779039;0.013526;0.004115;0.012587;0.207443;-3.286983;-0.30423;4.820601;0.022258;-0.004617;0.013437;109.171021;64.171021;0.017917;0.016593;0.013526;0.027173;-0.002;0.004115;-0.029173;0.504333;0.01764;-0.01764;0.094793
-0.102475;1.611014;0.630411;-0.773532;0.073233;-0.046692;0.778392;0.013404;0.006131;0.003257;-0.333514;-2.186384;-0.457376;-2.998374;0.014649;0.004886;0.004882;82.369553;37.369553;0.006509;0.008612;0.013404;0.009574;-0.003061;0.006131;-0.012635;0.583719;0.019535;-0.019535;0.074422
-0.03531;1.611014;0.702562;-0.773857;0.072791;-0.050431;0.778908;-0.029663;0.005806;-0.002139;5.02017;5.109149;0.195727;0.199196;0.005934;-0.029792;0.017863;49.399086;4.399086;0.023817;0.022106;-0.029663;-0.002539;-0.001739;0.005806;8.003914e-04;0.652131;-0.023857;0.023857;0.027589
0.031855;1.611014;0.735406;-0.773838;0.073233;-0.057677;0.779433;0.012483;0.004361;-6.039221e-04;-0.344574;-2.862175;-0.349385;-2.902136;0.012527;0.004317;0.004105;46.578918;1.578917;0.005474;0.007348;0.012483;0.001127;-0.002335;0.004361;-0.003463;0.677729;0.016844;-0.016844;0.031748
0.099021;1.611014;0.788029;-0.773855;0.072936;-0.048661;0.778806;0.013392;-0.00288;-0.015059;0.530152;4.649746;0.215065;1.886251;0.022372;-0.011861;0.017117;160.442383;115.442375;0.022822;0.020073;0.013392;-0.027745;-0.002373;-0.00288;0.025372;0.739369;0.010512;-0.010512;0.067527
0.166186;1.611014;0.83424;-0.773856;0.073059;-0.05344;0.779132;-0.029335;-0.015262;-0.028283;7.513512;-1.92208;-0.52027;0.133094;0.006847;-0.051443;0.029145;109.991013;64.991013;0.03886;0.036791;-0.029335;-0.058921;0.002355;-0.015262;0.061276;0.780799;-0.044597;0.044597;0.03334
0.233352;1.611014;0.843599;-0.774174;0.072864;-0.058626;0.779802;-0.011862;-0.031988;-0.023254;13.846708;-0.370836;-2.69661;0.072219;0.003413;-0.047263;0.025338;122.825386;77.825386;0.033784;0.032706;-0.011862;-0.04317;-0.003338;-0.031988;0.039832;0.784973;-0.04385;0.04385;0.0034
0.300517;1.611014;0.874927;-0.773813;0.072605;-0.060869;0.779591;0.004815;-0.014365;-0.005127;2.565917;0.335152;2.983718;0.389724;0.006099;-0.01565;0.010875;133.251389;88.251396;0.014499;0.012954;0.004815;-0.007317;-0.002937;-0.014365;0.004379;0.814058;-0.009551;0.009551;0.036459
0.367682;1.611014;0.868861;-0.774257;0.072554;-0.054583;0.779563;0.008459;0.006776;-0.00379;-0.324771;-1.248344;-0.801061;-3.079088;0.0115;0.003735;0.003883;177.286758;132.286758;0.005177;0.006774;0.008459;-0.006257;-0.001324;0.006776;0.004933;0.814278;0.015235;-0.015235;0.045176
0.434848;1.611014;0.904123;-0.774372;0.072251;-0.05215;0.779482;-0.00311;0.003951;0.004762;0.867399;0.786946;1.270735;1.152871;0.006349;-0.005507;0.005928;151.24733;106.24733;0.007904;0.006851;-0.00311;0.010695;-0.001171;0.003951;-0.011866;0.851973;8.418613e-04;-8.418613e-04;0.045975
0.502013;1.611014;0.92549;-0.77435;0.072433;-0.055533;0.779711;-0.004421;0.003736;0.001147;1.17604;1.183492;0.844957;0.850311;0.003894;-0.00458;0.004237;179.970093;134.970093;0.005649;0.004898;-0.004421;0.002371;-7.71185e-05;0.003736;-0.002448;0.869957;-6.855016e-04;6.855016e-04;0.057375
0.569178;1.611014;0.924091;-0.774383;0.072511;-0.058765;0.779987;1.399868e-04;0.001648;1.137246e-04;-0.079343;-0.084926;-11.775019;-12.603575;0.001657;1.314606e-04;7.627063e-04;168.110519;123.110527;0.001017;0.001063;1.399868e-04;0.003404;-0.003176;0.001648;-0.00658;0.865325;0.001788;-0.001788;0.025815
0.636344;1.611014;0.93376;-0.774254;0.072061;-0.055923;0.779608;0.001855;0.012;-0.003219;-0.07106;-0.154542;-6.470723;-14.072561;0.012936;9.192206e-04;0.006008;161.269836;116.269836;0.008011;0.008334;0.001855;-6.789783e-04;-0.00576;0.012;-0.005081;0.877837;0.013855;-0.013855;0.046676
0.703509;1.611014;0.934213;-0.774217;0.071774;-0.056127;0.77956;0.001508;0.028299;0.009273;0.044499;-0.053305;-18.760057;22.472651;0.031196;-0.001388;0.016292;134.619461;89.619453;0.021723;0.021275;0.001508;0.019301;-7.540857e-04;0.028299;-0.020055;0.878086;0.029808;-0.029808;0.017393
0.770674;1.611014;0.903104;-0.774424;0.071829;-0.055842;0.77975;0.006394;0.016752;0.012344;0.072672;-0.381663;-2.620113;13.760474;0.024959;-0.001814;0.013386;121.715958;76.715958;0.017849;0.017276;0.006394;0.022288;0.0024;0.016752;-0.019887;0.847262;0.023145;-0.023145;0.022234
0.83784;1.611014;0.877613;-0.77473;0.072076;-0.058337;0.780259;-0.001265;0.002873;-2.395416e-04;0.442753;0.440073;2.272351;2.258595;0.002887;-0.001278;0.002083;104.076675;59.076672;0.002777;0.002464;-0.001265;-0.002277;0.001798;0.002873;0.004074;0.819276;0.001609;-0.001609;0.022635
0.905005;1.611014;0.870162;-0.774777;0.072123;-0.059048;0.780364;-0.004229;5.357657e-04;-0.005575;1.87595;7.892889;0.126696;0.533063;0.004216;-0.007909;0.006062;111.761559;66.761559;0.008083;0.007108;-0.004229;-0.009854;-0.001295;5.357657e-04;0.008559;0.811113;-0.003693;0.003693;0.023428
0.97217;1.611014;0.845688;-0.775032;0.071823;-0.058971;0.780584;-0.011261;0.004606;-8.171839e-04;2.431791;2.444839;0.409025;0.41122;0.004648;-0.011303;0.007975;33.1693;168.169296;0.010634;0.009473;-0.011261;0.001069;-0.002703;0.004606;-0.003772;0.786717;-0.006655;0.006655;0.033293
1.039336;1.611014;0.82423;-0.775185;0.071575;-0.05482;0.78041;-0.014818;0.005455;0.006863;2.238627;2.716523;0.368118;0.446702;0.00756;-0.016923;0.012241;175.034073;130.034073;0.016322;0.014475;-0.014818;0.017296;-0.00357;0.005455;-0.020866;0.769409;-0.009363;0.009363;0.029995
1.106501;1.611014;0.817032;-0.775379;0.071488;-0.049089;0.780213;-0.037662;0.004956;0.016426;4.099246;7.598602;0.131603;0.243947;0.010553;-0.043259;0.026906;2.924684;137.924683;0.035874;0.032925;-0.037662;0.033673;-8.201019e-04;0.004956;-0.034493;0.767944;-0.032706;0.032706;0.015021
1.173667;1.611014;0.734003;-0.775822;0.071218;-0.038876;0.780053;0.009228;0.004047;0.005771;-0.02404;-2.280113;-0.438575;-41.59679;0.012963;3.116395e-04;0.006326;95.217117;50.217113;0.008434;0.00854;0.009228;0.010351;0.001191;0.004047;-0.00916;0.695127;0.013275;-0.013275;0.025797
1.240832;1.611014;0.664191;-0.775381;0.071921;-0.0513;0.780397;0.026631;-8.429458e-04;-0.012835;0.186339;31.593281;0.031652;5.366553;0.031694;-0.005906;0.0188;176.294785;131.294785;0.025067;0.023349;0.026631;-0.030816;0.005146;-8.429458e-04;0.035961;0.612892;0.025788;-0.025788;0.048901
1.307997;1.611014;0.626338;-0.775576;0.07209;-0.047911;0.780391;0.017129;-0.005694;-0.020214;0.604723;3.008523;0.332389;1.653651;0.02893;-0.017495;0.023213;157.176453;112.176445;0.03095;0.027073;0.017129;-0.041692;0.001264;-0.005694;0.042956;0.578426;0.011436;-0.011436;0.038237
1.375163;1.611014;0.556859;-0.775375;0.072097;-0.056977;0.780801;0.011735;0.003601;-0.027525;0.567921;-3.259149;-0.306829;1.760807;0.035492;-0.020156;0.027824;147.509628;102.509628;0.037099;0.032532;0.011735;-0.053222;-0.001828;0.003601;0.051394;0.499882;0.015335;-0.015335;0.050407
1.442328;1.611014;0.430298;-0.775727;0.071669;-0.051937;0.78076;-0.015957;0.005981;-0.029171;1.381077;2.667769;0.374845;0.724073;0.026178;-0.036153;0.031166;119.488899;74.488899;0.041554;0.03614;-0.015957;-0.05631;-0.002033;0.005981;0.054277;0.378361;-0.009976;0.009976;0.052029
-0.371137;1.543848;0.302755;-0.774086;0.074146;-0.04945;0.779199;-0.007086;-0.003276;0.008941;3.616717;-2.162855;-0.462352;0.276494;0.00396;-0.014323;0.009141;154.622971;109.622978;0.012188;0.011106;-0.007086;0.019014;-0.001133;-0.003276;-0.020148;0.253305;-0.010362;0.010362;0.110136
-0.303971;1.543848;0.386804;-0.773807;0.07385;-0.046047;0.778686;-0.012949;-2.299247e-04;-0.010119;3.457896;-56.320061;-0.017756;0.289193;0.005362;-0.018541;0.011952;101.60804;56.608036;0.015936;0.014483;-0.012949;-0.019659;-5.793861e-04;-2.299247e-04;0.019079;0.340757;-0.013179;0.013179;0.061728
-0.236806;1.543848;0.496358;-0.773808;0.073901;-0.051666;0.779044;-0.043123;4.485957e-04;-0.00686;29.392756;96.128113;0.010403;0.034022;0.001503;-0.044177;0.02284;60.79562;15.795619;0.030453;0.029965;-0.043123;-0.012225;-0.001495;4.485957e-04;0.01073;0.444691;-0.042674;0.042674;0.070849
-0.169641;1.543848;0.563078;-0.773775;0.073565;-0.064238;0.779915;-0.005367;3.049742e-04;0.01052;1.60515;17.596928;0.056828;0.622995;0.008364;-0.013426;0.010895;147.854324;102.854317;0.014527;0.012693;-0.005367;0.024014;-0.002975;3.049742e-04;-0.02699;0.498839;-0.005062;0.005062;0.092307
-0.102475;1.543848;0.637114;-0.773665;0.073248;-0.053946;0.778995;0.025362;-0.003867;0.023774;0.44391;6.558845;0.152466;2.25271;0.038654;-0.017159;0.027907;108.037613;63.037613;0.037209;0.033011;0.025362;0.049922;-0.002374;-0.003867;-0.052295;0.583168;0.021495;-0.021495;0.080218
-0.03531;1.543848;0.70367;-0.773748;0.073081;-0.05649;0.779242;-0.016719;-0.002284;0.009753;8.220345;-7.319805;-0.136616;0.121649;0.002632;-0.021634;0.012133;173.222137;128.222137;0.016178;0.015376;-0.016719;0.021099;-0.001593;-0.002284;-0.022692;0.64718;-0.019003;0.019003;0.046598
0.031855;1.543848;0.732088;-0.773704;0.072885;-0.059804;0.779427;0.014921;0.001028;6.343173e-04;-0.066803;-14.520214;-0.06887;-14.969332;0.01495;9.987073e-04;0.006976;57.503483;12.503485;0.009301;0.009651;0.014921;0.003504;-0.002235;0.001028;-0.005739;0.672284;0.015949;-0.015949;0.068284
0.099021;1.543848;0.748818;-0.773965;0.072615;-0.047107;0.77879;0.025099;0.003586;0.006579;-0.064319;-6.999641;-0.142864;-15.547477;0.026951;0.001733;0.012609;73.808449;28.808453;0.016812;0.017418;0.025099;0.013626;-4.684052e-04;0.003586;-0.014094;0.701711;0.028685;-0.028685;0.067721
0.166186;1.543848;0.812703;-0.774473;0.072779;-0.046314;0.779262;-0.003609;0.003406;-0.003456;1.042019;1.059494;0.943847;0.959675;0.004823;-0.005025;0.004924;110.952667;65.952667;0.006565;0.005686;-0.003609;-0.005629;-0.001283;0.003406;0.004346;0.766389;-2.026493e-04;2.026493e-04;0.062046
0.233352;1.543848;0.823808;-0.774711;0.07256;-0.046292;0.779477;-0.009017;0.006487;-0.008087;1.254533;1.389923;0.719464;0.797109;0.009938;-0.012467;0.011202;106.411819;61.411816;0.014937;0.012963;-0.009017;-0.0134;-0.002774;0.006487;0.010626;0.777515;-0.002529;0.002529;0.055045
0.300517;1.543848;0.84679;-0.774236;0.072348;-0.053537;0.77945;-0.008867;0.003787;-0.009064;1.596778;2.341781;0.427025;0.626261;0.008514;-0.013594;0.011054;103.735504;58.735504;0.014739;0.012876;-0.008867;-0.013921;-0.004208;0.003787;0.009713;0.793253;-0.005081;0.005081;0.032827
0.367682;1.543848;0.881417;-0.774208;0.072142;-0.053249;0.779383;-0.007075;0.004206;-0.002844;1.587811;1.682329;0.594414;0.629798;0.004882;-0.007751;0.006317;85.416885;40.416882;0.008422;0.007356;-0.007075;-0.004824;-8.629612e-04;0.004206;0.003961;0.828168;-0.00287;0.00287;0.044471
0.434848;1.543848;0.912023;-0.774287;0.072269;-0.059707;0.779941;-0.010069;0.001803;0.003227;4.150954;5.584437;0.179069;0.240908;0.002623;-0.010889;0.006756;14.05623;149.056229;0.009008;0.008274;-0.010069;0.005948;5.055268e-04;0.001803;-0.005442;0.852315;-0.008266;0.008266;0.068718
0.502013;1.543848;0.925596;-0.774464;0.072287;-0.058498;0.780027;-0.001134;0.004066;1.399329e-04;0.279624;0.278958;3.584773;3.576226;0.00407;-0.001138;0.002604;152.57991;107.57991;0.003472;0.003161;-0.001134;0.001295;-0.001015;0.004066;-0.00231;0.867098;0.002932;-0.002932;0.0942
0.569178;1.543848;0.912981;-0.774643;0.072166;-0.05427;0.779888;-0.00194;0.003054;3.315782e-04;0.638002;0.635404;1.573802;1.567392;0.003076;-0.001962;0.002519;165.140427;120.140427;0.003359;0.002932;-0.00194;0.001699;-0.001036;0.003054;-0.002734;0.858711;0.001113;-0.001113;0.020616
0.636344;1.543848;0.922289;-0.774775;0.071755;-0.051056;0.779764;0.005443;2.588393e-04;0.002239;0.091507;-21.029364;-0.047553;10.928109;0.006276;-5.743355e-04;0.003425;99.852615;54.852619;0.004567;0.004388;0.005443;0.009622;-0.005144;2.588393e-04;-0.014766;0.871233;0.005702;-0.005702;0.017827
0.703509;1.543848;0.937919;-0.774497;0.071305;-0.046028;0.779134;0.001402;-0.002026;0.001173;1.354114;0.691626;1.445867;0.73849;0.001765;-0.00239;0.002077;109.480042;64.480042;0.00277;0.002408;0.001402;0.005086;-0.002739;-0.002026;-0.007825;0.891891;-6.249005e-04;6.249005e-04;0.012627
0.770674;1.543848;0.909563;-0.774317;0.071507;-0.052381;0.779375;0.01989;0.001855;0.005569;-0.012766;-10.720027;-0.093283;-78.331604;0.021471;2.741082e-04;0.010599;65.928192;20.928188;0.014131;0.014224;0.01989;0.007517;0.003622;0.001855;-0.003895;0.857181;0.021745;-0.021745;0.014311
0.83784;1.543848;0.896269;-0.774561;0.07192;-0.060529;0.780244;0.003572;0.00348;0.005458;0.215082;-1.026593;-0.974096;4.649381;0.008984;-0.001932;0.005458;110.753029;65.753029;0.007278;0.006727;0.003572;0.008632;0.002284;0.00348;-0.006348;0.83574;0.007052;-0.007052;0.035077
0.905005;1.543848;0.890407;-0.774918;0.071787;-0.059854;0.780534;-0.008262;0.005656;-0.00196;1.439847;1.460903;0.684508;0.694518;0.005926;-0.008533;0.00723;24.201443;159.201447;0.00964;0.008393;-0.008262;7.230749e-05;-0.003992;0.005656;-0.004065;0.830553;-0.002607;0.002607;0.019562
0.97217;1.543848;0.848536;-0.775203;0.071467;-0.056366;0.780529;-0.023597;0.007575;-0.001313;3.099658;3.11497;0.32103;0.322616;0.007631;-0.023652;0.015641;39.417274;174.417267;0.020855;0.018834;-0.023597;9.809581e-04;-0.003608;0.007575;-0.004589;0.79217;-0.016022;0.016022;0.021266
1.039336;1.543848;0.812253;-0.775318;0.071361;-0.049859;0.78019;-0.015427;3.962427e-04;-0.005455;8.177014;38.933533;0.025685;0.122294;0.002094;-0.017125;0.00961;75.026764;30.026766;0.012813;0.012175;-0.015427;-0.009034;-0.001875;3.962427e-04;0.00716;0.762394;-0.015031;0.015031;0.009688
1.106501;1.543848;0.798936;-0.775293;0.071269;-0.046703;0.779961;-0.016713;-0.002743;-0.025948;2.134959;-6.092317;-0.164141;0.468393;0.017143;-0.0366;0.026871;115.879372;70.879372;0.035828;0.031699;-0.016713;-0.048673;-0.003222;-0.002743;0.045451;0.752234;-0.019457;0.019457;0.023469
1.173667;1.543848;0.733319;-0.775405;0.071039;-0.048574;0.780166;0.027683;-0.005809;-0.044496;0.625955;4.765799;0.209828;1.597558;0.05848;-0.036606;0.047543;152.018723;107.018715;0.06339;0.05538;0.027683;-0.090355;0.001363;-0.005809;0.091717;0.684745;0.021874;-0.021874;0.032514
1.240832;1.543848;0.681772;-0.77534;0.07131;-0.060781;0.780981;0.026522;-0.004337;-0.024712;0.448487;6.115202;0.163527;2.22972;0.040226;-0.018041;0.029134;160.745758;115.745766;0.038845;0.034444;0.026522;-0.056017;0.006592;-0.004337;0.062609;0.620991;0.022185;-0.022185;0.055869
1.307997;1.543848;0.656701;-0.775674;0.07173;-0.058731;0.781194;0.011213;0.002257;-0.022417;0.544855;-4.968133;-0.201283;1.83535;0.029595;-0.016125;0.02286;149.730896;104.730896;0.03048;0.026776;0.011213;-0.042944;-0.00189;0.002257;0.041054;0.597969;0.01347;-0.01347;0.075758
1.375163;1.543848;0.556543;-0.775849;0.071431;-0.06286;0.781662;0.014394;0.005108;-0.028464;0.494662;-2.817801;-0.354887;2.021581;0.038591;-0.01909;0.02884;149.783798;104.783806;0.038454;0.033931;0.014394;-0.054819;-0.00211;0.005108;0.052709;0.493683;0.019502;-0.019502;0.071091
1.442328;1.543848;0.410836;-0.775825;0.07138;-0.063369;0.781675;2.599617e-04;0.003637;-0.035235;0.895304;-0.071472;-13.991418;1.116939;0.037224;-0.033327;0.035275;135.264832;90.264832;0.047034;0.040753;2.599617e-04;-0.069304;-0.001166;0.003637;0.068139;0.347467;0.003897;-0.003897;0.059522
-0.371137;1.476683;0.273246;-0.774215;0.07427;-0.050643;0.779416;0.019812;0.003401;0.004248;-0.113546;-5.824558;-0.171687;-8.80697;0.020846;0.002367;0.00924;78.439056;33.43906;0.01232;0.01318;0.019812;0.013818;-0.005322;0.003401;-0.01914;0.222603;0.023214;-0.023214;0.051663
-0.303971;1.476683;0.384461;-0.773598;0.073516;-0.048503;0.778595;-0.00594;0.00433;0.006501;1.21521;1.371733;0.729005;0.822903;0.007479;-0.009089;0.008284;157.050034;112.050026;0.011045;0.009581;-0.00594;0.01443;-0.001429;0.00433;-0.015859;0.335958;-0.00161;0.00161;0.076542
-0.236806;1.476683;0.487251;-0.773724;0.073747;-0.05092;0.778897;-0.040604;0.00341;9.594308e-04;11.839956;11.906402;0.083988;0.08446;0.003431;-0.040625;0.022028;40.860126;175.860123;0.029371;0.028297;-0.040604;0.002843;-9.241586e-04;0.00341;-0.003767;0.436331;-0.037194;0.037194;0.079837
-0.169641;1.476683;0.568604;-0.773635;0.073275;-0.059984;0.779409;-0.020933;0.003623;-0.010742;3.259983;5.777332;0.17309;0.30675;0.007659;-0.024969;0.016314;88.16301;43.16301;0.021752;0.019702;-0.020933;-0.019441;-0.002044;0.003623;0.017396;0.50862;-0.01731;0.01731;0.07835
-0.102475;1.476683;0.661648;-0.773762;0.073305;-0.05964;0.779511;0.01407;0.001713;-4.431165e-04;-0.120455;-8.215629;-0.121719;-8.301825;0.014086;0.001697;0.006194;45.653858;0.653858;0.008259;0.008879;0.01407;3.041826e-04;-0.00119;0.001713;-0.001495;0.602007;0.015782;-0.015782;0.070482
-0.03531;1.476683;0.70354;-0.773809;0.073105;-0.054928;0.779193;0.007612;0.001366;-0.003072;-0.012289;-5.570813;-0.179507;-81.371742;0.00887;1.090022e-04;0.00438;22.207348;157.207352;0.00584;0.005877;0.007612;-0.003155;-0.002989;0.001366;1.660392e-04;0.648612;0.008979;-0.008979;0.045807
0.031855;1.476683;0.74875;-0.773824;0.072855;-0.055221;0.779205;0.005371;0.002832;-0.005362;0.146506;-1.896501;-0.527287;6.825646;0.009612;-0.001408;0.00551;170.431259;125.431259;0.007347;0.006925;0.005371;-0.007971;-0.002753;0.002832;0.005218;0.693529;0.008204;-0.008204;0.062025
0.099021;1.476683;0.7593;-0.774139;0.072627;-0.054512;0.779447;0.011566;-1.553663e-05;0.005662;0.167474;744.445618;0.001343;5.971072;0.013874;-0.002324;0.008099;92.174706;47.174702;0.010799;0.010113;0.011566;0.012543;-0.001219;-1.553663e-05;-0.013763;0.704788;0.011551;-0.011551;0.036348
0.166186;1.476683;0.825622;-0.77463;0.072456;-0.052406;0.779774;0.021884;-0.001052;0.009565;0.178219;20.799208;0.048079;5.611084;0.02535;-0.004518;0.014934;88.630684;43.630684;0.019912;0.01859;0.021884;0.020905;-0.001774;-0.001052;-0.022678;0.773216;0.020832;-0.020832;0.07336
0.233352;1.476683;0.855583;-0.774399;0.072097;-0.044809;0.779038;-8.652887e-04;-0.00259;0.002476;4.866176;-0.334058;-2.993495;0.2055;8.937839e-04;-0.004349;0.002622;136.87529;91.875298;0.003495;0.003239;-8.652887e-04;0.006554;-0.001603;-0.00259;-0.008157;0.810773;-0.003456;0.003456;0.077628
0.300517;1.476683;0.856521;-0.774188;0.072382;-0.052986;0.779368;-0.008969;-7.243662e-04;3.251476e-04;-12.622811;-12.382033;-0.080762;-0.079222;-7.115633e-04;-0.008982;0.004135;30.187777;165.187775;0.005514;0.005765;-0.008969;0.002597;-0.001947;-7.243662e-04;-0.004544;0.803536;-0.009693;0.009693;0.046497
0.367682;1.476683;0.890931;-0.7742;0.072004;-0.053062;0.77935;-0.007989;-1.948656e-04;-0.00486;4.828409;-40.995449;-0.024393;0.207108;0.002138;-0.010321;0.006229;83.587059;38.587063;0.008306;0.007693;-0.007989;-0.006847;-0.002873;-1.948656e-04;0.003973;0.837869;-0.008183;0.008183;0.032631
0.434848;1.476683;0.926432;-0.774278;0.071997;-0.05572;0.779612;-0.012384;0.001031;-0.004846;5.369081;12.010518;0.08326;0.186252;0.002599;-0.013952;0.008275;82.058083;37.058086;0.011034;0.010277;-0.012384;-0.009324;-3.678413e-04;0.001031;0.008956;0.870712;-0.011353;0.011353;0.059682
0.502013;1.476683;0.92689;-0.774631;0.071757;-0.055998;0.779961;-0.001575;0.002965;3.857031e-04;0.536313;0.531226;1.882437;1.864582;0.002998;-0.001608;0.002303;145.898987;100.898987;0.00307;0.002699;-0.001575;8.106114e-04;-3.920512e-05;0.002965;-8.498165e-04;0.870892;0.00139;-0.00139;0.111028
0.569178;1.476683;0.924756;-0.774388;0.071897;-0.055928;0.779726;-0.001702;0.00389;-0.003027;0.580398;0.437452;2.285965;1.722955;0.005215;-0.003027;0.004121;141.070892;96.070885;0.005494;0.004814;-0.001702;-0.003797;-0.002257;0.00389;0.00154;0.868828;0.002188;-0.002188;0.024758
0.636344;1.476683;0.90256;-0.774566;0.072125;-0.059224;0.780168;-0.005096;0.010709;0.003104;0.503113;0.475836;2.101565;1.987625;0.011297;-0.005684;0.00849;161.87883;116.87883;0.01132;0.009981;-0.005096;0.01373;-0.007522;0.010709;-0.021252;0.843336;0.005613;-0.005613;0.019437
0.703509;1.476683;0.90553;-0.774673;0.071702;-0.05021;0.779603;0.001212;0.010191;0.002832;-0.035687;-0.118907;-8.409907;-28.021276;0.011009;3.928949e-04;0.005308;135.840744;90.840736;0.007078;0.007212;0.001212;0.006668;-0.001003;0.010191;-0.007671;0.85532;0.011402;-0.011402;0.047242
0.770674;1.476683;0.910354;-0.774662;0.071658;-0.055347;0.779935;0.00554;0.002668;-0.001498;-0.32829;-2.076488;-0.481582;-3.046083;0.00618;0.002029;0.002075;179.1689;134.1689;0.002767;0.003637;0.00554;-0.005667;0.00267;0.002668;0.008337;0.855007;0.008208;-0.008208;0.034524
0.83784;1.476683;0.901407;-0.774881;0.071709;-0.056592;0.780247;0.001875;0.00117;0.00189;0.116083;-1.602373;-0.624074;8.614556;0.003446;-3.999908e-04;0.001923;111.130028;66.130028;0.002564;0.002441;0.001875;0.003898;-1.177288e-04;0.00117;-0.004016;0.844816;0.003046;-0.003046;0.034267
0.905005;1.476683;0.90335;-0.775051;0.071535;-0.059954;0.78065;-0.003007;0.002773;-8.022375e-04;1.080955;1.084145;0.922386;0.925108;0.002883;-0.003116;0.002999;8.785772;143.785767;0.003999;0.003464;-0.003007;0.002446;-0.004051;0.002773;-0.006497;0.843396;-2.333548e-04;2.333548e-04;0.023195
0.97217;1.476683;0.878716;-0.77496;0.071091;-0.054452;0.780117;-0.014668;-1.203066e-05;-0.006636;6.765379;-1219.199341;-8.202104e-04;0.147811;0.002546;-0.017226;0.009886;84.638451;39.638447;0.013181;0.01242;-0.014668;-0.01219;-0.001082;-1.203066e-05;0.011108;0.824264;-0.01468;0.01468;0.057115
1.039336;1.476683;0.833738;-0.775041;0.071361;-0.055892;0.780324;0.007111;-0.008972;-0.011141;1.145271;0.792597;1.261675;0.873156;0.012809;-0.01467;0.01374;151.159958;106.159958;0.01832;0.015877;0.007111;-0.02634;0.004059;-0.008972;0.030399;0.777846;-0.001861;0.001861;0.021358
1.106501;1.476683;0.818022;-0.77521;0.071653;-0.062111;0.780988;5.100333e-04;-0.0051;-0.024854;1.202036;0.100012;9.998849;0.831922;0.022717;-0.027307;0.025012;135.539749;90.539757;0.033349;0.028922;5.100333e-04;-0.049317;-3.91645e-04;-0.0051;0.048925;0.755911;-0.00459;0.00459;0.003916
1.173667;1.476683;0.76584;-0.77524;0.071195;-0.059113;0.780744;0.001648;-0.00327;-0.01926;1.08717;0.504067;1.983863;0.919819;0.018606;-0.020227;0.019416;137.203247;92.203239;0.025889;0.022427;0.001648;-0.035433;-0.003087;-0.00327;0.032347;0.706727;-0.001622;0.001622;0.024458
1.240832;1.476683;0.689115;-0.775495;0.071133;-0.061421;0.781168;-0.005398;0.002746;0.009016;1.309628;1.966048;0.508635;0.763576;0.008566;-0.011219;0.009893;151.816956;106.816963;0.01319;0.011457;-0.005398;0.017089;9.422833e-04;0.002746;-0.016147;0.627695;-0.002652;0.002652;0.035418
1.307997;1.476683;0.644106;-0.775921;0.071162;-0.057746;0.781314;0.011172;0.004663;0.021468;0.465587;-2.395886;-0.417382;2.147826;0.029631;-0.013796;0.021713;121.043304;76.043304;0.028951;0.025622;0.011172;0.044086;-0.00115;0.004663;-0.045235;0.58636;0.015835;-0.015835;0.04681
1.375163;1.476683;0.575108;-0.775813;0.070997;-0.063644;0.78165;0.023282;0.003717;0.014758;0.134795;-6.263388;-0.159658;7.418691;0.031206;-0.004206;0.017706;97.38353;52.38353;0.023608;0.022338;0.023282;0.029913;-3.962899e-04;0.003717;-0.030309;0.511463;0.026999;-0.026999;0.044803
1.442328;1.476683;0.450433;-0.775465;0.071143;-0.063927;0.781341;0.004489;0.002615;0.00675;0.314762;-1.716899;-0.582445;3.177;0.010367;-0.003263;0.006815;116.2892;71.2892;0.009086;0.008218;0.004489;0.013024;4.766331e-04;0.002615;-0.012547;0.386506;0.007104;-0.007104;0.028502
-0.303971;1.409518;0.376777;-0.773709;0.073334;-0.048892;0.778713;-0.016401;0.004936;0.011843;2.12318;3.322503;0.300978;0.470992;0.010207;-0.021672;0.01594;168.374237;123.374237;0.021253;0.018798;-0.016401;0.024286;-6.006191e-04;0.004936;-0.024887;0.327885;-0.011465;0.011465;0.043769
-0.236806;1.409518;0.49521;-0.774039;0.07346;-0.054907;0.779453;-0.018118;0.004961;0.00228;3.537905;3.651995;0.273823;0.282653;0.005184;-0.018341;0.011762;26.049292;161.049286;0.015683;0.014273;-0.018118;0.005592;-0.001033;0.004961;-0.006625;0.440303;-0.013157;0.013157;0.047932
-0.169641;1.409518;0.569868;-0.773857;0.073124;-0.055104;0.779255;-0.005055;0.005613;-0.026069;0.979246;0.900583;1.110392;1.021194;0.026888;-0.02633;0.026609;129.554901;84.554909;0.035479;0.030726;-0.005055;-0.0498;-0.002338;0.005613;0.047461;0.514764;5.580382e-04;-5.580382e-04;0.044378
-0.102475;1.409518;0.659379;-0.773937;0.07307;-0.05742;0.779497;-0.005053;0.001949;-0.029539;1.110111;2.59317;0.385628;0.900811;0.028193;-0.031298;0.029745;130.057007;85.057007;0.039661;0.034363;-0.005053;-0.05795;-0.001128;0.001949;0.056822;0.601959;-0.003104;0.003104;0.049229
-0.03531;1.409518;0.708868;-0.773952;0.072985;-0.056309;0.779422;0.005351;0.002483;-0.009897;0.437062;-2.15497;-0.464044;2.288003;0.013917;-0.006083;0.01;151.021378;106.02137;0.013333;0.011838;0.005351;-0.018779;-0.001014;0.002483;0.017765;0.652559;0.007834;-0.007834;0.044642
0.031855;1.409518;0.749442;-0.774085;0.072695;-0.051875;0.77922;-0.001738;0.003394;-0.001599;0.569969;0.512023;1.953036;1.75448;0.003851;-0.002195;0.003023;5.399913;140.399918;0.004031;0.003534;-0.001738;5.442725e-04;-0.003742;0.003394;-0.004286;0.697567;0.001656;-0.001656;0.024322
0.099021;1.409518;0.763316;-0.774275;0.072403;-0.054374;0.779552;0.002124;0.003345;0.002684;0.00332;-0.63482;-1.57525;301.173706;0.005487;-1.821937e-05;0.002753;126.643593;81.643593;0.00367;0.003664;0.002124;0.007511;-0.002143;0.003345;-0.009653;0.708942;0.005469;-0.005469;0.019344
0.166186;1.409518;0.819577;-0.774686;0.072411;-0.05109;0.779738;0.023904;0.003349;0.005115;-0.085517;-7.137045;-0.140114;-11.693642;0.025107;0.002147;0.01148;68.777512;23.777508;0.015306;0.01607;0.023904;0.010372;-1.43024e-04;0.003349;-0.010515;0.768487;0.027254;-0.027254;0.064769
0.233352;1.409518;0.868372;-0.774225;0.072508;-0.048905;0.779149;-2.073615e-04;0.002902;0.004436;0.554433;0.07145;13.995817;1.803646;0.006048;-0.003353;0.004701;133.730698;88.730698;0.006268;0.005502;-2.073615e-04;0.007796;0.001076;0.002902;-0.006719;0.819467;0.002695;-0.002695;0.055594
0.300517;1.409518;0.849763;-0.774301;0.072613;-0.053429;0.779531;-0.001698;0.002674;-0.001485;0.688067;0.634816;1.57526;1.453347;0.003131;-0.002154;0.002642;11.858453;146.858459;0.003523;0.003069;-0.001698;0.001158;-0.004128;0.002674;-0.005286;0.796335;9.765984e-04;-9.765984e-04;0.081214
0.367682;1.409518;0.858159;-0.774498;0.071949;-0.052419;0.779597;0.001182;0.002403;-0.001613;-0.019362;-0.491937;-2.032781;-51.646667;0.003516;6.808634e-05;0.001724;14.273422;149.273422;0.002299;0.002322;0.001182;4.695584e-04;-0.003695;0.002403;-0.004164;0.805739;0.003585;-0.003585;0.077676
0.434848;1.409518;0.911314;-0.774281;0.071885;-0.052054;0.779351;-0.018402;0.001857;-0.001709;9.27267;9.91059;0.100902;0.107844;0.002;-0.018545;0.010272;51.932053;6.932052;0.013697;0.013081;-0.018402;-0.002329;-0.001089;0.001857;0.00124;0.85926;-0.016545;0.016545;0.051302
0.502013;1.409518;0.914487;-0.774789;0.071807;-0.061248;0.780516;4.672925e-04;0.002877;-0.001604;0.090755;-0.162398;-6.157702;11.018718;0.003679;-3.338491e-04;0.002006;135.834396;90.834389;0.002675;0.002571;4.672925e-04;-0.0037;4.919707e-04;0.002877;0.004192;0.853239;0.003345;-0.003345;0.060076
0.569178;1.409518;0.920964;-0.774583;0.072226;-0.063365;0.780519;-0.005641;0.003472;0.002831;1.507032;1.625008;0.615382;0.663556;0.004279;-0.006449;0.005364;171.223511;126.223511;0.007152;0.006236;-0.005641;0.007087;-0.001426;0.003472;-0.008513;0.857599;-0.00217;0.00217;0.054798
0.636344;1.409518;0.897548;-0.775101;0.071701;-0.058488;0.780604;-0.00755;0.006046;0.002367;1.233338;1.248792;0.800774;0.810808;0.006447;-0.007951;0.007199;173.447525;128.447525;0.009598;0.008328;-0.00755;0.009411;-0.004676;0.006046;-0.014086;0.839059;-0.001504;0.001504;0.066788
0.703509;1.409518;0.890622;-0.774795;0.071306;-0.051111;0.779746;0.001636;0.007214;0.001239;-0.183644;-0.226737;-4.410393;-5.445311;0.007477;0.001373;0.003052;137.498138;92.498138;0.004069;0.004596;0.001636;0.003685;-0.001208;0.007214;-0.004894;0.83951;0.00885;-0.00885;0.055543
0.770674;1.409518;0.907932;-0.774925;0.071482;-0.056306;0.78025;2.347172e-04;0.004736;0.002356;0.134568;-0.049558;-20.178268;7.431195;0.005744;-7.729362e-04;0.003258;125.762154;80.762154;0.004345;0.004111;2.347172e-04;0.003668;0.001044;0.004736;-0.002625;0.851625;0.004971;-0.004971;0.036475
0.83784;1.409518;0.882541;-0.775157;0.071513;-0.054333;0.780343;0.00263;0.00197;0.002729;0.088933;-1.335046;-0.749038;11.244393;0.005048;-4.48938e-04;0.002748;116.180534;71.180534;0.003665;0.003525;0.00263;0.006595;-0.001138;0.00197;-0.007732;0.828208;0.004599;-0.004599;0.014067
0.905005;1.409518;0.880938;-0.775078;0.071435;-0.060008;0.780672;0.002325;0.001801;-0.0023;0.057464;-1.291237;-0.774451;17.402262;0.004378;-2.515711e-04;0.002315;7.813298;142.813293;0.003086;0.003006;0.002325;-0.001969;-0.002631;0.001801;-6.625081e-04;0.82093;0.004126;-0.004126;0.030567
0.97217;1.409518;0.889193;-0.774978;0.07103;-0.057131;0.78032;6.766003e-04;0.008104;-0.007351;0.304581;-0.083489;-11.977562;3.283198;0.012626;-0.003846;0.008236;134.074249;89.074242;0.010981;0.00995;6.766003e-04;-0.016788;0.002085;0.008104;0.018873;0.832062;0.008781;-0.008781;0.05897
1.039336;1.409518;0.847381;-0.775383;0.071302;-0.058222;0.780828;0.010483;0.007892;-0.013967;0.208481;-1.328262;-0.752863;4.796596;0.023214;-0.00484;0.014027;153.448318;108.448318;0.018703;0.017316;0.010483;-0.028902;9.677098e-04;0.007892;0.02987;0.789159;0.018375;-0.018375;0.010795
1.106501;1.409518;0.801924;-0.775617;0.071447;-0.062112;0.781373;-0.008588;0.003204;4.74093e-04;2.669955;2.679872;0.373152;0.374538;0.003223;-0.008607;0.005915;18.512236;153.512238;0.007887;0.007062;-0.008588;0.003503;-0.002555;0.003204;-0.006058;0.739813;-0.005383;0.005383;0.018802
1.173667;1.409518;0.74881;-0.775477;0.071202;-0.058261;0.780915;-0.017869;4.276359e-04;0.01008;4.565346;41.786327;0.023931;0.219041;0.004892;-0.022334;0.013613;174.765976;129.765976;0.01815;0.01676;-0.017869;0.021525;-0.001365;4.276359e-04;-0.02289;0.690549;-0.017442;0.017442;0.007038
1.240832;1.409518;0.704752;-0.775378;0.071243;-0.054689;0.780562;-0.033441;0.003914;0.018414;3.575548;8.544634;0.117033;0.279677;0.011464;-0.040992;0.026228;176.106918;131.106918;0.034971;0.031845;-0.033441;0.038144;-0.001316;0.003914;-0.03946;0.650064;-0.029527;0.029527;0.051435
1.307997;1.409518;0.643525;-0.775779;0.071062;-0.047606;0.78048;-0.004248;-0.004026;0.038936;1.237768;-1.05534;-0.947562;0.807906;0.034799;-0.043074;0.038937;138.056763;93.056755;0.051915;0.045045;-0.004248;0.078634;-7.61383e-04;-0.004026;-0.079395;0.595919;-0.008274;0.008274;0.031355
1.375163;1.409518;0.567954;-0.77566;0.071149;-0.058988;0.781146;0.032213;-0.008692;0.064853;0.705114;3.705986;0.269834;1.418211;0.079763;-0.056242;0.068002;121.055122;76.055122;0.090669;0.078912;0.032213;0.129018;6.892481e-04;-0.008692;-0.128328;0.508966;0.023521;-0.023521;0.029136
1.442328;1.409518;0.445201;-0.775724;0.071128;-0.061927;0.781436;0.017881;-0.003974;0.06367;0.805645;4.499801;0.222232;1.241241;0.071555;-0.057648;0.064601;127.004898;82.004898;0.086135;0.074739;0.017881;0.127142;1.981128e-04;-0.003974;-0.126944;0.383274;0.013907;-0.013907;0.028069
-0.303971;1.342352;0.377883;-0.773723;0.073121;-0.053866;0.779035;-0.01658;0.003021;0.018462;1.960114;5.488195;0.182209;0.510175;0.014122;-0.027681;0.020902;158.927612;113.927612;0.027869;0.024555;-0.01658;0.037196;-2.733397e-04;0.003021;-0.03747;0.324017;-0.013559;0.013559;0.056144
-0.236806;1.342352;0.504995;-0.774174;0.07296;-0.055073;0.779553;0.00472;0.003954;0.008973;0.34874;-1.193626;-0.837783;2.867463;0.013318;-0.004645;0.008981;121.846039;76.846039;0.011975;0.010766;0.00472;0.018776;-8.294038e-04;0.003954;-0.019605;0.449922;0.008674;-0.008674;0.049579
-0.169641;1.342352;0.565094;-0.774098;0.072659;-0.04776;0.778966;0.02843;6.290207e-04;-0.006158;0.022664;-45.197079;-0.022125;44.123188;0.029733;-6.738583e-04;0.015203;24.785145;159.785141;0.020271;0.02005;0.02843;-0.010472;-0.001844;6.290207e-04;0.008628;0.517334;0.029059;-0.029059;0.051291
-0.102475;1.342352;0.634938;-0.773788;0.072365;-0.044784;0.778453;-0.012045;-0.003117;-0.013431;3.306911;-3.863981;-0.2588;0.302397;0.006572;-0.021734;0.014153;108.709106;63.709103;0.018871;0.017107;-0.012045;-0.024587;-0.002275;-0.003117;0.022312;0.590155;-0.015162;0.015162;0.058356
-0.03531;1.342352;0.692516;-0.77389;0.072673;-0.053872;0.77916;-0.018652;0.001136;-0.005259;8.157777;16.412233;0.06093;0.122582;0.002447;-0.019962;0.011205;68.792244;23.792244;0.01494;0.014194;-0.018652;-0.008376;-0.002141;0.001136;0.006235;0.638644;-0.017515;0.017515;0.042301
0.031855;1.342352;0.746984;-0.773979;0.072401;-0.053502;0.779197;-0.015287;0.005108;0.004414;2.690409;2.992994;0.334114;0.371691;0.006022;-0.016201;0.011111;4.678469;139.678467;0.014815;0.013271;-0.015287;0.012323;-0.003495;0.005108;-0.015818;0.693482;-0.010179;0.010179;0.024654
0.099021;1.342352;0.774158;-0.774285;0.07215;-0.05925;0.779894;0.002656;0.003991;0.007872;0.407767;-0.665637;-1.502321;2.452382;0.011224;-0.004577;0.007901;128.934998;83.935005;0.010534;0.009388;0.002656;0.018761;-0.003016;0.003991;-0.021777;0.714907;0.006647;-0.006647;0.052018
0.166186;1.342352;0.815672;-0.774783;0.071961;-0.051146;0.779796;0.021546;0.007583;0.008365;-0.144083;-2.841454;-0.351932;-6.940467;0.02546;0.003668;0.010896;86.283707;41.283703;0.014528;0.015892;0.021546;0.017614;-8.82966e-04;0.007583;-0.018497;0.764526;0.029129;-0.029129;0.063376
0.233352;1.342352;0.8526;-0.774448;0.072032;-0.052298;0.779546;-0.004761;0.010601;0.00544;0.526484;0.449141;2.226471;1.899392;0.012332;-0.006493;0.009412;144.354111;99.354103;0.01255;0.011041;-0.004761;0.009462;0.001419;0.010601;-0.008042;0.800302;0.005839;-0.005839;0.051592
0.300517;1.342352;0.85389;-0.774497;0.072169;-0.053888;0.779717;-0.002173;0.001655;0.00207;1.202447;1.313218;0.761488;0.831637;0.00256;-0.003078;0.002819;157.613464;112.613464;0.003759;0.00326;-0.002173;0.008071;-0.003931;0.001655;-0.012002;0.800002;-5.182925e-04;5.182925e-04;0.080724
0.367682;1.342352;0.866535;-0.774542;0.071609;-0.053378;0.779674;0.005168;-0.001808;0.00231;0.427036;2.857924;0.349904;2.341724;0.005864;-0.002504;0.004184;98.213562;53.213562;0.005578;0.004959;0.005168;0.007774;-0.003153;-0.001808;-0.010927;0.813157;0.00336;-0.00336;0.06814
0.434848;1.342352;0.924012;-0.774234;0.07166;-0.052832;0.779336;-0.014257;0.00348;0.003187;3.670605;4.096627;0.244103;0.272435;0.004035;-0.014812;0.009424;19.415464;154.415466;0.012565;0.011459;-0.014257;0.006476;-1.029075e-04;0.00348;-0.006579;0.87118;-0.010777;0.010777;0.031397
0.502013;1.342352;0.921228;-0.774896;0.071667;-0.060084;0.78052;0.008496;0.004096;0.00401;-0.158391;-2.074288;-0.482093;-6.313472;0.01087;0.001722;0.004574;87.331963;42.331959;0.006099;0.006747;0.008496;0.006737;0.001284;0.004096;-0.005452;0.861144;0.012592;-0.012592;0.030778
0.569178;1.342352;0.892708;-0.77496;0.071742;-0.059505;0.780545;-0.009395;0.003178;0.001397;2.866353;2.956376;0.338252;0.348875;0.003331;-0.009548;0.006439;9.43292;144.432922;0.008586;0.007719;-0.009395;0.006491;-0.003697;0.003178;-0.010188;0.833203;-0.006217;0.006217;0.049999
0.636344;1.342352;0.90266;-0.775736;0.070738;-0.049804;0.780545;0.006751;0.003943;-0.001687;-0.418008;-1.711964;-0.584124;-2.392301;0.007541;0.003152;0.002195;37.842777;172.842773;0.002926;0.004374;0.006751;0.002187;-0.00556;0.003943;-0.007747;0.852856;0.010694;-0.010694;0.088969
0.703509;1.342352;0.913077;-0.775011;0.070807;-0.051131;0.779917;8.652141e-04;1.249187e-04;0.003593;0.75892;-6.926215;-0.144379;1.317662;0.004107;-0.003117;0.003612;122.290482;77.290482;0.004816;0.004184;8.652141e-04;0.004988;0.002198;1.249187e-04;-0.00279;0.861946;9.901328e-04;-9.901328e-04;0.06407
0.770674;1.342352;0.915957;-0.775221;0.071198;-0.056914;0.780561;-0.001119;0.001979;-0.00178;0.691687;0.565349;1.768818;1.445741;0.00279;-0.00193;0.00236;129.316559;84.316559;0.003146;0.00274;-0.001119;-0.002536;-0.001025;0.001979;0.001511;0.859044;8.600914e-04;-8.600914e-04;0.045552
0.83784;1.342352;0.880149;-0.77543;0.070963;-0.052119;0.780413;-0.002331;0.004752;-0.002202;0.550104;0.490584;2.038387;1.817838;0.005381;-0.00296;0.00417;157.515213;112.515205;0.005561;0.004883;-0.002331;-0.001919;-0.002485;0.004752;-5.660347e-04;0.82803;0.002421;-0.002421;0.034299
0.905005;1.342352;0.868674;-0.775351;0.070928;-0.055643;0.780574;0.009065;0.005228;6.164283e-04;-0.560093;-1.733949;-0.576718;-1.785418;0.009161;0.005131;0.002015;60.227062;15.227062;0.002687;0.005302;0.009065;0.002219;-9.864199e-04;0.005228;-0.003206;0.813031;0.014293;-0.014293;0.048195
0.97217;1.342352;0.863519;-0.775175;0.070972;-0.06294;0.780958;0.018221;0.005142;-0.004281;-0.198248;-3.543717;-0.28219;-5.044181;0.019498;0.003865;0.007816;14.80598;149.805984;0.010422;0.011921;0.018221;-0.010279;0.001718;0.005142;0.011997;0.800579;0.023363;-0.023363;0.075752
1.039336;1.342352;0.823942;-0.775214;0.071398;-0.066546;0.781334;-0.005433;0.004561;-0.004644;1.136569;1.191205;0.839486;0.879841;0.006385;-0.007257;0.006821;109.437508;64.437508;0.009095;0.007882;-0.005433;-0.010837;0.00155;0.004561;0.012388;0.757396;-8.720476e-04;8.720476e-04;0.020341
1.106501;1.342352;0.772334;-0.775219;0.071033;-0.059664;0.780749;-0.031624;0.002092;0.005652;10.798796;15.118402;0.066145;0.092603;0.003014;-0.032546;0.01778;22.645239;157.645233;0.023707;0.022769;-0.031624;0.01291;-0.001607;0.002092;-0.014516;0.712671;-0.029532;0.029532;0.00535
1.173667;1.342352;0.742746;-0.775552;0.070885;-0.054175;0.780667;-0.017658;0.003545;0.009577;2.951982;4.981209;0.200754;0.338755;0.00723;-0.021343;0.014287;174.203735;129.203735;0.019049;0.017155;-0.017658;0.021556;-0.002402;0.003545;-0.023959;0.688571;-0.014113;0.014113;0.005428
1.240832;1.342352;0.715097;-0.775595;0.07075;-0.055149;0.780765;-0.036629;0.003369;0.008826;7.359417;10.872734;0.091973;0.13588;0.00523;-0.03849;0.02186;18.926834;153.926834;0.029147;0.027569;-0.036629;0.017793;-1.399272e-04;0.003369;-0.017933;0.659948;-0.03326;0.03326;0.06503
1.307997;1.342352;0.607995;-0.775902;0.070796;-0.044194;0.780378;-0.039973;0.001119;0.013223;8.761668;35.731731;0.027986;0.114134;0.005006;-0.04386;0.024433;13.558475;148.558472;0.032577;0.031043;-0.039973;0.024493;0.001953;0.001119;-0.02254;0.563801;-0.038854;0.038854;0.060761
1.375163;1.342352;0.533839;-0.776139;0.071056;-0.039766;0.780399;0.009455;-0.002641;0.046393;0.864238;3.580545;0.279287;1.157088;0.050193;-0.043378;0.046786;129.137405;84.137405;0.062381;0.054071;0.009455;0.091727;0.001059;-0.002641;-0.090668;0.494072;0.006814;-0.006814;0.081123
1.442328;1.342352;0.424412;-0.776267;0.070928;-0.047249;0.780931;0.025158;-1.343434e-04;0.067523;0.691854;187.269638;0.00534;1.445391;0.081209;-0.056185;0.068697;124.504623;79.504623;0.091595;0.079761;0.025158;0.135812;-7.667694e-04;-1.343434e-04;-0.136579;0.377163;0.025024;-0.025024;0.069433
-0.303971;1.275187;0.405881;-0.77409;0.072796;-0.056016;0.77952;-0.014306;0.004249;0.002045;3.249312;3.367249;0.296978;0.307757;0.004471;-0.014529;0.0095;25.955978;160.955978;0.012667;0.011471;-0.014306;0.004461;-3.701737e-04;0.004249;-0.004831;0.349865;-0.010058;0.010058;0.057257
-0.236806;1.275187;0.492929;-0.774102;0.072779;-0.057837;0.779664;0.006262;0.003414;0.007872;0.246231;-1.834033;-0.545247;4.061232;0.012838;-0.003161;0.007999;114.403847;69.403847;0.010666;0.009784;0.006262;0.015943;-2.001444e-04;0.003414;-0.016143;0.435092;0.009677;-0.009677;0.058028
-0.169641;1.275187;0.542472;-0.774358;0.073039;-0.0541;0.779674;0.030745;0.004159;0.01747;0.114209;-7.392095;-0.13528;8.755873;0.039404;-0.0045;0.021952;95.540176;50.54018;0.029269;0.027891;0.030745;0.03709;-0.00215;0.004159;-0.03924;0.488372;0.034904;-0.034904;0.042105
-0.102475;1.275187;0.604343;-0.774209;0.072445;-0.047928;0.779066;-0.009448;0.010116;0.020797;0.971377;0.934025;1.070635;1.029466;0.023317;-0.022649;0.022983;147.159378;102.159378;0.030644;0.02654;-0.009448;0.042735;-0.00114;0.010116;-0.043876;0.556415;6.673973e-04;-6.673973e-04;0.047283
-0.03531;1.275187;0.655018;-0.774254;0.072505;-0.055078;0.779589;-0.015508;0.008384;0.012288;1.524751;1.849692;0.540631;0.655845;0.013576;-0.0207;0.017138;164.532349;119.532356;0.022851;0.019931;-0.015508;0.025701;-0.001124;0.008384;-0.026825;0.599941;-0.007124;0.007124;0.02311
0.031855;1.275187;0.735398;-0.774075;0.072383;-0.054625;0.779369;-0.015973;0.002781;-0.002307;5.310607;5.743937;0.174097;0.188302;0.00306;-0.016252;0.009656;45.976185;0.976183;0.012875;0.011986;-0.015973;-9.205257e-04;-0.003693;0.002781;-0.002772;0.680773;-0.013192;0.013192;0.040612
0.099021;1.275187;0.778068;-0.774376;0.072143;-0.062719;0.780254;0.001971;3.929276e-04;-0.004807;0.609491;-5.015828;-0.199369;1.640713;0.006053;-0.003689;0.004871;164.62236;119.62236;0.006495;0.00568;0.001971;-0.005801;-0.003812;3.929276e-04;0.001989;0.715349;0.002364;-0.002364;0.057771
0.166186;1.275187;0.796963;-0.774751;0.071623;-0.051404;0.77975;0.016477;7.821106e-04;-2.203436e-04;-0.047271;-21.067131;-0.047467;-21.154743;0.01648;7.790177e-04;0.00785;50.548088;5.548087;0.010467;0.010736;0.016477;0.001725;-0.002166;7.821106e-04;-0.003891;0.745559;0.017259;-0.017259;0.056816
0.233352;1.275187;0.827214;-0.774616;0.071634;-0.055428;0.779893;-0.013528;0.004548;9.517749e-04;2.952987;2.974449;0.336197;0.33864;0.004598;-0.013577;0.009088;46.784302;1.784302;0.012117;0.010912;-0.013528;1.939653e-04;0.00171;0.004548;0.001516;0.771786;-0.00898;0.00898;0.052321
0.300517;1.275187;0.875197;-0.774485;0.07196;-0.056237;0.779851;-0.001588;0.002666;0.003848;0.781434;0.595404;1.679531;1.279699;0.004936;-0.003857;0.004396;145.901352;100.901344;0.005862;0.005089;-0.001588;0.008159;-4.638926e-04;0.002666;-0.008623;0.81896;0.001079;-0.001079;0.06719
0.367682;1.275187;0.907639;-0.774416;0.071539;-0.055391;0.779683;0.005915;7.310315e-04;8.715256e-04;-0.097138;-8.09147;-0.123587;-10.294588;0.006058;5.884367e-04;0.002735;80.358727;35.35873;0.003646;0.003857;0.005915;0.005145;-0.003402;7.310315e-04;-0.008548;0.852248;0.006646;-0.006646;0.05934
0.434848;1.275187;0.93653;-0.774266;0.071285;-0.054413;0.779443;-0.00334;6.349434e-04;-1.683e-04;5.213567;5.260767;0.190086;0.191807;6.42056e-04;-0.003347;0.001995;37.378918;172.378922;0.00266;0.002474;-0.00334;3.262289e-04;-6.628289e-04;6.349434e-04;-9.890577e-04;0.882118;-0.002705;0.002705;0.04354
0.502013;1.275187;0.918784;-0.774918;0.071416;-0.055284;0.780163;0.006171;-0.001842;0.00213;0.354038;3.350328;0.298478;2.824558;0.006702;-0.002373;0.004537;59.112736;14.112737;0.00605;0.005435;0.006171;0.002138;0.002121;-0.001842;-1.769378e-05;0.8635;0.004329;-0.004329;0.054789
0.569178;1.275187;0.889468;-0.77505;0.071438;-0.062835;0.780868;-0.002741;0.002393;-6.446763e-04;1.140985;1.145682;0.872842;0.876435;0.002472;-0.002821;0.002647;9.69749;144.697495;0.003529;0.003058;-0.002741;0.001235;-0.002524;0.002393;-0.003759;0.826633;-3.485832e-04;3.485832e-04;0.030025
0.636344;1.275187;0.903776;-0.775423;0.071108;-0.058081;0.78084;0.006754;-0.005384;0.002849;0.814646;1.254377;0.797208;1.227528;0.007389;-0.006019;0.006704;98.793274;53.793278;0.008939;0.007755;0.006754;0.008009;-0.002312;-0.005384;-0.010321;0.845696;0.00137;-0.00137;0.059678
0.703509;1.275187;0.914405;-0.774924;0.071098;-0.056658;0.780238;0.001409;-0.003615;7.643695e-05;2.564266;0.389779;2.565556;0.389975;0.00141;-0.003616;0.002513;129.020157;84.020157;0.003351;0.002994;0.001409;3.45364e-04;-1.924901e-04;-0.003615;-5.37854e-04;0.857747;-0.002206;0.002206;0.102196
0.770674;1.275187;0.907029;-0.775261;0.071058;-0.060511;0.780859;-0.003596;-3.625787e-05;-0.00371;2.579816;-99.165901;-0.010084;0.387625;0.002299;-0.005931;0.004115;99.489403;54.489407;0.005486;0.004903;-0.003596;-0.005501;-0.001919;-3.625787e-05;0.003582;0.846518;-0.003632;0.003632;0.067926
0.83784;1.275187;0.896304;-0.775364;0.070673;-0.057421;0.780693;-0.00368;-3.0245e-04;-0.005343;2.102229;-12.166032;-0.082196;0.475686;0.003613;-0.007595;0.005604;105.298737;60.298737;0.007472;0.006605;-0.00368;-0.007565;-0.003122;-3.0245e-04;0.004444;0.838882;-0.003982;0.003982;0.074518
0.905005;1.275187;0.890029;-0.775196;0.070576;-0.056777;0.78047;0.008485;0.002532;0.002223;-0.194492;-3.351022;-0.298416;-5.141587;0.009223;0.001794;0.003715;75.077362;30.077364;0.004953;0.005647;0.008485;0.004607;-1.619733e-04;0.002532;-0.004769;0.833252;0.011017;-0.011017;0.08561
0.97217;1.275187;0.865499;-0.77524;0.070667;-0.0616;0.780887;0.018216;0.008102;0.010985;-0.04221;-2.248238;-0.444793;-23.690811;0.025252;0.001066;0.012093;92.2995;47.299503;0.016124;0.016491;0.018216;0.018375;0.003595;0.008102;-0.014779;0.803899;0.026318;-0.026318;0.067949
1.039336;1.275187;0.825593;-0.774963;0.071105;-0.062196;0.7807;-0.0089;0.010388;0.007718;0.886348;0.856721;1.167241;1.128225;0.013096;-0.011608;0.012352;158.171005;113.170998;0.01647;0.014272;-0.0089;0.016244;-8.07672e-04;0.010388;-0.017051;0.763398;0.001488;-0.001488;0.036778
1.106501;1.275187;0.779485;-0.775202;0.070695;-0.057282;0.780523;-0.035846;0.003325;-0.001827;10.535739;10.779535;0.092768;0.094915;0.00341;-0.035931;0.01967;45.075737;0.075735;0.026227;0.025168;-0.035846;-3.535259e-04;-0.0033;0.003325;-0.002947;0.722203;-0.03252;0.03252;0.047845
1.173667;1.275187;0.749938;-0.775935;0.070799;-0.051214;0.780839;-0.014211;-5.190984e-04;-0.005297;12.409698;-27.377272;-0.036527;0.080582;0.001291;-0.016022;0.008656;82.98098;37.98098;0.011542;0.011136;-0.014211;-0.0111;5.048913e-04;-5.190984e-04;0.011605;0.698724;-0.014731;0.014731;0.04058
1.240832;1.275187;0.708879;-0.775883;0.070686;-0.051997;0.78083;-0.017122;0.003024;-0.018573;2.001323;5.661784;0.176623;0.499669;0.014079;-0.028177;0.021128;109.121353;64.121353;0.028171;0.024845;-0.017122;-0.034953;-0.002192;0.003024;0.032762;0.656882;-0.014098;0.014098;0.061737
1.307997;1.275187;0.604811;-0.775551;0.070561;-0.047605;0.780208;-0.044837;0.003569;-0.030264;3.277888;12.564235;0.079591;0.305074;0.018117;-0.059385;0.038751;98.335762;53.335758;0.051668;0.046813;-0.044837;-0.060088;-4.39202e-04;0.003569;0.059649;0.557206;-0.041268;0.041268;0.066703
1.375163;1.275187;0.54206;-0.776044;0.070869;-0.040724;0.780337;-0.013522;0.003546;-0.02794;1.411811;3.813681;0.262214;0.70831;0.024226;-0.034203;0.029214;121.591919;76.591919;0.038953;0.033897;-0.013522;-0.056725;8.449513e-04;0.003546;0.05757;0.501336;-0.009977;0.009977;0.082152
1.442328;1.275187;0.434007;-0.776682;0.070941;-0.040931;0.780989;0.016157;0.003323;-0.022089;0.405068;-4.862817;-0.205642;2.468724;0.032742;-0.013263;0.023003;154.882675;109.882675;0.03067;0.027343;0.016157;-0.044419;2.399385e-04;0.003323;0.044658;0.393076;0.019479;-0.019479;0.07077
-0.303971;1.208022;0.409903;-0.774163;0.072472;-0.054116;0.779429;-0.026805;-4.473178e-04;-0.018465;4.008296;-59.924244;-0.016688;0.249483;0.009059;-0.036312;0.022685;99.352921;54.352921;0.030247;0.027725;-0.026805;-0.037374;4.445327e-04;-4.473178e-04;0.037818;0.355787;-0.027252;0.027252;0.046994
-0.236806;1.208022;0.485624;-0.774319;0.072523;-0.056698;0.779772;-0.00684;0.003412;-0.010947;1.330523;2.004874;0.498784;0.751584;0.010373;-0.013802;0.012087;118.123978;73.123978;0.016117;0.014004;-0.00684;-0.022204;3.105363e-04;0.003412;0.022514;0.428926;-0.003429;0.003429;0.059119
-0.169641;1.208022;0.564992;-0.774237;0.072526;-0.054963;0.779567;0.005405;0.005377;0.002835;-0.310654;-1.005249;-0.994778;-3.219015;0.008227;0.002556;0.002835;109.212692;64.212692;0.003781;0.004862;0.005405;0.007156;-0.001485;0.005377;-0.008641;0.510028;0.010782;-0.010782;0.044953
-0.102475;1.208022;0.609475;-0.774312;0.072234;-0.056221;0.779704;-0.012752;5.899913e-04;0.014318;2.251894;21.613115;0.046268;0.444071;0.009715;-0.021876;0.015795;157.575516;112.575523;0.02106;0.018684;-0.012752;0.030872;-0.002237;5.899913e-04;-0.033108;0.553254;-0.012162;0.012162;0.061749
-0.03531;1.208022;0.647281;-0.774268;0.072293;-0.058836;0.779858;0.007932;0.001877;0.013843;0.485747;-4.225956;-0.236633;2.058683;0.019075;-0.009266;0.01417;119.769096;74.769096;0.018894;0.016686;0.007932;0.028827;-0.001141;0.001877;-0.029968;0.588445;0.009809;-0.009809;0.037563
0.031855;1.208022;0.721149;-0.774268;0.071963;-0.051229;0.779291;0.004959;0.003074;-1.814606e-04;-0.614323;-1.61301;-0.619959;-1.627807;0.004976;0.003057;9.596506e-04;53.494057;8.494057;0.00128;0.002898;0.004959;0.001944;-0.002307;0.003074;-0.004251;0.66992;0.008034;-0.008034;0.065453
0.099021;1.208022;0.761377;-0.774393;0.071822;-0.056264;0.779749;-2.102208e-04;0.001752;-0.006712;0.795948;0.120019;8.332037;1.256364;0.007554;-0.006012;0.006783;135.869904;90.869911;0.009044;0.007849;-2.102208e-04;-0.011058;-0.002365;0.001752;0.008693;0.705113;0.001541;-0.001541;0.078116
0.166186;1.208022;0.784444;-0.774712;0.07172;-0.050274;0.779647;0.00618;5.846749e-05;-5.871664e-04;0;-105.696899;-0.009461;0;0.006236;2.654878e-06;0.003116;55.378868;10.378868;0.004155;0.004156;0.00618;0.001333;-0.002507;5.846749e-05;-0.00384;0.73417;0.006238;-0.006238;0.041925
0.233352;1.208022;0.82126;-0.774736;0.071385;-0.05245;0.779784;-0.018419;4.506694e-04;0.003391;18.24938;40.87043;0.024468;0.054796;0.001042;-0.01901;0.010026;25.268419;160.268417;0.013368;0.013034;-0.018419;0.006607;1.760027e-04;4.506694e-04;-0.006431;0.76881;-0.017968;0.017968;0.023459
0.300517;1.208022;0.873399;-0.774765;0.071632;-0.05709;0.780161;-0.005028;0.003663;0.0044;1.247978;1.372454;0.728622;0.801296;0.005502;-0.006866;0.006184;161.450958;116.450958;0.008246;0.007155;-0.005028;0.009099;-2.984791e-04;0.003663;-0.009397;0.81631;-0.001364;0.001364;0.01995
0.367682;1.208022;0.902505;-0.774727;0.071429;-0.054001;0.779885;0.002849;0.008973;0.003003;-0.158987;-0.317455;-3.150054;-6.289829;0.0102;0.001622;0.004289;136.392944;91.392952;0.005719;0.006329;0.002849;0.009393;-0.003386;0.008973;-0.012779;0.848503;0.011822;-0.011822;0.040418
0.434848;1.208022;0.887008;-0.774651;0.071258;-0.054961;0.779861;-0.002822;0.008377;0.005772;0.486576;0.336903;2.968215;2.055178;0.010819;-0.005264;0.008042;147.710571;102.710571;0.010722;0.009468;-0.002822;0.013971;-0.002428;0.008377;-0.0164;0.832047;0.005555;-0.005555;0.068583
0.502013;1.208022;0.890016;-0.774997;0.071093;-0.049697;0.779836;-0.007784;0.001041;-0.002378;5.108654;7.475967;0.133762;0.195746;0.001641;-0.008384;0.005012;75.757828;30.75783;0.006683;0.006209;-0.007784;-0.004584;-1.720075e-04;0.001041;0.004412;0.840319;-0.006742;0.006742;0.08639
0.569178;1.208022;0.908476;-0.775295;0.071132;-0.057335;0.78066;-0.008945;0.005587;0.005411;1.454994;1.601059;0.624587;0.687288;0.00738;-0.010738;0.009059;171.495697;126.495697;0.012079;0.01052;-0.008945;0.010108;7.133388e-04;0.005587;-0.009395;0.851141;-0.003358;0.003358;0.053442
0.636344;1.208022;0.911307;-0.77521;0.071294;-0.062943;0.781022;0.001799;0.00112;0.001424;0;-1.606522;-0.622463;0;0.002924;-4.473359e-06;0.001464;63.605049;18.605051;0.001952;0.001951;0.001799;2.262445e-04;0.002622;0.00112;0.002396;0.848363;0.002919;-0.002919;0.083521
0.703509;1.208022;0.924245;-0.774818;0.071286;-0.061705;0.780533;5.264733e-04;3.035094e-04;-0.001397;0.543103;-1.734619;-0.576495;1.841271;0.001817;-9.865814e-04;0.001402;30.291807;165.291809;0.001869;0.001642;5.264733e-04;-7.813849e-04;-0.002013;3.035094e-04;-0.001231;0.862539;8.299827e-04;-8.299827e-04;0.125052
0.770674;1.208022;0.909332;-0.775092;0.07102;-0.056965;0.78042;-0.004467;0.001526;-0.002725;2.13972;2.926677;0.341684;0.467351;0.00258;-0.005521;0.004051;41.173325;176.173325;0.005401;0.004779;-0.004467;-9.768599e-04;-0.004474;0.001526;-0.003497;0.852367;-0.002941;0.002941;0.084631
0.83784;1.208022;0.911208;-0.775226;0.070726;-0.057072;0.780534;-0.004142;0.003745;-0.002444;1.089235;1.105814;0.904311;0.918076;0.004441;-0.004837;0.004639;33.081253;168.081253;0.006186;0.005359;-0.004142;-0.002154;-0.002733;0.003745;-5.793168e-04;0.854136;-3.96301e-04;3.96301e-04;0.041251
0.905005;1.208022;0.887891;-0.775081;0.07059;-0.055079;0.780235;-0.001227;0.0048;0.006045;0.581623;0.25561;3.912214;1.719328;0.008541;-0.004968;0.006754;139.639679;94.639687;0.009006;0.00789;-0.001227;0.011809;2.800257e-04;0.0048;-0.011529;0.832812;0.003573;-0.003573;0.038631
0.97217;1.208022;0.881473;-0.775122;0.070792;-0.056904;0.780426;0.011725;0.010624;0.012561;0.0589;-1.103633;-0.906099;16.977886;0.023747;-0.001399;0.012573;112.793907;67.793907;0.016764;0.016317;0.011725;0.025013;1.082221e-04;0.010624;-0.024905;0.824569;0.022348;-0.022348;0.040039
1.039336;1.208022;0.87245;-0.774654;0.070985;-0.059555;0.780176;0.006997;0.006111;0.007537;0.070629;-1.144937;-0.873411;14.158417;0.014104;-9.961479e-04;0.00755;111.616798;66.616798;0.010067;0.009752;0.006997;0.014467;6.073975e-04;0.006111;-0.013859;0.812896;0.013108;-0.013108;0.065045
1.106501;1.208022;0.805024;-0.775202;0.070818;-0.0604;0.780769;-0.023606;0.001773;-0.001708;12.565616;13.311792;0.075121;0.079582;0.001888;-0.02372;0.012804;53.0807;8.080699;0.017072;0.016479;-0.023606;-0.003339;-7.70956e-05;0.001773;0.003261;0.744624;-0.021832;0.021832;0.066895
1.173667;1.208022;0.743504;-0.775659;0.071052;-0.056761;0.780972;-0.006065;0.003244;-0.007271;1.390635;1.869833;0.534807;0.719096;0.007223;-0.010044;0.008633;112.762505;67.762505;0.011511;0.010013;-0.006065;-0.013994;-5.490348e-04;0.003244;0.013445;0.686743;-0.002821;0.002821;0.058063
1.240832;1.208022;0.681376;-0.775746;0.070958;-0.061116;0.781378;-0.002882;0.004556;-0.011548;0.870875;0.632448;1.581158;1.148271;0.01297;-0.011295;0.012132;128.526581;83.526588;0.016177;0.01402;-0.002882;-0.021308;-0.001789;0.004556;0.019519;0.620261;0.001675;-0.001675;0.055516
1.307997;1.208022;0.617223;-0.775874;0.070599;-0.057212;0.781178;-0.036822;0.001551;-0.016458;5.615135;23.743717;0.042116;0.17809;0.007643;-0.042914;0.025278;85.562439;40.562439;0.033705;0.031468;-0.036822;-0.031522;-0.001395;0.001551;0.030127;0.560011;-0.035272;0.035272;0.061068
1.375163;1.208022;0.541845;-0.776005;0.070205;-0.049717;0.780758;-0.011144;5.201747e-04;-0.028644;1.444125;21.422873;0.046679;0.692461;0.02392;-0.034543;0.029232;123.899948;78.899948;0.038976;0.033939;-0.011144;-0.056777;-5.110246e-04;5.201747e-04;0.056266;0.492128;-0.010623;0.010623;0.043855
1.442328;1.208022;0.440606;-0.77643;0.070416;-0.053013;0.781417;0.021579;-0.001095;-0.042869;0.624725;19.710495;0.050734;1.600703;0.054584;-0.0341;0.044342;149.006088;104.006081;0.059123;0.051655;0.021579;-0.086539;8.018809e-04;-0.001095;0.087341;0.387592;0.020484;-0.020484;0.049137
-0.303971;1.140856;0.364075;-0.774286;0.072308;-0.047767;0.77912;-0.05041;0.012446;0.031666;2.481117;4.050413;0.246888;0.403044;0.025632;-0.063596;0.044614;172.862503;127.862503;0.059485;0.053047;-0.05041;0.063331;1.042754e-06;0.012446;-0.063329;0.316308;-0.037964;0.037964;0.078495
-0.236806;1.140856;0.469454;-0.774423;0.0722;-0.054097;0.779661;-0.002992;0.00666;0.023726;0.859185;0.44929;2.225736;1.163893;0.026046;-0.022378;0.024212;138.677246;93.677254;0.032283;0.027984;-0.002992;0.049044;-0.001591;0.00666;-0.050635;0.415357;0.003668;-0.003668;0.074951
-0.169641;1.140856;0.564978;-0.77446;0.072013;-0.053564;0.779643;0.01432;0.002961;-0.007538;0.044094;-4.835769;-0.206792;22.678841;0.018078;-7.971516e-04;0.009438;179.635284;134.635284;0.012584;0.012327;0.01432;-0.014222;-8.531347e-04;0.002961;0.013369;0.511414;0.017281;-0.017281;0.046644
-0.102475;1.140856;0.624729;-0.774535;0.071985;-0.058165;0.780045;-0.021598;0.007622;-0.013986;2.055789;2.833554;0.352914;0.486431;0.013237;-0.027213;0.020225;97.288933;52.288933;0.026967;0.023814;-0.021598;-0.026504;-0.001468;0.007622;0.025036;0.566565;-0.013976;0.013976;0.064948
-0.03531;1.140856;0.667916;-0.77422;0.072004;-0.060373;0.779901;0.002297;0.005276;-0.007706;0.349085;-0.435402;-2.296726;2.86463;0.011635;-0.004062;0.007849;143.621201;98.621201;0.010465;0.009408;0.002297;-0.014774;-6.383028e-04;0.005276;0.014135;0.607543;0.007574;-0.007574;0.031993
0.031855;1.140856;0.732508;-0.774338;0.072027;-0.056697;0.779745;0.020284;0.002241;-0.001793;-0.100923;-9.049975;-0.110498;-9.908551;0.020461;0.002065;0.009198;39.433453;174.433456;0.012264;0.013007;0.020284;-0.001772;-0.001814;0.002241;-4.188883e-05;0.675811;0.022525;-0.022525;0.06322
0.099021;1.140856;0.7688;-0.774532;0.071662;-0.053273;0.779662;0.001647;0.003551;-0.004725;0.299318;-0.463701;-2.156561;3.340924;0.007419;-0.002221;0.00482;146.492844;101.492836;0.006426;0.005829;0.001647;-0.008523;-9.261465e-04;0.003551;0.007597;0.715527;0.005198;-0.005198;0.074775
0.166186;1.140856;0.7986;-0.774813;0.071807;-0.055634;0.780119;2.581432e-04;0.003229;-0.003403;0.360907;-0.079941;-12.509202;2.7708;0.005457;-0.001969;0.003713;136.818024;91.818031;0.004951;0.004442;2.581432e-04;-0.006793;-1.293427e-05;0.003229;0.00678;0.742966;0.003487;-0.003487;0.056987
0.233352;1.140856;0.828021;-0.774655;0.071661;-0.055679;0.779952;-0.008055;0.005261;-0.008547;1.296076;1.53111;0.653121;0.77156;0.009437;-0.012231;0.010834;109.780228;64.780228;0.014445;0.012544;-0.008055;-0.014837;-0.002257;0.005261;0.01258;0.772342;-0.002794;0.002794;0.038756
0.300517;1.140856;0.864861;-0.774557;0.071527;-0.059487;0.780124;-0.013384;0.004024;-0.010188;2.073352;3.325871;0.300673;0.482311;0.00872;-0.01808;0.0134;100.286095;55.286095;0.017867;0.015785;-0.013384;-0.018659;-0.001717;0.004024;0.016942;0.805374;-0.00936;0.00936;0.031322
0.367682;1.140856;0.884855;-0.774514;0.071201;-0.058871;0.780005;-6.3909e-04;0.005007;-9.334603e-04;0.153063;0.127636;7.83476;6.533263;0.005157;-7.894124e-04;0.002973;143.994019;98.994026;0.003965;0.003729;-6.3909e-04;-9.452178e-04;-9.217028e-04;0.005007;2.351496e-05;0.825984;0.004368;-0.004368;0.039606
0.434848;1.140856;0.862428;-0.774617;0.07129;-0.059661;0.780176;-0.001801;0.002729;4.250179e-05;0.660031;0.659982;1.515193;1.515079;0.002729;-0.001801;0.002265;155.483734;110.483727;0.00302;0.002634;-0.001801;4.608413e-04;-3.758378e-04;0.002729;-8.366791e-04;0.802767;9.278405e-04;-9.278405e-04;0.045113
0.502013;1.140856;0.892128;-0.77503;0.070969;-0.051922;0.780003;-0.003821;0.001423;-0.002336;2.036849;2.684763;0.372472;0.490954;0.002313;-0.00471;0.003511;52.9828;7.982799;0.004682;0.004133;-0.003821;-0.001758;-0.002913;0.001423;-0.001155;0.840206;-0.002398;0.002398;0.059694
0.569178;1.140856;0.927339;-0.775225;0.070845;-0.060012;0.780765;-0.014339;0.003602;-0.004575;3.283698;3.980674;0.251214;0.304535;0.004701;-0.015438;0.01007;70.269272;25.269272;0.013426;0.012166;-0.014339;-0.006911;-0.002239;0.003602;0.004672;0.867327;-0.010737;0.010737;0.03323
0.636344;1.140856;0.928503;-0.77547;0.070771;-0.060612;0.781048;9.868465e-04;0.003724;-0.001024;-0.15895;-0.265022;-3.773274;-6.291291;0.004064;6.460432e-04;0.001709;129.30925;84.309258;0.002279;0.002522;9.868465e-04;-0.003658;0.001609;0.003724;0.005267;0.867891;0.00471;-0.00471;0.059115
0.703509;1.140856;0.929577;-0.77509;0.070915;-0.058602;0.78053;4.023607e-04;0.002209;0.001907;0.235464;-0.182167;-5.489466;4.246935;0.003415;-8.041756e-04;0.00211;116.030403;71.030403;0.002813;0.002587;4.023607e-04;0.002564;0.00125;0.002209;-0.001314;0.870975;0.002611;-0.002611;0.091392
0.770674;1.140856;0.914733;-0.775333;0.07094;-0.059528;0.780844;-0.001483;0.002901;-0.001019;0.546547;0.511316;1.955739;1.829668;0.003126;-0.001708;0.002417;4.404811;139.404816;0.003223;0.002831;-0.001483;0.001432;-0.00347;0.002901;-0.004902;0.855206;0.001417;-0.001417;0.067544
0.83784;1.140856;0.921977;-0.775193;0.070464;-0.056055;0.780405;-0.008718;0.001885;-0.003522;3.317267;4.624329;0.216248;0.301453;0.002949;-0.009781;0.006365;60.122406;15.122407;0.008486;0.007694;-0.008718;-0.003322;-0.003722;0.001885;-4.004157e-04;0.865922;-0.006833;0.006833;0.045298
0.905005;1.140856;0.886523;-0.775258;0.070379;-0.05045;0.780079;-0.018427;0.002818;0.00558;4.720741;6.53786;0.152955;0.211831;0.004195;-0.019803;0.011999;14.366944;149.366943;0.015999;0.0148;-0.018427;0.010756;4.04363e-04;0.002818;-0.010352;0.836073;-0.015608;0.015608;0.042945
0.97217;1.140856;0.880027;-0.775493;0.070613;-0.049109;0.780249;0.013607;-0.001787;0.006423;0.258222;7.615129;0.131318;3.872641;0.015935;-0.004115;0.010025;87.522842;42.522846;0.013367;0.012228;0.013607;0.012375;4.71227e-04;-0.001787;-0.011904;0.830917;0.01182;-0.01182;0.020091
1.039336;1.140856;0.872;-0.775262;0.070585;-0.0614;0.780886;0.024774;0.001469;0.007386;0.025046;-16.859831;-0.059313;39.926937;0.026918;-6.74174e-04;0.013796;75.21405;30.214046;0.018395;0.018174;0.024774;0.01438;3.913863e-04;0.001469;-0.013989;0.8106;0.026244;-0.026244;0.048386
1.106501;1.140856;0.796055;-0.775548;0.070494;-0.057622;0.780874;-0.026028;0.005901;0.008306;3.537434;4.410978;0.226707;0.282691;0.007932;-0.028059;0.017995;10.51018;145.510178;0.023994;0.021836;-0.026028;0.017207;-5.954946e-04;0.005901;-0.017802;0.738433;-0.020127;0.020127;0.044286
1.173667;1.140856;0.740961;-0.775659;0.07051;-0.054973;0.780794;-0.004336;0.008793;0.011918;0.718552;0.493137;2.027834;1.391688;0.015835;-0.011378;0.013607;144.605331;99.605331;0.018142;0.015782;-0.004336;0.025046;-0.001209;0.008793;-0.026254;0.685988;0.004457;-0.004457;0.026483
1.240832;1.140856;0.681199;-0.775931;0.070191;-0.055727;0.781089;-5.521036e-04;0.009412;0.010729;0.4551;0.058661;17.04715;2.197318;0.016259;-0.0074;0.011829;137.569092;92.569092;0.015773;0.013975;-5.521036e-04;0.023055;-0.001596;0.009412;-0.024651;0.625472;0.00886;-0.00886;0.026802
1.307997;1.140856;0.62916;-0.77617;0.070362;-0.053663;0.781199;-0.020907;0.006205;0.003096;3.243281;3.369515;0.296779;0.30833;0.006554;-0.021256;0.013905;27.894943;162.894943;0.01854;0.016787;-0.020907;0.005969;2.239964e-04;0.006205;-0.005745;0.575496;-0.014702;0.014702;0.04219
1.375163;1.140856;0.551663;-0.776104;0.070335;-0.050332;0.780908;0.003398;0.002448;-0.009192;0.517952;-1.388318;-0.720296;1.930682;0.012127;-0.006281;0.009204;144.877563;99.877563;0.012272;0.010805;0.003398;-0.018876;4.92059e-04;0.002448;0.019368;0.501331;0.005846;-0.005846;0.022318
1.442328;1.140856;0.468177;-0.776356;0.070438;-0.056188;0.781567;0.030371;-1.805129e-04;-0.013098;0.142745;168.247726;0.005944;7.005475;0.035218;-0.005027;0.020122;3.037945;138.037949;0.02683;0.025321;0.030371;-0.027329;0.001133;-1.805129e-04;0.028463;0.411989;0.03019;-0.03019;0.009027
-0.303971;1.073691;0.355594;-0.774356;0.072209;-0.061973;0.780181;-0.081955;0.002982;0.052842;3.789918;27.484562;0.036384;0.263858;0.028306;-0.107279;0.067793;172.371155;127.371147;0.090391;0.082588;-0.081955;0.107282;-0.001597;0.002982;-0.108879;0.293621;-0.078973;0.078973;0.094174
-0.236806;1.073691;0.467807;-0.774126;0.072051;-0.070676;0.780678;-0.038314;0.024208;0.124629;1.116161;1.58272;0.631824;0.895928;0.121437;-0.135543;0.12849;143.657883;98.657875;0.17132;0.148442;-0.038314;0.249425;-1.668099e-04;0.024208;-0.249592;0.397131;-0.014106;0.014106;0.030999
-0.169641;1.073691;0.56981;-0.774195;0.072138;-0.048388;0.779053;0.028474;0.062042;0.188632;0.614227;-0.458946;-2.178906;1.628061;0.234635;-0.14412;0.189377;130.752884;85.752876;0.252503;0.220746;0.028474;0.376008;0.001256;0.062042;-0.374752;0.521422;0.090516;-0.090516;0.031238
-0.102475;1.073691;0.626435;-0.7746;0.071945;-0.047291;0.779371;0.040935;0.047555;0.102903;0.398854;-0.860785;-1.16173;2.507185;0.147201;-0.058712;0.102956;125.935822;80.935822;0.137275;0.122488;0.040935;0.224657;-0.018851;0.047555;-0.243509;0.579143;0.088489;-0.088489;0.092354
-0.03531;1.073691;0.661083;-0.774413;0.071732;-0.055179;0.779683;0.029859;0.008793;0.018093;0.039984;-3.395727;-0.294488;25.010214;0.040262;-0.00161;0.020936;98.115082;53.115082;0.027915;0.027394;0.029859;0.038413;-0.002226;0.008793;-0.04064;0.605904;0.038652;-0.038652;0.058166
0.031855;1.073691;0.741936;-0.774559;0.071645;-0.054325;0.77976;0.015165;0.0034;-0.009369;0.087508;-4.460586;-0.224186;11.42754;0.020346;-0.00178;0.011063;174.223984;129.223984;0.014751;0.014194;0.015165;-0.018232;-5.061365e-04;0.0034;0.017726;0.68761;0.018565;-0.018565;0.047423
0.099021;1.073691;0.795766;-0.774427;0.071715;-0.050312;0.779366;0.003312;0.002442;-0.002591;-0.04541;-1.356189;-0.73736;-22.021666;0.005504;2.499207e-04;0.002627;169.249176;124.249184;0.003502;0.003589;0.003312;-0.004321;-8.599492e-04;0.002442;0.003461;0.745454;0.005754;-0.005754;0.07548
0.166186;1.073691;0.824055;-0.774818;0.071661;-0.052531;0.779896;0.004273;0.004959;-0.005079;0.048921;-0.86152;-1.160739;20.441254;0.009707;-4.748718e-04;0.005091;172.690994;127.690994;0.006788;0.006635;0.004273;-0.005956;-0.004203;0.004959;0.001753;0.771524;0.009232;-0.009232;0.05155
0.233352;1.073691;0.830005;-0.774648;0.071134;-0.045614;0.779243;0.003977;0.007811;-0.006584;0.075588;-0.50915;-1.964058;13.229604;0.012751;-9.638334e-04;0.006857;162.48436;117.48436;0.009143;0.00884;0.003977;-0.00859;-0.004578;0.007811;0.004012;0.784391;0.011787;-0.011787;0.046675
0.300517;1.073691;0.857464;-0.774491;0.070841;-0.049264;0.779282;-0.02595;0.007159;-0.005971;3.290918;3.625002;0.275862;0.303867;0.008203;-0.026994;0.017598;67.155609;22.155609;0.023464;0.021264;-0.02595;-0.010248;-0.001694;0.007159;0.008555;0.808199;-0.018792;0.018792;0.030883
0.367682;1.073691;0.898819;-0.774724;0.070678;-0.057484;0.780063;-0.006361;0.005882;0.002292;1.076045;1.081412;0.924717;0.929329;0.006297;-0.006776;0.006536;175.827637;130.827637;0.008715;0.007549;-0.006361;0.003401;0.001183;0.005882;-0.002218;0.841335;-4.788374e-04;4.788374e-04;0.026156
0.434848;1.073691;0.883242;-0.774611;0.070968;-0.055769;0.779852;-0.001247;0.007099;-0.004695;0.364362;0.175576;5.695526;2.744522;0.009208;-0.003355;0.006282;125.839203;80.839203;0.008375;0.007511;-0.001247;-0.011487;0.002097;0.007099;0.013585;0.827473;0.005853;-0.005853;0.021868
0.502013;1.073691;0.892318;-0.774763;0.071106;-0.05122;0.779704;0.001092;0.003618;-0.004405;0.321044;-0.301953;-3.311769;3.114833;0.006937;-0.002227;0.004582;153.045013;108.045013;0.00611;0.005519;0.001092;-0.006239;-0.00257;0.003618;0.003669;0.841098;0.00471;-0.00471;0.020861
0.569178;1.073691;0.906453;-0.774834;0.070563;-0.052776;0.779828;-0.005042;-5.604327e-04;-0.007065;2.214987;-8.995999;-0.111161;0.45147;0.004611;-0.010213;0.007412;113.277992;68.277992;0.009882;0.00876;-0.005042;-0.012847;-0.001283;-5.604327e-04;0.011564;0.853678;-0.005602;0.005602;0.009874
0.636344;1.073691;0.908835;-0.775242;0.070667;-0.052815;0.780246;-7.409625e-04;-3.762438e-05;-9.734593e-04;2.205728;-19.69368;-0.050778;0.453365;6.4574e-04;-0.001424;0.001035;120.811096;75.811096;0.00138;0.001223;-7.409625e-04;-0.003574;0.001627;-3.762438e-05;0.0052;0.856021;-7.785869e-04;7.785869e-04;0.026317
0.703509;1.073691;0.910025;-0.775021;0.070856;-0.052658;0.780033;0.004945;-0.003383;0.001972;0.710065;1.461828;0.684075;1.408322;0.005389;-0.003826;0.004607;98.224121;53.224125;0.006143;0.005346;0.004945;0.006965;-0.003021;-0.003383;-0.009987;0.857367;0.001562;-0.001562;0.063716
0.770674;1.073691;0.915115;-0.775368;0.070629;-0.05907;0.780816;5.713355e-04;0.002964;-0.006465;0.576202;-0.192753;-5.187981;1.735501;0.008342;-0.004807;0.006575;142.799332;97.799332;0.008766;0.007683;5.713355e-04;-0.010076;-0.002854;0.002964;0.007222;0.856046;0.003535;-0.003535;0.0536
0.83784;1.073691;0.920709;-0.775175;0.070433;-0.060514;0.780717;-0.006728;0.012251;5.019194e-04;0.549684;0.549196;1.820844;1.819228;0.012264;-0.006741;0.009503;157.367676;112.367683;0.01267;0.011126;-0.006728;0.003543;-0.002539;0.012251;-0.006083;0.860195;0.005523;-0.005523;0.094604
0.905005;1.073691;0.889104;-0.775381;0.070295;-0.05202;0.780297;-0.035451;0.010482;-2.492913e-04;3.381717;3.382025;0.295681;0.295708;0.010483;-0.035452;0.022968;46.400105;1.400105;0.030624;0.027796;-0.035451;-7.241579e-04;2.255753e-04;0.010482;9.497332e-04;0.837084;-0.024969;0.024969;0.063875
0.97217;1.073691;0.863019;-0.77555;0.07026;-0.040919;0.7798;0.01401;0.003362;-0.005131;-0.080321;-4.167408;-0.239957;-12.450004;0.01608;0.001292;0.007394;11.466044;146.466049;0.009859;0.010316;0.01401;-0.00884;-0.001422;0.003362;0.007418;0.8221;0.017371;-0.017371;6.572722e-04
1.039336;1.073691;0.845695;-0.775611;0.070345;-0.062664;0.781311;0.030025;-8.33068e-04;0.004042;0.04432;36.042;0.027745;22.563396;0.030546;-0.001354;0.01595;65.231125;20.231123;0.021267;0.02083;0.030025;0.011093;-0.003008;-8.33068e-04;-0.0141;0.783031;0.029192;-0.029192;0.016935
1.106501;1.073691;0.787183;-0.775713;0.069887;-0.055874;0.780856;-0.035317;0.003675;0.012171;5.418146;9.611282;0.104044;0.184565;0.007162;-0.038804;0.022983;7.961324;142.961319;0.030644;0.028558;-0.035317;0.026467;-0.002125;0.003675;-0.028592;0.731309;-0.031642;0.031642;0.045881
1.173667;1.073691;0.744614;-0.776017;0.06985;-0.051934;0.780883;0.00119;0.00733;0.011197;0.463172;-0.162288;-6.161879;2.159027;0.015871;-0.007351;0.011611;133.690308;88.6903;0.015481;0.013704;0.00119;0.024345;-0.00195;0.00733;-0.026295;0.69268;0.00852;-0.00852;0.061731
1.240832;1.073691;0.683836;-0.776198;0.069507;-0.056472;0.781347;0.005369;0.006065;0.006681;0.078383;-0.885261;-1.12961;12.757898;0.012407;-9.72483e-04;0.00669;117.597183;72.597183;0.00892;0.008614;0.005369;0.014055;-6.933515e-04;0.006065;-0.014748;0.627364;0.011434;-0.011434;0.046751
1.307997;1.073691;0.599626;-0.776221;0.069669;-0.055387;0.781307;-0.006873;0.004496;0.004551;1.390123;1.528719;0.654143;0.719361;0.006093;-0.008471;0.007282;175.099869;130.099869;0.009709;0.008446;-0.006873;0.006706;0.002396;0.004496;-0.00431;0.544239;-0.002377;0.002377;0.015177
1.375163;1.073691;0.528179;-0.776101;0.070186;-0.054948;0.781203;0.011931;0.003192;-0.002864;-0.182767;-3.73804;-0.26752;-5.471434;0.012786;0.002337;0.005224;11.147814;146.147812;0.006966;0.007862;0.011931;-0.008053;0.002326;0.003192;0.010379;0.473231;0.015123;-0.015123;0.009547
1.442328;1.073691;0.457044;-0.776173;0.070351;-0.056956;0.781433;0.022675;0.00315;-0.003781;-0.104509;-7.198333;-0.138921;-9.568572;0.023382;0.002444;0.010469;24.372402;159.372406;0.013959;0.014841;0.022675;-0.008502;9.411592e-04;0.00315;0.009444;0.400088;0.025825;-0.025825;0.024316
-0.303971;1.006526;0.376798;-0.774648;0.072162;-0.058304;0.780184;-0.165146;0.032526;-0.081507;3.146001;5.077372;0.196952;0.317864;0.061799;-0.194419;0.128109;90.428314;45.428314;0.170812;0.154391;-0.165146;-0.16441;0.001397;0.032526;0.165806;0.318494;-0.13262;0.13262;0.109225
-0.236806;1.006526;0.472633;-0.773664;0.070776;-0.091268;0.782237;-0.199711;0.004341;-0.002515;45.688663;46.00779;0.021735;0.021887;0.004372;-0.199742;0.102057;42.304653;177.304657;0.136076;0.134642;-0.199711;0.009138;-0.014168;0.004341;-0.023306;0.381365;-0.19537;0.19537;0.018552
-0.169641;1.006526;0.571788;-0.772024;0.06853;-0.13875;0.787382;-0.080042;0.079088;0.141893;1.005883;1.012066;0.988078;0.994151;0.162201;-0.163155;0.162678;149.724533;104.724525;0.216904;0.187845;-0.080042;0.304772;-0.020986;0.079088;-0.325758;0.433038;-9.542662e-04;9.542662e-04;0.20223
-0.102475;1.006526;0.626872;-0.774334;0.069782;-0.107677;0.784893;0.232695;0.062599;0.157061;0.094901;-3.717254;-0.269016;10.537283;0.326256;-0.030962;0.178609;98.218147;53.218143;0.238146;0.228525;0.232695;0.304049;0.010072;0.062599;-0.293976;0.519195;0.295294;-0.295294;0.023415
-0.03531;1.006526;0.649036;-0.775101;0.071468;-0.053564;0.78023;0.159209;0.007203;0.043697;0.026118;-22.101812;-0.045245;38.287086;0.170875;-0.004463;0.087669;72.274635;27.274633;0.116892;0.115433;0.159209;0.081885;0.00551;0.007203;-0.076375;0.595472;0.166412;-0.166412;0.091603
0.031855;1.006526;0.735457;-0.774776;0.071551;-0.051786;0.779795;0.005293;0.002944;-0.004354;0.04538;-1.797597;-0.556298;22.035912;0.008628;-3.915554e-04;0.00451;163.946487;118.94648;0.006013;0.005887;0.005293;-0.008801;9.268367e-05;0.002944;0.008894;0.683672;0.008237;-0.008237;0.033146
0.099021;1.006526;0.791178;-0.774596;0.071668;-0.054479;0.77981;-0.014629;0.007652;0.01079;1.580423;1.911797;0.523068;0.632742;0.012021;-0.018998;0.015509;166.990067;121.990067;0.020679;0.018059;-0.014629;0.021486;9.42674e-05;0.007652;-0.021391;0.736699;-0.006977;0.006977;0.06366
0.166186;1.006526;0.825969;-0.774885;0.071382;-0.052522;0.779937;0.005206;0.011461;0.014253;0.272995;-0.45428;-2.201283;3.663074;0.022926;-0.006259;0.014592;129.469452;84.46946;0.019456;0.017742;0.005206;0.033478;-0.004972;0.011461;-0.038449;0.773447;0.016667;-0.016667;0.040961
0.233352;1.006526;0.839625;-0.774756;0.07087;-0.052824;0.779782;0.011447;0.003717;0.008995;0.127131;-3.079963;-0.324679;7.865885;0.017372;-0.002209;0.00979;109.229019;64.229019;0.013054;0.012384;0.011447;0.023083;-0.005093;0.003717;-0.028175;0.786801;0.015164;-0.015164;0.046745
0.300517;1.006526;0.864524;-0.77451;0.07075;-0.052021;0.779473;-0.020222;0.001781;0.005156;7.29514;11.353528;0.088078;0.137078;0.002929;-0.02137;0.01215;17.750853;152.750854;0.0162;0.015317;-0.020222;0.010349;-3.691577e-05;0.001781;-0.010386;0.812503;-0.018441;0.018441;0.050373
0.367682;1.006526;0.905881;-0.774796;0.070858;-0.060485;0.780377;-0.010882;0.001109;0.001255;8.884922;9.808591;0.101951;0.11255;0.001239;-0.011012;0.006126;32.178883;167.178879;0.008168;0.007788;-0.010882;0.002457;5.323537e-05;0.001109;-0.002404;0.845396;-0.009773;0.009773;0.059466
0.434848;1.006526;0.904247;-0.774914;0.070834;-0.053704;0.779996;0.001894;0.00325;-8.074315e-04;-0.418587;-0.58283;-1.715765;-2.388988;0.003627;0.001518;0.001054;166.389542;121.389534;0.001406;0.002103;0.001894;-2.230144e-04;-0.001392;0.00325;-0.001169;0.850543;0.005145;-0.005145;0.063879
0.502013;1.006526;0.901391;-0.775019;0.070823;-0.052117;0.779991;5.682824e-04;9.871165e-04;0.001244;0.237088;-0.575699;-1.737017;4.21785;0.002039;-4.833659e-04;0.001261;135.045868;90.045876;0.001681;0.001546;5.682824e-04;0.005907;-0.00342;9.871165e-04;-0.009327;0.849273;0.001555;-0.001555;0.026762
0.569178;1.006526;0.906661;-0.775081;0.070559;-0.051212;0.779969;0.002592;-5.235989e-04;-0.001122;0.299797;4.949924;0.202023;3.335588;0.002954;-8.855056e-04;0.00192;60.211529;15.211529;0.002559;0.002321;0.002592;0.001221;-0.003465;-5.235989e-04;-0.004686;0.855449;0.002068;-0.002068;0.004044
0.636344;1.006526;0.927253;-0.775503;0.070503;-0.044436;0.779968;-0.001807;0.00429;-2.166783e-04;0.422279;0.421244;2.373922;2.368101;0.004298;-0.001815;0.003057;115.935745;70.935745;0.004075;0.003625;-0.001807;-0.001342;9.088377e-04;0.00429;0.002251;0.882817;0.002483;-0.002483;0.032392
0.703509;1.006526;0.915067;-0.77535;0.070634;-0.048391;0.780063;0.025821;0.004276;0.00529;-0.112665;-6.038169;-0.165613;-8.875908;0.02705;0.003048;0.012001;67.257416;22.257414;0.016001;0.017108;0.025821;0.010284;2.952432e-04;0.004276;-0.009989;0.866676;0.030097;-0.030097;0.04499
0.770674;1.006526;0.881165;-0.775442;0.070456;-0.061147;0.781034;0.013484;0.003338;-0.003614;-0.149098;-4.039196;-0.247574;-6.706992;0.014639;0.002183;0.006228;20.95635;155.956345;0.008304;0.00912;0.013484;-0.005497;-0.00173;0.003338;0.003767;0.820019;0.016822;-0.016822;0.048682
0.83784;1.006526;0.896013;-0.775545;0.070428;-0.064038;0.781364;-0.003476;0.008231;-0.001821;0.441047;0.422256;2.368233;2.267333;0.008508;-0.003752;0.00613;133.490433;88.490433;0.008174;0.007254;-0.003476;-0.002701;-9.414537e-04;0.008231;0.001759;0.831975;0.004756;-0.004756;0.078056
0.905005;1.006526;0.873792;-0.775551;0.07037;-0.061912;0.781194;-0.033113;0.016931;4.305005e-04;1.955566;1.955775;0.511306;0.511361;0.016935;-0.033117;0.025026;43.959412;178.959412;0.033368;0.029397;-0.033113;5.852252e-04;2.757758e-04;0.016931;-3.094493e-04;0.81188;-0.016182;0.016182;0.052826
0.97217;1.006526;0.855102;-0.775559;0.070269;-0.047876;0.780206;-0.001737;0.012556;-0.007797;0.323212;0.138335;7.228811;3.093941;0.015986;-0.005167;0.010576;131.178604;86.178604;0.014102;0.012734;-0.001737;-0.015561;-3.240373e-05;0.012556;0.015529;0.807225;0.010819;-0.010819;0.028418
1.039336;1.006526;0.833989;-0.775884;0.070145;-0.059466;0.781315;0.007758;0.00376;0.00194;-0.347998;-2.062996;-0.484732;-2.873583;0.008545;0.002973;0.002786;87.549866;42.549862;0.003714;0.005009;0.007758;0.006937;-0.003057;0.00376;-0.009994;0.774522;0.011518;-0.011518;0.019967
1.106501;1.006526;0.792891;-0.775902;0.069798;-0.051063;0.780707;-0.02903;0.004583;0.008328;4.742002;6.334558;0.157864;0.210881;0.006533;-0.03098;0.018757;11.638716;146.638718;0.025009;0.023141;-0.02903;0.018717;-0.002061;0.004583;-0.020778;0.741828;-0.024447;0.024447;0.021204
1.173667;1.006526;0.75506;-0.776256;0.069905;-0.049386;0.780961;0.012907;0.001124;4.044934e-04;-0.085939;-11.480263;-0.087106;-11.636161;0.01292;0.00111;0.005905;53.052979;8.052978;0.007873;0.008268;0.012907;0.001918;-0.001109;0.001124;-0.003028;0.705674;0.014031;-0.014031;0.048476
1.240832;1.006526;0.715408;-0.776205;0.069572;-0.054961;0.781252;-0.001056;2.562192e-04;0.002343;1.393141;4.119684;0.242737;0.717802;0.002033;-0.002832;0.002433;146.523285;101.523277;0.003244;0.002822;-0.001056;0.005417;-7.317946e-04;2.562192e-04;-0.006149;0.660447;-7.993229e-04;7.993229e-04;0.055155
1.307997;1.006526;0.614388;-0.776233;0.069604;-0.050498;0.780982;-0.008187;0.003218;0.013928;1.395456;2.544081;0.393069;0.716612;0.012565;-0.017534;0.01505;152.698807;107.698807;0.020067;0.017457;-0.008187;0.024578;0.003277;0.003218;-0.021301;0.56389;-0.004969;0.004969;0.032825
1.375163;1.006526;0.543999;-0.775995;0.070188;-0.053811;0.781019;0.016343;0.005082;0.014282;0.177989;-3.215773;-0.310967;5.618327;0.026064;-0.004639;0.015352;104.525948;59.525948;0.020469;0.019111;0.016343;0.027309;0.001255;0.005082;-0.026053;0.490188;0.021425;-0.021425;0.040984
1.442328;1.006526;0.446643;-0.776153;0.069968;-0.056707;0.781361;0.017331;0.007604;0.013273;0.062718;-2.279206;-0.438749;15.94433;0.026603;-0.001668;0.014136;105.615402;60.615398;0.018848;0.018317;0.017331;0.028865;-0.002319;0.007604;-0.031184;0.389936;0.024935;-0.024935;0.035626
-0.303971;0.93936;0.404005;-0.774754;0.072788;-0.029938;0.778741;-0.125099;0.006466;-0.046906;6.523921;19.347759;0.051686;0.153282;0.021476;-0.14011;0.080793;81.98233;36.98233;0.107724;0.101327;-0.125099;-0.094045;2.328277e-04;0.006466;0.094278;0.374067;-0.118634;0.118634;0.073957
-0.236806;0.93936;0.47477;-0.773156;0.071464;-0.057679;0.778591;-0.225665;0.029147;-0.099743;4.092528;7.742335;0.12916;0.244348;0.063546;-0.260065;0.161805;88.389854;43.389854;0.21574;0.197987;-0.225665;-0.211681;0.012195;0.029147;0.223875;0.417091;-0.196518;0.196518;0.099237
-0.169641;0.93936;0.552362;-0.76913;0.068618;-0.132405;0.783454;-0.135247;0.037694;-0.161261;1.726897;3.588051;0.278703;0.579073;0.134205;-0.231759;0.182982;113.112099;68.112099;0.243976;0.213777;-0.135247;-0.336255;0.013732;0.037694;0.349986;0.419957;-0.097553;0.097553;0.556292
-0.102475;0.93936;0.61215;-0.773433;0.069884;-0.110896;0.784462;0.204032;0.012876;-0.10714;0.139359;-15.84594;-0.063108;7.175714;0.25203;-0.035123;0.143576;177.580612;132.580612;0.191435;0.180868;0.204032;-0.221724;0.007443;0.012876;0.229167;0.501254;0.216907;-0.216907;0.072114
-0.03531;0.93936;0.665766;-0.775664;0.071338;-0.058262;0.781113;0.19646;-0.001089;0.007744;0.007074;180.432968;0.005542;141.363129;0.196763;-0.001392;0.099077;48.397095;3.397094;0.132103;0.131642;0.19646;0.011687;0.0038;-0.001089;-0.007886;0.607504;0.195371;-0.195371;0.157105
0.031855;0.93936;0.738725;-0.774999;0.071227;-0.045141;0.779573;0.01297;0.004067;0.015887;0.319028;-3.189331;-0.313545;3.134524;0.025017;-0.007981;0.016499;113.595734;68.595734;0.021999;0.01988;0.01297;0.032493;-7.181608e-04;0.004067;-0.033211;0.693585;0.017036;-0.017036;0.03696
0.099021;0.93936;0.77731;-0.775064;0.071069;-0.058991;0.780548;-0.035891;0.013423;0.004483;2.624852;2.673789;0.374001;0.380974;0.013828;-0.036296;0.025062;19.939075;154.939072;0.033415;0.029892;-0.035891;0.013849;-0.004882;0.013423;-0.01873;0.718319;-0.022468;0.022468;0.079512
0.166186;0.93936;0.8126;-0.77528;0.070972;-0.063856;0.781136;0.005269;0.016254;0.010932;0.06404;-0.324198;-3.084539;15.615182;0.022996;-0.001473;0.012234;129.270111;84.270119;0.016312;0.015844;0.005269;0.02464;-0.002776;0.016254;-0.027416;0.748744;0.021523;-0.021523;0.048901
0.233352;0.93936;0.842288;-0.775056;0.070554;-0.056891;0.780337;0.029034;0.006606;0.009874;-0.087863;-4.395015;-0.227531;-11.381308;0.032761;0.002879;0.014941;81.176605;36.176605;0.019922;0.020947;0.029034;0.020576;-8.286068e-04;0.006606;-0.021405;0.785398;0.03564;-0.03564;0.036276
0.300517;0.93936;0.861284;-0.774812;0.070606;-0.049757;0.779612;-0.004551;0.002794;0.002537;1.490048;1.628777;0.613957;0.671119;0.003585;-0.005342;0.004464;173.772476;128.772476;0.005951;0.005187;-0.004551;0.004692;3.821696e-04;0.002794;-0.004309;0.811527;-0.001757;0.001757;0.051226
0.367682;0.93936;0.882413;-0.77493;0.070725;-0.057991;0.780309;-0.011231;0.003508;-0.002012;3.04452;3.201653;0.312339;0.328459;0.003777;-0.0115;0.007639;57.334076;12.334075;0.010185;0.009189;-0.011231;-0.002651;-0.001372;0.003508;0.001279;0.824422;-0.007723;0.007723;0.042046
0.434848;0.93936;0.905797;-0.775385;0.070398;-0.055011;0.780516;0.002742;0.005717;2.015209e-04;-0.476183;-0.479692;-2.084671;-2.100035;0.00573;0.002729;0.001501;152.241638;107.241638;0.002001;0.00331;0.002742;0.004037;-0.003634;0.005717;-0.00767;0.850786;0.008459;-0.008459;0.059606
0.502013;0.93936;0.926782;-0.775461;0.070089;-0.055175;0.780574;-2.48701e-04;0.003586;0.002912;0.3526;0.069348;14.420071;2.836079;0.005155;-0.001818;0.003487;137.820602;92.820602;0.004649;0.004177;-2.48701e-04;0.006087;-2.634836e-04;0.003586;-0.006351;0.871607;0.003338;-0.003338;0.032108
0.569178;0.93936;0.931813;-0.775134;0.070219;-0.057218;0.780409;-2.086153e-04;0.001761;0.001998;0.483298;0.118478;8.44038;2.069117;0.003004;-0.001452;0.002228;130.964737;85.964737;0.002971;0.002624;-2.086153e-04;0.003136;8.608359e-04;0.001761;-0.002275;0.874595;0.001552;-0.001552;0.067182
0.636344;0.93936;0.93462;-0.775497;0.070155;-0.051403;0.780359;-0.009003;0.015765;1.271689e-04;0.571104;0.571086;1.75105;1.750996;0.015765;-0.009004;0.012384;142.7836;97.7836;0.016513;0.014477;-0.009003;0.001107;-8.522063e-04;0.015765;-0.001959;0.883217;0.006762;-0.006762;0.079036
0.703509;0.93936;0.917144;-0.775771;0.070116;-0.050152;0.780546;0.011968;0.00766;-0.0032;-0.435689;-1.562407;-0.640038;-2.295214;0.013672;0.005957;0.003858;7.326755;142.326752;0.005143;0.007915;0.011968;-0.006635;2.351457e-04;0.00766;0.006871;0.866991;0.019628;-0.019628;0.014468
0.770674;0.93936;0.910377;-0.775523;0.070461;-0.064257;0.781364;0.009383;0.010937;0.013913;0.156668;-0.857893;-1.165647;6.382925;0.024095;-0.003775;0.013935;116.229095;71.229095;0.01858;0.017458;0.009383;0.025709;0.002117;0.010937;-0.023592;0.84612;0.02032;-0.02032;0.026862
0.83784;0.93936;0.904125;-0.775778;0.070429;-0.066646;0.781814;-0.006615;0.014125;0.008705;0.565751;0.468309;2.135344;1.767563;0.017294;-0.009784;0.013539;149.334854;104.334846;0.018052;0.015833;-0.006615;0.018327;-9.171535e-04;0.014125;-0.019245;0.83748;0.00751;-0.00751;0.048084
0.905005;0.93936;0.858477;-0.77612;0.070227;-0.061861;0.781742;-0.021369;0.006578;0.004366;3.041869;3.248656;0.30782;0.328745;0.007244;-0.022036;0.01464;14.805735;149.80574;0.01952;0.017609;-0.021369;0.011272;-0.00254;0.006578;-0.013811;0.796617;-0.014792;0.014792;0.034164
0.97217;0.93936;0.84605;-0.775835;0.069949;-0.055192;0.780935;-0.003674;0.007179;-0.005263;0.62361;0.51178;1.953964;1.603567;0.009311;-0.005807;0.007559;124.987968;79.987968;0.010079;0.008806;-0.003674;-0.008879;-0.001646;0.007179;0.007233;0.790858;0.003505;-0.003505;0.039349
1.039336;0.93936;0.834748;-0.776039;0.069686;-0.056492;0.781206;-0.00953;0.006219;-0.006535;1.386034;1.532463;0.652544;0.721483;0.008577;-0.011889;0.010233;98.821243;53.821243;0.013644;0.011868;-0.00953;-0.010623;-0.002448;0.006219;0.008175;0.778256;-0.003311;0.003311;0.021382
1.106501;0.93936;0.803328;-0.776024;0.069362;-0.049411;0.780683;-0.012998;0.002589;-0.009687;2.440041;5.021069;0.199161;0.409829;0.007228;-0.017638;0.012433;99.944778;54.944775;0.016577;0.01477;-0.012998;-0.018249;-0.001125;0.002589;0.017124;0.753917;-0.010409;0.010409;0.055895
1.173667;0.93936;0.740097;-0.776302;0.069664;-0.054808;0.781346;0.017438;0.002254;-0.014298;0.243621;-7.736367;-0.12926;4.104732;0.026035;-0.006343;0.016189;165.523483;120.523491;0.021585;0.019812;0.017438;-0.029414;8.176275e-04;0.002254;0.030232;0.685289;0.019692;-0.019692;0.049935
1.240832;0.93936;0.702303;-0.7761;0.069651;-0.055839;0.781217;-0.016219;0.001702;-0.010175;3.304419;9.528783;0.104945;0.302625;0.0063;-0.020816;0.013558;97.168861;52.168861;0.018077;0.016386;-0.016219;-0.020818;4.681789e-04;0.001702;0.021286;0.646464;-0.014517;0.014517;0.045011
1.307997;0.93936;0.639293;-0.776225;0.069741;-0.049299;0.780909;-0.014252;0.001182;-0.003218;8.157971;12.058884;0.082926;0.122579;0.001826;-0.014896;0.008361;75.487045;30.487043;0.011148;0.010592;-0.014252;-0.008386;0.00195;0.001182;0.010336;0.589995;-0.01307;0.01307;0.021086
1.375163;0.93936;0.568326;-0.776154;0.070071;-0.050482;0.780944;0.013866;0.003059;1.403638e-04;-0.220426;-4.533375;-0.220586;-4.536674;0.013868;0.003057;0.005405;50.376518;5.376517;0.007207;0.008413;0.013866;0.001521;-0.00124;0.003059;-0.002761;0.517844;0.016924;-0.016924;0.008508
1.442328;0.93936;0.459647;-0.776426;0.069216;-0.05219;0.781251;0.012678;0.003993;0.003126;-0.218056;-3.175425;-0.314918;-4.585968;0.013686;0.002984;0.005351;84.134995;39.134995;0.007135;0.00831;0.012678;0.01077;-0.004517;0.003993;-0.015287;0.407457;0.016671;-0.016671;0.010531
-0.303971;0.872195;0.390548;-0.774812;0.07224;-0.052104;0.779914;-0.019555;0.013187;0.052562;1.122778;1.482939;0.674337;0.890648;0.051868;-0.058237;0.055053;145.172852;100.172852;0.073403;0.063605;-0.019555;0.112395;-0.007271;0.013187;-0.119666;0.338444;-0.006368;0.006368;0.059448
-0.236806;0.872195;0.48035;-0.77417;0.071551;-0.049636;0.779052;-0.054331;0.011149;-0.043182;2.324641;4.873127;0.205207;0.430174;0.032599;-0.075781;0.05419;102.468254;57.46825;0.072254;0.064208;-0.054331;-0.08397;-0.002393;0.011149;0.081577;0.430714;-0.043182;0.043182;0.015864
-0.169641;0.872195;0.554719;-0.772713;0.071252;-0.049935;0.777596;-0.083073;0.107282;-0.15086;0.872904;0.774341;1.29142;1.145602;0.190479;-0.16627;0.178375;121.115326;76.115326;0.237833;0.206127;-0.083073;-0.305403;0.003683;0.107282;0.309086;0.504783;0.024209;-0.024209;0.164765
-0.102475;0.872195;0.628993;-0.7745;0.071206;-0.067627;0.780701;-0.013;0.070839;-0.132933;0.656344;0.183517;5.449092;1.523592;0.168305;-0.110466;0.139386;131.511108;86.511108;0.185848;0.162099;-0.013;-0.288595;0.022729;0.070839;0.311324;0.561365;0.057839;-0.057839;0.00821
-0.03531;0.872195;0.69464;-0.775535;0.07085;-0.070132;0.781916;0.073589;0.006885;-0.024604;0.014784;-10.687713;-0.093565;67.641411;0.081682;-0.001208;0.041445;7.817675;142.817673;0.05526;0.054862;0.073589;-0.055983;0.006775;0.006885;0.062758;0.624508;0.080475;-0.080475;0.089559
0.031855;0.872195;0.7456;-0.774748;0.070871;-0.055238;0.779942;0.02999;0.00524;0.012549;0;-5.722899;-0.174737;0;0.03524;-9.266376e-06;0.017625;87.47702;42.47702;0.023499;0.023496;0.02999;0.027098;-0.001999;0.00524;-0.029097;0.690361;0.035231;-0.035231;0.008394
0.099021;0.872195;0.76949;-0.775085;0.070452;-0.058697;0.78049;-0.020134;0.003869;-0.006393;3.975979;5.204091;0.192157;0.25151;0.005466;-0.021731;0.013598;72.631302;27.631304;0.018131;0.016612;-0.020134;-0.010576;-0.00221;0.003869;0.008366;0.710793;-0.016265;0.016265;0.068164
0.166186;0.872195;0.78413;-0.775263;0.070286;-0.061556;0.780873;0.001699;-5.573404e-04;-0.003998;0.758321;3.048821;0.327996;1.318702;0.004725;-0.003583;0.004154;145.84111;100.84111;0.005539;0.004812;0.001699;-0.009503;0.001507;-5.573404e-04;0.01101;0.722573;0.001142;-0.001142;0.054279
0.233352;0.872195;0.824812;-0.775137;0.070569;-0.056037;0.780357;0.019792;0.002492;0.009317;0.065877;-7.943249;-0.125893;15.179844;0.023855;-0.001572;0.012713;87.936821;42.936821;0.016951;0.016452;0.019792;0.018259;3.750368e-04;0.002492;-0.017884;0.768775;0.022284;-0.022284;0.047971
0.300517;0.872195;0.870908;-0.775087;0.070478;-0.05452;0.780191;0.004845;-0.003518;0.013027;0.907517;1.377095;0.726166;1.101908;0.014345;-0.013018;0.013682;124.76593;79.76593;0.018242;0.015805;0.004845;0.027239;-0.001185;-0.003518;-0.028423;0.816388;0.001327;-0.001327;0.033631
0.367682;0.872195;0.889147;-0.77505;0.070308;-0.054207;0.780118;-0.006019;-0.001906;0.004111;13.50203;-3.157545;-0.316702;0.074063;6.339361e-04;-0.008559;0.004597;164.616669;119.616661;0.006129;0.005929;-0.006019;0.010294;-0.002072;-0.001906;-0.012365;0.83494;-0.007925;0.007925;0.066903
0.434848;0.872195;0.903994;-0.775294;0.070117;-0.057244;0.78056;-0.001356;2.611382e-04;5.199931e-05;5.16496;5.191605;0.192619;0.193612;2.628088e-04;-0.001357;8.101029e-04;2.162769;137.162766;0.00108;0.001004;-0.001356;0.003943;-0.003839;2.611382e-04;-0.007783;0.84675;-0.001095;0.001095;0.063598
0.502013;0.872195;0.919598;-0.775226;0.069698;-0.055115;0.780302;0.001952;0.0028;-7.117053e-04;-0.482935;-0.697135;-1.434443;-2.070672;0.003204;0.001548;8.284334e-04;175.071533;130.071533;0.001105;0.00185;0.001952;1.968901e-04;-0.00162;0.0028;-0.001817;0.864483;0.004752;-0.004752;0.064446
0.569178;0.872195;0.927149;-0.775182;0.070075;-0.059123;0.780585;-0.002202;0.00117;0.001402;1.615112;1.881401;0.531519;0.619152;0.001677;-0.002708;0.002193;36.948238;171.948242;0.002923;0.002555;-0.002202;0.001176;0.001627;0.00117;4.514162e-04;0.868026;-0.001031;0.001031;0.074153
0.636344;0.872195;0.901821;-0.775517;0.070092;-0.059198;0.780925;-0.013153;0.002743;0.001814;4.532228;4.795297;0.208538;0.220642;0.002947;-0.013357;0.008152;29.364515;164.364517;0.01087;0.010032;-0.013153;0.003547;8.031143e-05;0.002743;-0.003466;0.842623;-0.01041;0.01041;0.058393
0.703509;0.872195;0.886136;-0.775972;0.069745;-0.05061;0.780742;-0.005075;0.002094;-5.050215e-05;2.422919;2.423161;0.412684;0.412725;0.002095;-0.005075;0.003585;46.90868;1.908679;0.00478;0.004257;-0.005075;-1.288752e-04;2.787088e-05;0.002094;1.567461e-04;0.835526;-0.002981;0.002981;0.013271
0.770674;0.872195;0.931961;-0.775907;0.069994;-0.055363;0.781023;-0.005339;0.009592;0.003074;0.583049;0.556621;1.796555;1.715121;0.0102;-0.005947;0.008073;158.096878;113.09687;0.010764;0.009429;-0.005339;0.008491;-0.002344;0.009592;-0.010836;0.876598;0.004253;-0.004253;0.002217
0.83784;0.872195;0.911595;-0.775754;0.0698;-0.055201;0.780842;-0.007951;0.01667;0.010661;0.577677;0.476981;2.09652;1.73107;0.020644;-0.011926;0.016285;150.119446;105.119446;0.021713;0.019027;-0.007951;0.023416;-0.002095;0.01667;-0.025511;0.856394;0.008718;-0.008718;0.051303
0.905005;0.872195;0.869603;-0.775922;0.069529;-0.053279;0.78085;0.001113;0.010952;0.007608;0.200609;-0.101664;-9.836368;4.984824;0.015093;-0.003028;0.00906;133.872513;88.87252;0.01208;0.011208;0.001113;0.01618;-9.625258e-04;0.010952;-0.017142;0.816324;0.012065;-0.012065;0.032917
0.97217;0.872195;0.854582;-0.775534;0.069505;-0.059438;0.780908;0.010909;0.003557;-0.00272;-0.225317;-3.067174;-0.326033;-4.438199;0.011805;0.00266;0.004573;20.018658;155.018661;0.006097;0.00715;0.010909;-0.004452;-9.874649e-04;0.003557;0.003464;0.795144;0.014465;-0.014465;0.050214
1.039336;0.872195;0.821073;-0.775774;0.069463;-0.06011;0.781194;-0.006992;0.007494;-0.008712;0.956583;0.932908;1.071917;1.045388;0.011581;-0.011078;0.01133;116.056503;71.056503;0.015106;0.013083;-0.006992;-0.016485;-9.395205e-04;0.007494;0.015545;0.760963;5.028184e-04;-5.028184e-04;0.036011
1.106501;0.872195;0.810332;-0.775929;0.069323;-0.056139;0.78104;-0.004777;0.007259;-0.018963;0.882559;0.658048;1.519646;1.133069;0.021137;-0.018654;0.019896;127.86425;82.86425;0.026527;0.022988;-0.004777;-0.04026;0.002333;0.007259;0.042593;0.754193;0.002482;-0.002482;0.061869
1.173667;0.872195;0.760763;-0.77613;0.06958;-0.057416;0.781356;0.004272;0.002853;-0.020183;0.700108;-1.497449;-0.667802;1.428352;0.023757;-0.016633;0.020195;140.960831;95.960831;0.026927;0.02344;0.004272;-0.040577;2.115141e-04;0.002853;0.040788;0.703347;0.007125;-0.007125;0.026271
1.240832;0.872195;0.69276;-0.775948;0.069659;-0.058265;0.781244;-0.026498;0.004814;-0.008828;4.04042;5.504047;0.181684;0.247499;0.007132;-0.028815;0.017973;76.975952;31.975956;0.023965;0.021977;-0.026498;-0.016289;-0.001367;0.004814;0.014921;0.634494;-0.021683;0.021683;0.014775
1.307997;0.872195;0.627605;-0.776262;0.06945;-0.051883;0.781088;-0.024617;0.00516;-7.352541e-04;4.757158;4.770368;0.209627;0.21021;0.005179;-0.024635;0.014907;48.635818;3.635817;0.019876;0.018394;-0.024617;-0.001491;2.090813e-05;0.00516;0.001512;0.575722;-0.019457;0.019457;0.033353
1.375163;0.872195;0.549205;-0.776268;0.069684;-0.054005;0.781258;0.001645;0.001745;0.011802;0.748838;-0.942497;-1.061011;1.335401;0.013497;-0.010107;0.011802;131.28949;86.289482;0.015736;0.013674;0.001645;0.024396;-7.92841e-04;0.001745;-0.025189;0.4952;0.00339;-0.00339;0.00112
1.442328;0.872195;0.460339;-0.776536;0.069505;-0.054461;0.78154;0.002856;-0.001092;0.017072;0.90235;2.615961;0.382269;1.108217;0.018067;-0.016303;0.017185;130.428452;85.428444;0.022914;0.019853;0.002856;0.036899;-0.002755;-0.001092;-0.039654;0.405878;0.001764;-0.001764;0.011978
-0.303971;0.805029;0.382829;-0.774258;0.07137;-0.0572;0.779641;0.010982;0.007047;-0.00702;-0.105749;-1.558477;-0.641652;-9.456341;0.016305;0.001724;0.00729;177.382935;132.382935;0.009721;0.010343;0.010982;-0.010461;-0.003579;0.007047;0.006882;0.325629;0.018029;-0.018029;0.041248
-0.236806;0.805029;0.502768;-0.774221;0.070881;-0.055294;0.779423;0.030704;0.00463;2.145295e-04;-0.150722;-6.631832;-0.150788;-6.634742;0.030706;0.004628;0.013039;49.549149;4.549147;0.017385;0.019115;0.030704;0.002746;-0.002317;0.00463;-0.005064;0.447474;0.035334;-0.035334;0.064794
-0.169641;0.805029;0.582532;-0.774377;0.071132;-0.041391;0.778738;-0.007314;0.004273;-0.002995;1.607939;1.711552;0.584265;0.621914;0.005002;-0.008042;0.006522;81.478249;36.478249;0.008696;0.007599;-0.007314;-0.004549;-0.001441;0.004273;0.003107;0.541141;-0.003041;0.003041;0.049378
-0.102475;0.805029;0.642677;-0.775019;0.070931;-0.050249;0.779879;-0.059301;0.004775;-0.021612;5.790361;12.420118;0.080515;0.172701;0.011383;-0.065909;0.038646;80.300484;35.300484;0.051528;0.048184;-0.059301;-0.041858;-0.001366;0.004775;0.040493;0.592427;-0.054527;0.054527;0.041295
-0.03531;0.805029;0.686525;-0.775171;0.070522;-0.0606;0.780728;-0.004241;3.619702e-04;-0.026567;1.156894;11.717763;0.085341;0.864383;0.024727;-0.028606;0.026667;130.406723;85.406723;0.035556;0.030819;-0.004241;-0.052763;-3.713439e-04;3.619702e-04;0.052392;0.625925;-0.00388;0.00388;0.040794
0.031855;0.805029;0.738442;-0.774933;0.070828;-0.0582;0.780336;0.021463;-0.001289;-0.007952;0.15827;16.646357;0.060073;6.31831;0.023967;-0.003793;0.01388;12.948205;147.948212;0.018507;0.017381;0.021463;-0.013578;-0.002327;-0.001289;0.011251;0.680242;0.020174;-0.020174;5.700574e-04
0.099021;0.805029;0.752296;-0.775128;0.070332;-0.053864;0.780173;-0.006588;-0.001235;-0.006373;3.607014;-5.334219;-0.187469;0.277238;0.003001;-0.010824;0.006913;104.541855;59.541855;0.009217;0.008397;-0.006588;-0.011356;-0.001391;-0.001235;0.009965;0.698432;-0.007823;0.007823;0.050478
0.166186;0.805029;0.774979;-0.775101;0.070607;-0.059732;0.780599;-0.015475;0.001457;-0.005683;5.398605;10.624614;0.094121;0.185233;0.003187;-0.017206;0.010196;85.341652;40.341652;0.013595;0.012667;-0.015475;-0.01315;0.001784;0.001457;0.014934;0.715247;-0.014019;0.014019;0.047774
0.233352;0.805029;0.828006;-0.775015;0.070663;-0.060564;0.780583;-0.007819;1.337086e-04;0.006482;3.042717;58.476192;0.017101;0.328654;0.003762;-0.011447;0.007605;165.285339;120.285332;0.01014;0.009147;-0.007819;0.013401;-4.366342e-04;1.337086e-04;-0.013838;0.767443;-0.007685;0.007685;0.058061
0.300517;0.805029;0.890572;-0.775086;0.070361;-0.064111;0.78091;0.008489;-2.455115e-04;0.00917;0.422663;34.575855;0.028922;2.36595;0.014278;-0.006035;0.010156;112.31295;67.31295;0.013542;0.012045;0.008489;0.020551;-0.002212;-2.455115e-04;-0.022763;0.826461;0.008243;-0.008243;0.036641
0.367682;0.805029;0.90883;-0.775159;0.070185;-0.056178;0.780355;0.001464;-6.74393e-04;0.003666;0.812701;2.170264;0.460773;1.230465;0.004214;-0.003424;0.003819;125.014847;80.014847;0.005092;0.004418;0.001464;0.009743;-0.00241;-6.74393e-04;-0.012154;0.852652;7.892179e-04;-7.892179e-04;0.12182
0.434848;0.805029;0.924777;-0.775234;0.070212;-0.061841;0.78086;0.001246;0.00117;-0.002997;0.425632;-1.06531;-0.938694;2.349447;0.004205;-0.00179;0.002998;158.63739;113.637383;0.003997;0.003554;0.001246;-0.004142;-0.001853;0.00117;0.002289;0.862936;0.002415;-0.002415;0.077067
0.502013;0.805029;0.911106;-0.775186;0.069712;-0.055752;0.780309;0.001505;0.005521;-0.006847;0.340174;-0.272547;-3.669086;2.93967;0.010648;-0.003622;0.007135;163.878586;118.878586;0.009513;0.008565;0.001505;-0.007847;-0.005846;0.005521;0.002001;0.855353;0.007026;-0.007026;0.066068
0.569178;0.805029;0.921825;-0.77545;0.069634;-0.049229;0.780125;-0.004556;0.00635;0.001961;0.731964;0.717527;1.393676;1.366188;0.006692;-0.004898;0.005795;161.704727;116.704735;0.007727;0.006718;-0.004556;0.004931;-0.001008;0.00635;-0.005938;0.872596;0.001794;-0.001794;0.011656
0.636344;0.805029;0.922584;-0.775641;0.069914;-0.054185;0.780668;-0.004343;-0.002319;-0.001448;-3.258791;-1.873033;-0.533893;-0.306862;-0.001564;-0.005097;0.001767;99.577202;54.577202;0.002355;0.003015;-0.004343;-0.006051;0.003155;-0.002319;0.009206;0.868399;-0.006661;0.006661;0.030214
0.703509;0.805029;0.894425;-0.775977;0.069886;-0.052479;0.780883;-0.002896;-0.004606;-0.001015;-2.095545;-0.628653;-1.590702;-0.477203;-0.002423;-0.005078;0.001327;128.189835;83.189835;0.00177;0.002933;-0.002896;-0.003768;0.001737;-0.004606;0.005505;0.841946;-0.007502;0.007502;0.016724
0.770674;0.805029;0.938516;-0.776083;0.069865;-0.057174;0.781316;-0.003122;0.003548;-3.281074e-04;0.880522;0.879979;1.13639;1.13569;0.003564;-0.003138;0.003351;174.371201;129.371201;0.004468;0.003872;-0.003122;3.736299e-04;-0.00103;0.003548;-0.001403;0.881342;4.257897e-04;-4.257897e-04;0.015155
0.83784;0.805029;0.922107;-0.775751;0.069584;-0.056788;0.780933;-0.00528;0.003407;-0.004412;1.356472;1.549833;0.645231;0.737206;0.005255;-0.007128;0.006191;92.504715;47.504719;0.008255;0.007176;-0.00528;-0.005511;-0.003313;0.003407;0.002198;0.865319;-0.001873;0.001873;0.031791
0.905005;0.805029;0.879468;-0.775771;0.069339;-0.053138;0.780674;0.008198;2.011841e-04;-0.004108;0.154332;-40.74926;-0.02454;6.479519;0.009932;-0.001533;0.005732;0.937328;135.937332;0.007643;0.007187;0.008198;-0.007936;-2.793222e-04;2.011841e-04;0.007657;0.826329;0.008399;-0.008399;0.045369
0.97217;0.805029;0.849109;-0.775714;0.069565;-0.059411;0.78109;0.014175;-7.586686e-04;0.001826;0.067985;18.683517;0.053523;14.709128;0.014395;-9.78613e-04;0.007687;58.375107;13.375106;0.010249;0.009939;0.014175;0.003376;2.756268e-04;-7.586686e-04;-0.0031;0.789698;0.013416;-0.013416;0.101674
1.039336;0.805029;0.814203;-0.775898;0.069345;-0.060853;0.781364;0.003022;-0.001287;0.003674;0.661662;2.347314;0.426019;1.511346;0.005127;-0.003392;0.00426;115.428543;70.428543;0.005679;0.004952;0.003022;0.009307;-0.001958;-0.001287;-0.011265;0.753351;0.001735;-0.001735;0.060095
1.106501;0.805029;0.791555;-0.776147;0.06942;-0.064157;0.781882;0.005717;0.001379;-0.001211;-0.176419;-4.144612;-0.241277;-5.66832;0.006032;0.001064;0.002484;14.74915;149.749146;0.003312;0.003718;0.005717;-0.003371;9.484243e-04;0.001379;0.004319;0.727397;0.007097;-0.007097;0.054482
1.173667;0.805029;0.749114;-0.776024;0.069576;-0.063176;0.781694;-0.016917;0.002994;-4.051098e-04;5.637061;5.64982;0.176997;0.177397;0.003002;-0.016925;0.009964;44.828403;179.8284;0.013285;0.012406;-0.016917;-8.006353e-05;-7.301561e-04;0.002994;-6.500926e-04;0.685938;-0.013923;0.013923;0.010845
1.240832;0.805029;0.680462;-0.776081;0.069211;-0.057764;0.781299;-0.031298;0.007517;0.008791;3.525856;4.163722;0.24017;0.283619;0.009415;-0.033197;0.021306;11.782468;146.782471;0.028408;0.025848;-0.031298;0.019522;-0.00194;0.007517;-0.021462;0.622698;-0.023782;0.023782;0.027522
1.307997;0.805029;0.611478;-0.776345;0.069252;-0.051498;0.781127;-0.028164;0.006619;0.00119;4.23534;4.255225;0.235005;0.236109;0.006659;-0.028204;0.017432;36.890858;171.890854;0.023242;0.021371;-0.028164;0.00354;-0.001159;0.006619;-0.004699;0.55998;-0.021545;0.021545;0.021882
1.375163;0.805029;0.523909;-0.776689;0.069235;-0.04504;0.781068;-0.017114;0.007483;-0.002131;2.256333;2.287105;0.437234;0.443197;0.007666;-0.017297;0.012482;61.164707;16.164709;0.016642;0.014766;-0.017114;-0.004126;-1.365637e-04;0.007483;0.003989;0.478869;-0.009631;0.009631;0.054406
1.442328;0.805029;0.442606;-0.776899;0.069274;-0.046327;0.781356;-0.009827;0.007845;0.002277;1.243782;1.252749;0.798244;0.803999;0.008133;-0.010116;0.009125;9.648845;144.648849;0.012166;0.010557;-0.009827;0.00376;7.925757e-04;0.007845;-0.002968;0.396279;-0.001983;0.001983;0.059859
-0.303971;0.737864;0.389824;-0.774438;0.071125;-0.049751;0.779287;0.014156;2.429464e-05;0.008476;0.217662;-582.662964;-0.001716;4.594273;0.018125;-0.003945;0.011035;98.275223;53.275219;0.014713;0.013591;0.014156;0.019133;-0.00218;2.429464e-05;-0.021313;0.340073;0.01418;-0.01418;0.052326
-0.236806;0.737864;0.490888;-0.77458;0.071023;-0.049891;0.779428;0.017223;5.871213e-04;0.009717;0.179105;-29.33518;-0.034089;5.583316;0.021696;-0.003886;0.012791;96.118645;51.118641;0.017055;0.015918;0.017223;0.02145;-0.002016;5.871213e-04;-0.023466;0.440997;0.01781;-0.01781;0.083227
-0.169641;0.737864;0.573102;-0.774626;0.070908;-0.050851;0.779525;-0.008887;0.006058;0.019659;1.144204;1.466939;0.681692;0.87397;0.019617;-0.022446;0.021031;147.246857;102.246857;0.028042;0.024303;-0.008887;0.041643;-0.002325;0.006058;-0.043969;0.522251;-0.002829;0.002829;0.066182
-0.102475;0.737864;0.628327;-0.774807;0.070792;-0.056256;0.780065;-0.023495;0.004558;0.006829;4.08786;5.154277;0.194014;0.244627;0.006133;-0.025069;0.015601;10.178205;145.178207;0.020801;0.019088;-0.023495;0.015872;-0.002213;0.004558;-0.018085;0.572071;-0.018936;0.018936;0.028859
-0.03531;0.737864;0.682225;-0.775012;0.070578;-0.054187;0.780104;-2.816814e-04;-1.426331e-04;-0.011466;1.037705;-1.974867;-0.506363;0.963665;0.011254;-0.011678;0.011466;134.222702;89.222694;0.015288;0.01324;-2.816814e-04;-0.021534;-0.001398;-1.426331e-04;0.020136;0.628038;-4.243145e-04;4.243145e-04;0.036756
0.031855;0.737864;0.729498;-0.775226;0.070585;-0.054651;0.780349;0.006986;-0.002942;-0.011163;0.715961;2.37478;0.421092;1.396724;0.014239;-0.010194;0.012217;154.5121;109.5121;0.016289;0.014171;0.006986;-0.018684;-0.003642;-0.002942;0.015042;0.674847;0.004044;-0.004044;0.031229
0.099021;0.737864;0.740883;-0.775266;0.069991;-0.053005;0.780221;-0.001441;0.002763;-0.011692;0.894568;0.52145;1.917728;1.117859;0.01254;-0.011218;0.011879;131.576065;86.576057;0.015839;0.013724;-0.001441;-0.023009;-3.743255e-04;0.002763;0.022635;0.687879;0.001322;-0.001322;0.037717
0.166186;0.737864;0.792093;-0.775384;0.070344;-0.054502;0.780474;-0.028719;0.011277;-0.01131;2.223637;2.546654;0.392672;0.449714;0.014254;-0.031696;0.022975;87.735092;42.735092;0.030633;0.027159;-0.028719;-0.024229;0.001608;0.011277;0.025837;0.737591;-0.017442;0.017442;0.034245
0.233352;0.737864;0.844793;-0.775087;0.07033;-0.061912;0.78073;-0.020133;0.006438;-0.007888;2.592004;3.127441;0.31975;0.385802;0.008603;-0.022298;0.015451;81.402397;36.402401;0.020601;0.018416;-0.020133;-0.014077;-0.001699;0.006438;0.012378;0.782881;-0.013696;0.013696;0.026064
0.300517;0.737864;0.883409;-0.774945;0.070027;-0.0609;0.780482;0.001657;0.002952;-0.004519;0.329045;-0.561526;-1.780862;3.039093;0.006869;-0.00226;0.004565;175.245132;130.245132;0.006086;0.00549;0.001657;-0.004573;-0.004464;0.002952;1.094324e-04;0.822509;0.004609;-0.004609;0.036863
0.367682;0.737864;0.910281;-0.775186;0.069489;-0.059481;0.780564;0.00423;0.007491;0.004921;-0.061293;-0.564695;-1.770868;-16.315016;0.011045;6.769675e-04;0.005184;122.788269;77.788269;0.006912;0.007148;0.00423;0.01126;-0.001418;0.007491;-0.012678;0.850801;0.011722;-0.011722;0.103905
0.434848;0.737864;0.948568;-0.77523;0.069811;-0.057855;0.780514;0.011803;0.003163;0.002517;-0.198879;-3.732226;-0.267937;-5.028183;0.012483;0.002483;0.005;71.793365;26.793367;0.006667;0.00763;0.011803;0.005749;-7.144071e-04;0.003163;-0.006464;0.890713;0.014966;-0.014966;0.066938
0.502013;0.737864;0.929097;-0.774943;0.069602;-0.050786;0.779718;7.566455e-04;0.002366;-0.002656;0.279909;-0.319858;-3.126387;3.572586;0.004336;-0.001214;0.002775;0.983636;135.983643;0.0037;0.003369;7.566455e-04;-0.002124;-0.003188;0.002366;-0.001064;0.878311;0.003122;-0.003122;0.032924
0.569178;0.737864;0.938299;-0.775263;0.069553;-0.053465;0.780211;-0.013768;-0.006801;0.010941;18.182503;-2.024412;-0.493971;0.054998;0.001197;-0.021766;0.011482;170.545822;125.545822;0.015309;0.014926;-0.013768;0.01857;0.003311;-0.006801;-0.01526;0.884833;-0.020569;0.020569;0.002313
0.636344;0.737864;0.952418;-0.775508;0.070039;-0.062375;0.781159;-0.00182;-0.013727;-0.007637;9.142141;-0.132608;-7.541012;0.109384;0.001909;-0.017456;0.009683;134.244522;89.244522;0.01291;0.012323;-0.00182;-0.017083;0.00181;-0.013727;0.018894;0.890044;-0.015547;0.015547;0.002553
0.703509;0.737864;0.917362;-0.775657;0.069802;-0.054846;0.78072;-0.014438;0.002652;-0.008391;2.937634;5.444701;0.183665;0.34041;0.006083;-0.017869;0.011976;87.409615;42.409611;0.015968;0.014376;-0.014438;-0.013396;-0.003386;0.002652;0.010009;0.862515;-0.011786;0.011786;0.021775
0.770674;0.737864;0.910376;-0.776099;0.069553;-0.056731;0.781272;-6.141673e-05;0.002375;-0.001532;0.257109;0.02586;38.67017;3.889397;0.003114;-8.007133e-04;0.001958;1.310569;136.310562;0.00261;0.002388;-6.141673e-05;-5.228561e-04;-0.002542;0.002375;-0.002019;0.853645;0.002314;-0.002314;0.068623
0.83784;0.737864;0.907038;-0.775776;0.06934;-0.057442;0.780984;0.001025;-0.001841;0.001445;1.50139;0.556908;1.79563;0.66605;0.001627;-0.002443;0.002035;116.300278;71.300278;0.002714;0.002366;0.001025;0.004597;-0.001707;-0.001841;-0.006304;0.849596;-8.158896e-04;8.158896e-04;0.043071
0.905005;0.737864;0.887144;-0.775944;0.069402;-0.057598;0.781168;0.00651;5.919497e-05;4.360443e-04;-0.004565;-109.974678;-0.009093;-219.044983;0.006539;2.985363e-05;0.003255;43.032249;178.032257;0.00434;0.00435;0.00651;-2.402568e-04;0.001112;5.919497e-05;0.001353;0.829547;0.006569;-0.006569;0.043246
0.97217;0.737864;0.849649;-0.776096;0.069746;-0.059622;0.781501;-0.002555;0.001189;0.004445;1.329847;2.148477;0.465446;0.751966;0.00414;-0.005505;0.004823;150.08313;105.08313;0.00643;0.005587;-0.002555;0.009753;-8.640395e-04;0.001189;-0.010617;0.790028;-0.001366;0.001366;0.091003
1.039336;0.737864;0.825506;-0.776069;0.069436;-0.054582;0.781079;-0.001304;0.002423;0.011614;0.909182;0.538233;1.85793;1.09989;0.012322;-0.011203;0.011762;138.341919;93.341919;0.015683;0.013587;-0.001304;0.024778;-0.00155;0.002423;-0.026328;0.770924;0.001119;-0.001119;0.036458
1.106501;0.737864;0.778693;-0.776447;0.069365;-0.059261;0.781789;0.008321;0.003572;0.01935;0.532529;-2.329336;-0.429307;1.877832;0.025442;-0.013549;0.019495;122.590645;77.590645;0.025994;0.022858;0.008321;0.037846;8.539925e-04;0.003572;-0.036992;0.719432;0.011893;-0.011893;0.047492
1.173667;0.737864;0.751457;-0.776408;0.069241;-0.060855;0.781861;-0.026327;0.011856;0.019512;1.721231;2.22046;0.450357;0.58098;0.020063;-0.034533;0.027298;165.125198;120.125206;0.036398;0.031888;-0.026327;0.044954;-0.00593;0.011856;-0.050884;0.690602;-0.01447;0.01447;0.011109
1.240832;0.737864;0.718422;-0.77653;0.068727;-0.049376;0.781127;-0.013295;0.011304;0.019379;1.090682;1.176145;0.850235;0.916857;0.021957;-0.023948;0.022953;152.50235;107.502357;0.030604;0.026512;-0.013295;0.041281;-0.002523;0.011304;-0.043804;0.669046;-0.001991;0.001991;0.016766
1.307997;0.737864;0.656215;-0.776582;0.068733;-0.055285;0.781575;0.004277;2.121887e-04;-0.007598;0.555943;-20.155941;-0.049613;1.798745;0.010109;-0.00562;0.007865;150.413788;105.413788;0.010486;0.009204;0.004277;-0.015502;3.072727e-04;2.121887e-04;0.01581;0.60093;0.004489;-0.004489;0.03091
1.375163;0.737864;0.569362;-0.776694;0.068414;-0.054892;0.781631;-0.010086;-5.293041e-04;-0.026606;1.488658;-19.055822;-0.052477;0.671746;0.021724;-0.03234;0.027032;124.123886;79.123886;0.036042;0.031414;-0.010086;-0.052532;-6.804159e-04;-5.293041e-04;0.051851;0.51447;-0.010616;0.010616;0.082267
1.442328;0.737864;0.459655;-0.776912;0.068539;-0.05352;0.781764;-0.001851;0.002556;-0.032867;0.978807;0.723974;1.381265;1.021652;0.033294;-0.032588;0.032941;133.384186;88.384178;0.043921;0.038038;-0.001851;-0.066339;6.043856e-04;0.002556;0.066943;0.406135;7.056095e-04;-7.056095e-04;0.053291
-0.303971;0.670699;0.379637;-0.774813;0.071358;-0.061141;0.780491;0.022122;0.004076;0.013308;0.10212;-5.427453;-0.184248;9.792412;0.029177;-0.00298;0.016078;97.083649;52.083652;0.021438;0.020517;0.022122;0.028012;-0.001396;0.004076;-0.029409;0.318497;0.026198;-0.026198;0.035703
-0.236806;0.670699;0.481223;-0.774681;0.071082;-0.055028;0.779879;0.01663;0.003492;0.012293;0.161565;-4.762758;-0.209962;6.189468;0.023999;-0.003877;0.013938;102.915649;57.915649;0.018584;0.017436;0.01663;0.026115;-0.001529;0.003492;-0.027644;0.426195;0.020121;-0.020121;0.052389
-0.169641;0.670699;0.56103;-0.775052;0.070816;-0.052184;0.780028;-0.006559;0.003986;0.006163;1.377036;1.645561;0.607696;0.726197;0.006824;-0.009397;0.008111;159.802444;114.802444;0.010814;0.009405;-0.006559;0.01423;-0.001903;0.003986;-0.016133;0.508846;-0.002573;0.002573;0.05808
-0.102475;0.670699;0.619477;-0.774951;0.070623;-0.055452;0.780136;-0.002337;0.003708;-0.002275;0.693211;0.630267;1.586628;1.442563;0.004469;-0.003098;0.003783;150.858978;105.858971;0.005044;0.004392;-0.002337;-0.002338;-0.002212;0.003708;1.261033e-04;0.564026;0.001371;-0.001371;0.023943
-0.03531;0.670699;0.688088;-0.775051;0.070353;-0.052568;0.780011;0.012155;0.004004;-0.005103;-0.105954;-3.035981;-0.329383;-9.438022;0.01461;0.001548;0.006531;8.016115;143.016113;0.008708;0.009267;0.012155;-0.008463;-0.001744;0.004004;0.006719;0.635519;0.016158;-0.016158;0.025004
0.031855;0.670699;0.699507;-0.775174;0.070228;-0.050258;0.77997;0.003756;0.004339;-0.005482;0.15119;-0.86572;-1.155108;6.614173;0.009537;-0.001442;0.005489;164.270203;119.270195;0.007319;0.006889;0.003756;-0.007672;-0.003292;0.004339;0.00438;0.649249;0.008095;-0.008095;0.076075
0.099021;0.670699;0.739665;-0.775011;0.069851;-0.049796;0.779744;-7.579876e-04;0.003376;-0.004094;0.555943;0.224534;4.453668;1.798745;0.005895;-0.003277;0.004586;135.252823;90.252815;0.006115;0.005367;-7.579876e-04;-0.006631;-0.001557;0.003376;0.005074;0.689869;0.002618;-0.002618;0.075533
0.166186;0.670699;0.814624;-0.775396;0.069995;-0.049228;0.780104;-0.028485;0.007619;-0.003534;3.620994;3.738894;0.267459;0.276167;0.007961;-0.028828;0.018395;63.390968;18.39097;0.024526;0.02235;-0.028485;-0.008557;0.001488;0.007619;0.010045;0.765396;-0.020867;0.020867;0.058524
0.233352;0.670699;0.845925;-0.775039;0.070142;-0.059818;0.780502;-0.018556;0.006215;-0.001846;2.943225;2.985984;0.334898;0.339763;0.006351;-0.018693;0.012522;60.021935;15.021935;0.016696;0.015033;-0.018556;-0.004285;5.938279e-04;0.006215;0.004879;0.786108;-0.012342;0.012342;0.042411
0.300517;0.670699;0.86229;-0.774965;0.070001;-0.057672;0.780255;-0.009009;6.01635e-04;-0.003102;6.547222;14.9745;0.06678;0.152737;0.001516;-0.009923;0.005719;57.567696;12.567697;0.007626;0.007174;-0.009009;-0.002533;-0.00367;6.01635e-04;-0.001137;0.804617;-0.008408;0.008408;0.055808
0.367682;0.670699;0.883374;-0.775155;0.06958;-0.066442;0.781102;0.001615;-6.401252e-05;2.110769e-04;0.054934;25.226589;0.039641;18.203609;0.001641;-9.014417e-05;8.655467e-04;91.865379;46.865376;0.001154;0.001125;0.001615;0.004443;-0.00402;-6.401252e-05;-0.008463;0.816931;0.001551;-0.001551;0.0665
0.434848;0.670699;0.909863;-0.775305;0.069746;-0.058301;0.780616;0.016123;-0.002448;0.014313;0.427807;6.585351;0.151852;2.337501;0.023899;-0.010224;0.017061;105.552917;60.552917;0.022749;0.020221;0.016123;0.028381;2.452508e-04;-0.002448;-0.028136;0.851562;0.013675;-0.013675;0.051152
0.502013;0.670699;0.919526;-0.775253;0.069456;-0.052778;0.780145;-0.001416;0.002922;0.001297;0.540879;0.484628;2.063438;1.848844;0.00328;-0.001774;0.002527;161.181778;116.181778;0.00337;0.002961;-0.001416;0.007644;-0.00505;0.002922;-0.012694;0.866748;0.001506;-0.001506;0.024398
0.569178;0.670699;0.951618;-0.775481;0.069251;-0.059623;0.780846;-0.023746;0.003235;-0.001739;7.12919;7.340566;0.136229;0.140268;0.003347;-0.023858;0.013602;53.958355;8.958356;0.018136;0.01713;-0.023746;-0.003653;1.758315e-04;0.003235;0.003829;0.891996;-0.020511;0.020511;0.079531
0.636344;0.670699;0.963606;-0.7755;0.069637;-0.065902;0.781404;-7.691154e-04;0.004853;0.003361;0.364237;0.158491;6.309487;2.745466;0.006423;-0.00234;0.004381;138.970001;93.970001;0.005842;0.005239;-7.691154e-04;0.006632;8.923841e-05;0.004853;-0.006543;0.897704;0.004084;-0.004084;0.062763
0.703509;0.670699;0.913795;-0.775629;0.069141;-0.058181;0.780875;-0.021722;0.005625;-0.00111;3.838891;3.861578;0.258961;0.260492;0.00567;-0.021767;0.013719;43.693981;178.693985;0.018292;0.016725;-0.021722;-8.554525e-05;-0.002134;0.005625;-0.002048;0.855615;-0.016097;0.016097;0.045186
0.770674;0.670699;0.887557;-0.776163;0.069311;-0.055639;0.781235;-0.00194;0.003527;-2.832257e-04;0.551869;0.550009;1.818153;1.812025;0.003541;-0.001954;0.002748;105.500107;60.500107;0.003664;0.003217;-0.00194;-0.001978;0.001412;0.003527;0.00339;0.831918;0.001587;-0.001587;0.081472
0.83784;0.670699;0.90313;-0.775522;0.069455;-0.05105;0.780298;0.001071;0.001752;0.00418;0.496418;-0.611235;-1.636033;2.014433;0.005606;-0.002783;0.004194;128.054962;83.05497;0.005592;0.004934;0.001071;0.008387;-2.644771e-05;0.001752;-0.008414;0.85208;0.002823;-0.002823;0.0613
0.905005;0.670699;0.88216;-0.7762;0.069605;-0.057587;0.78144;0.011442;0.001416;0.00695;0.142741;-8.082224;-0.123728;7.005713;0.014999;-0.002141;0.00857;98.531113;53.531109;0.011426;0.010784;0.011442;0.01544;-0.001539;0.001416;-0.016979;0.824572;0.012858;-0.012858;0.07842
0.97217;0.670699;0.839528;-0.776188;0.069242;-0.05646;0.781313;-0.006548;0.007369;0.002869;0.896571;0.888596;1.125371;1.115361;0.007937;-0.007116;0.007527;166.85144;121.851448;0.010036;0.008695;-0.006548;0.008902;-0.003165;0.007369;-0.012067;0.783068;8.209311e-04;-8.209311e-04;0.083522
1.039336;0.670699;0.815619;-0.776193;0.068995;-0.053981;0.78112;-0.007512;0.00777;3.479427e-05;0.966836;0.966836;1.034302;1.034302;0.00777;-0.007512;0.007641;178.383209;133.383209;0.010188;0.008824;-0.007512;0.002516;-0.002446;0.00777;-0.004962;0.761638;2.576901e-04;-2.576901e-04;0.072258
1.106501;0.670699;0.775527;-0.776648;0.068829;-0.05322;0.781507;-0.004695;0.008652;0.003258;0.579276;0.542673;1.84273;1.726293;0.009404;-0.005448;0.007426;157.385651;112.385658;0.009902;0.008676;-0.004695;0.008936;-0.002421;0.008652;-0.011357;0.722306;0.003957;-0.003957;0.060509
1.173667;0.670699;0.756283;-0.776359;0.068782;-0.050246;0.781018;-0.020674;0.00603;0.002541;3.335546;3.428355;0.291685;0.299801;0.00627;-0.020913;0.013591;26.516333;161.516327;0.018122;0.016436;-0.020674;0.006142;-0.001061;0.00603;-0.007203;0.706038;-0.014643;0.014643;0.03401
1.240832;0.670699;0.71051;-0.776747;0.068769;-0.046223;0.781154;0.013606;0.002505;-0.005712;-0.005638;-5.432037;-0.184093;-177.356003;0.01602;9.03269e-05;0.007965;4.495099;139.495102;0.01062;0.01065;0.013606;-0.011392;-3.294562e-05;0.002505;0.011359;0.664287;0.01611;-0.01611;0.016176
1.307997;0.670699;0.645787;-0.776617;0.068949;-0.057522;0.78179;0.024821;0.001557;-0.011092;0.098545;-15.941249;-0.06273;10.147628;0.029261;-0.002884;0.016073;3.625671;138.625671;0.02143;0.020536;0.024821;-0.021814;-3.691769e-04;0.001557;0.021445;0.588265;0.026378;-0.026378;0.03769
1.375163;0.670699;0.560373;-0.77659;0.068805;-0.054095;0.781506;-0.006316;-0.001948;-0.011094;2.151568;-3.242508;-0.308403;0.464777;0.007176;-0.015439;0.011307;118.59597;73.59597;0.015076;0.013344;-0.006316;-0.021491;-6.972308e-04;-0.001948;0.020794;0.506278;-0.008263;0.008263;0.05089
1.442328;0.670699;0.445204;-0.777015;0.068718;-0.057524;0.782166;0.001684;-0.002678;-0.003694;1.261874;0.629012;1.589795;0.792472;0.003793;-0.004787;0.00429;146.395081;101.395073;0.00572;0.004965;0.001684;-0.007336;-5.219954e-05;-0.002678;0.007284;0.387681;-9.933587e-04;9.933587e-04;0.039943
-0.303971;0.603533;0.356938;-0.775165;0.070727;-0.054371;0.780282;0.011444;0.004132;-0.017436;0.391643;-2.769805;-0.361036;2.553348;0.025603;-0.010027;0.017815;153.752747;108.752739;0.023753;0.021216;0.011444;-0.033645;-0.001227;0.004132;0.032418;0.302566;0.015576;-0.015576;0.04348
-0.236806;0.603533;0.497182;-0.774761;0.070649;-0.05376;0.779831;0.001613;0.003794;-7.092647e-04;-0.3503;-0.425176;-2.351965;-2.854696;0.004004;0.001403;0.001301;154.995224;109.995232;0.001734;0.002346;0.001613;-3.79797e-04;-0.001039;0.003794;-6.589354e-04;0.443422;0.005407;-0.005407;0.056427
-0.169641;0.603533;0.565777;-0.774782;0.070459;-0.054986;0.77992;-0.005358;0.003325;0.012271;1.169407;1.611359;0.620594;0.855134;0.012;-0.014033;0.013017;146.76088;101.76088;0.017355;0.015046;-0.005358;0.026672;-0.00213;0.003325;-0.028802;0.510791;-0.002033;0.002033;0.071355
-0.102475;0.603533;0.609558;-0.774993;0.070258;-0.053774;0.780027;0.010354;0.003781;0.007755;0.087492;-2.738039;-0.365225;11.429631;0.01549;-0.001355;0.008423;106.192238;61.192242;0.01123;0.010807;0.010354;0.01798;-0.00247;0.003781;-0.02045;0.555783;0.014135;-0.014135;0.024621
-0.03531;0.603533;0.694752;-0.77499;0.070127;-0.053317;0.779981;0.018378;0.003412;-0.001538;-0.175622;-5.387075;-0.185629;-5.694039;0.018535;0.003255;0.00764;40.215034;175.215042;0.010186;0.011427;0.018378;-0.001149;-0.001927;0.003412;-7.780439e-04;0.641435;0.02179;-0.02179;0.025689
0.031855;0.603533;0.724216;-0.775051;0.069966;-0.051205;0.779885;0.001833;0.004081;-0.003281;0.079487;-0.449183;-2.226263;12.580725;0.006425;-5.107003e-04;0.003468;152.851593;107.851585;0.004624;0.004463;0.001833;-0.005381;-0.00118;0.004081;0.004201;0.673011;0.005914;-0.005914;0.081852
0.099021;0.603533;0.776068;-0.775002;0.069859;-0.053255;0.779964;-0.00762;-6.783893e-04;0.003563;11.063107;-11.232497;-0.089027;0.090391;8.246355e-04;-0.009123;0.004974;177.529816;132.529816;0.006632;0.006375;-0.00762;0.008368;-0.001243;-6.783893e-04;-0.009611;0.722813;-0.008298;0.008298;0.066343
0.166186;0.603533;0.826994;-0.775599;0.069856;-0.051143;0.780416;-0.024538;-0.001116;0.010114;10.691179;-21.985022;-0.045486;0.093535;0.002647;-0.028301;0.015474;2.972559;137.972565;0.020632;0.019809;-0.024538;0.022176;-0.001947;-0.001116;-0.024123;0.775851;-0.025654;0.025654;0.065223
0.233352;0.603533;0.861335;-0.775251;0.069822;-0.057441;0.780505;-0.015436;5.918556e-04;0.009117;4.147319;26.081175;0.038342;0.24112;0.004717;-0.019561;0.012139;176.07399;131.07399;0.016185;0.014864;-0.015436;0.017706;5.283367e-04;5.918556e-04;-0.017178;0.803894;-0.014844;0.014844;0.046265
0.300517;0.603533;0.87651;-0.775179;0.069943;-0.059323;0.780585;-0.005698;0.001748;0.003583;2.237088;3.258976;0.306845;0.44701;0.003193;-0.007142;0.005167;171.627991;126.627983;0.00689;0.00611;-0.005698;0.007433;-2.65898e-04;0.001748;-0.007698;0.817187;-0.00395;0.00395;0.045531
0.367682;0.603533;0.893353;-0.775177;0.069722;-0.061378;0.780723;9.697584e-04;0.001582;-0.00174;0.161276;-0.612919;-1.631536;6.200536;0.003043;-4.907099e-04;0.001767;3.234132;138.234131;0.002356;0.00221;9.697584e-04;-0.001363;-0.002117;0.001582;-7.534878e-04;0.831976;0.002552;-0.002552;0.043545
0.434848;0.603533;0.876006;-0.775496;0.06943;-0.053964;0.780465;0.002407;-0.001437;0.003034;0.76223;1.674295;0.597266;1.31194;0.004076;-0.003107;0.003592;116.488708;71.488708;0.004789;0.00416;0.002407;0.008966;-0.002898;-0.001437;-0.011864;0.822042;9.692317e-04;-9.692317e-04;0.029427
0.502013;0.603533;0.890157;-0.775874;0.069237;-0.05351;0.780793;-0.002377;-0.001528;-0.001842;-62.239307;-1.555982;-0.642681;-0.016067;-6.175169e-05;-0.003843;0.001891;66.325142;21.32514;0.002521;0.002542;-0.002377;-5.071044e-04;-0.003178;-0.001528;-0.002671;0.836647;-0.003905;0.003905;0.020097
0.569178;0.603533;0.921211;-0.776069;0.06906;-0.053547;0.780974;-0.012532;-0.009544;-0.009453;-14.037642;-1.31303;-0.761597;-0.071237;-0.001468;-0.020608;0.00957;105.763603;60.763603;0.01276;0.013276;-0.012532;-0.018883;-2.281846e-05;-0.009544;0.01886;0.867664;-0.022076;0.022076;0.070249
0.636344;0.603533;0.951638;-0.776021;0.069283;-0.056843;0.781178;0.002794;-0.008969;0.00146;3.077158;0.311539;3.209872;0.324975;0.002973;-0.009147;0.00606;119.018234;74.018234;0.00808;0.007294;0.002794;0.004647;-0.001726;-0.008969;-0.006373;0.894795;-0.006175;0.006175;0.099794
0.703509;0.603533;0.91767;-0.775706;0.068873;-0.057411;0.780871;-0.002581;0.003401;0.001932;0.79336;0.758767;1.317928;1.260461;0.003971;-0.00315;0.003561;159.63591;114.63591;0.004747;0.00412;-0.002581;0.004897;-0.001034;0.003401;-0.005931;0.860259;8.205292e-04;-8.205292e-04;0.060831
0.770674;0.603533;0.916935;-0.775931;0.069175;-0.05691;0.781085;-0.004173;8.996614e-04;-0.005956;1.676801;4.638911;0.215568;0.596374;0.004837;-0.008111;0.006474;117.935173;72.935173;0.008632;0.007555;-0.004173;-0.014328;0.002416;8.996614e-04;0.016744;0.860024;-0.003274;0.003274;0.053518
0.83784;0.603533;0.913196;-0.775688;0.069448;-0.046774;0.780194;-6.457599e-04;0.003768;0.001163;0.230153;0.171359;5.835704;4.344933;0.004056;-9.335626e-04;0.002495;129.86145;84.86145;0.003327;0.003063;-6.457599e-04;0.001656;6.705499e-04;0.003768;-9.854909e-04;0.866421;0.003123;-0.003123;0.059381
0.905005;0.603533;0.87426;-0.776115;0.069299;-0.055743;0.781194;0.014583;0.004012;-0.001447;-0.258312;-3.635209;-0.275087;-3.871287;0.014778;0.003817;0.00548;46.390167;1.390169;0.007307;0.008858;0.014583;0.00159;-0.004483;0.004012;-0.006073;0.818517;0.018595;-0.018595;0.087278
0.97217;0.603533;0.84894;-0.776126;0.068426;-0.053642;0.780981;-6.727834e-04;0.005205;-0.001093;0.16097;0.12926;7.736374;6.212343;0.005402;-8.694979e-04;0.003136;172.12558;127.125587;0.004181;0.003923;-6.727834e-04;0.002009;-0.004195;0.005205;-0.006203;0.795298;0.004532;-0.004532;0.074771
1.039336;0.603533;0.841943;-0.776384;0.068513;-0.057902;0.781549;-0.001115;0.001346;-0.002864;0.928597;0.82857;1.206899;1.076894;0.003232;-0.003001;0.003117;124.733734;79.733734;0.004156;0.0036;-0.001115;-0.005285;-4.416673e-04;0.001346;0.004844;0.784041;2.307945e-04;-2.307945e-04;0.073271
1.106501;0.603533;0.800281;-0.776657;0.068447;-0.055543;0.781643;-0.00125;0.001225;-0.010224;1.002443;1.020516;0.979897;0.997563;0.010286;-0.010311;0.010299;131.506989;86.506981;0.013731;0.011892;-0.00125;-0.018727;-0.001721;0.001225;0.017005;0.744739;-2.513012e-05;2.513012e-05;0.054133
1.173667;0.603533;0.766702;-0.776023;0.068412;-0.056086;0.781049;-0.006234;0.004172;-0.022718;1.092559;1.494174;0.669266;0.915283;0.022275;-0.024337;0.023306;127.165276;82.165276;0.031074;0.02692;-0.006234;-0.044027;-0.001408;0.004172;0.042618;0.710617;-0.002062;0.002062;0.040958
1.240832;0.603533;0.698274;-0.776516;0.068679;-0.053814;0.781402;0.002707;0.005666;-0.025147;0.71498;-0.477688;-2.093415;1.39864;0.029377;-0.021004;0.025191;138.040359;93.040367;0.033587;0.029221;0.002707;-0.050304;9.663437e-06;0.005666;0.050314;0.644459;0.008373;-0.008373;0.025848
1.307997;0.603533;0.631854;-0.776536;0.068604;-0.05865;0.781763;0.015071;0.002862;-0.00324;-0.129477;-5.265668;-0.189909;-7.723368;0.015877;0.002056;0.006911;18.015308;153.015305;0.009214;0.00997;0.015071;-0.007616;0.001136;0.002862;0.008752;0.573204;0.017933;-0.017933;0.070406
1.375163;0.603533;0.571982;-0.776508;0.068857;-0.060079;0.781867;-0.013407;0.001328;0.004935;5.271942;10.09796;0.09903;0.189683;0.002828;-0.014907;0.008867;8.458454;143.45845;0.011823;0.011002;-0.013407;0.009872;-3.386115e-06;0.001328;-0.009876;0.511902;-0.012079;0.012079;0.06087
1.442328;0.603533;0.47687;-0.776813;0.068824;-0.052896;0.781648;-0.021729;0.00165;0.00862;5.47737;13.167158;0.075947;0.182569;0.004485;-0.024563;0.014524;3.941489;138.941483;0.019365;0.018057;-0.021729;0.018912;-0.001673;0.00165;-0.020585;0.423974;-0.020079;0.020079;0.053102
-0.303971;0.536368;0.352116;-0.775216;0.070615;-0.054502;0.780331;0.006352;0.002262;0.020505;0.654242;-2.808666;-0.356041;1.528486;0.024914;-0.0163;0.020607;126.476692;81.476692;0.027476;0.023967;0.006352;0.041962;-9.51869e-04;0.002262;-0.042914;0.297614;0.008614;-0.008614;0.042864
-0.236806;0.536368;0.479412;-0.775051;0.070491;-0.053467;0.780084;-0.012923;0.003088;0.018847;1.632072;4.184689;0.238966;0.612718;0.01556;-0.025394;0.020477;153.819275;108.819267;0.027303;0.023871;-0.012923;0.037692;2.461358e-06;0.003088;-0.037689;0.425944;-0.009835;0.009835;0.084617
-0.169641;0.536368;0.564385;-0.77488;0.070707;-0.061595;0.780533;-0.010684;0.002258;0.014685;1.712087;4.732726;0.211295;0.584082;0.011834;-0.02026;0.016047;154.364319;109.364319;0.021396;0.018741;-0.010684;0.030467;-0.001097;0.002258;-0.031564;0.502789;-0.008427;0.008427;0.096818
-0.102475;0.536368;0.595486;-0.77532;0.070238;-0.057333;0.780603;0.033697;0.002373;0.00332;-0.059491;-14.197473;-0.070435;-16.809212;0.034045;0.002025;0.01601;60.971321;15.971321;0.021346;0.022052;0.033697;0.009875;-0.003235;0.002373;-0.01311;0.538153;0.03607;-0.03607;0.051902
-0.03531;0.536368;0.696134;-0.774986;0.069903;-0.05282;0.779923;0.032947;-5.434892e-04;-0.013153;0.135801;60.620522;0.016496;7.363712;0.037495;-0.005092;0.021293;10.373556;145.37355;0.028391;0.026855;0.032947;-0.022928;-0.003379;-5.434892e-04;0.019549;0.643314;0.032403;-0.032403;0.074974
0.031855;0.536368;0.737213;-0.775062;0.069629;-0.047024;0.779603;-0.005409;-0.001369;-0.008377;2.29653;-3.950107;-0.253158;0.43544;0.005228;-0.012007;0.008618;116.625732;71.625732;0.01149;0.010204;-0.005409;-0.016288;-4.668218e-04;-0.001369;0.015821;0.690189;-0.006779;0.006779;0.075747
0.099021;0.536368;0.787943;-0.775159;0.06992;-0.051805;0.780028;-0.019644;0.00351;-9.075244e-04;5.550249;5.596288;0.17869;0.180172;0.003546;-0.01968;0.011613;44.622829;179.622833;0.015483;0.014447;-0.019644;-1.681858e-04;-0.001647;0.00351;-0.001479;0.736138;-0.016134;0.016134;0.018145
0.166186;0.536368;0.833207;-0.775249;0.069585;-0.055037;0.780309;-0.030858;0.006067;-8.215097e-04;5.074061;5.086328;0.196605;0.197081;0.006085;-0.030876;0.018481;38.696739;173.696732;0.024641;0.022884;-0.030858;0.002536;-0.004179;0.006067;-0.006714;0.77817;-0.024791;0.024791;0.066439
0.233352;0.536368;0.873519;-0.775049;0.069296;-0.06439;0.7808;-0.015522;0.006613;-2.378224e-04;2.346705;2.347226;0.426035;0.426129;0.006615;-0.015524;0.01107;45.32465;0.324651;0.01476;0.013123;-0.015522;-1.925939e-04;-2.830509e-04;0.006613;-9.0457e-05;0.809129;-0.008909;0.008909;0.05079
0.300517;0.536368;0.881371;-0.775433;0.069518;-0.060182;0.780865;-7.053947e-04;0.005314;4.171249e-05;0.132791;0.132744;7.533303;7.530627;0.005314;-7.056838e-04;0.00301;115.183754;70.183754;0.004013;0.0038;-7.053947e-04;-0.001814;0.001897;0.005314;0.00371;0.82119;0.004609;-0.004609;0.014772
0.367682;0.536368;0.898299;-0.775491;0.069706;-0.062368;0.781111;0.002006;0.005902;-8.650139e-04;-0.299535;-0.33993;-2.941781;-3.338511;0.006085;0.001823;0.002131;143.620132;98.62014;0.002842;0.003606;0.002006;-0.00133;-4.000819e-04;0.005902;9.298639e-04;0.835931;0.007908;-0.007908;0.018228
0.434848;0.536368;0.880708;-0.775553;0.069487;-0.054218;0.780545;-1.220068e-04;0.004744;-0.004012;0.340019;0.025716;38.885693;2.941008;0.007004;-0.002381;0.004693;156.921921;111.921928;0.006257;0.005633;-1.220068e-04;-0.004628;-0.003396;0.004744;0.001232;0.82649;0.004622;-0.004622;0.047752
0.502013;0.536368;0.898926;-0.77576;0.069239;-0.053734;0.780696;-0.002972;0.001148;-1.755327e-04;2.579334;2.589608;0.386159;0.387697;0.001155;-0.002979;0.002067;13.876363;148.876358;0.002756;0.002463;-0.002972;0.001986;-0.002337;0.001148;-0.004323;0.845192;-0.001824;0.001824;0.03674
0.569178;0.536368;0.90583;-0.775973;0.069198;-0.052142;0.780795;-0.003562;0.003839;0.001813;0.934971;0.927848;1.077763;1.069552;0.004259;-0.003982;0.004121;160.169388;115.169388;0.005494;0.004759;-0.003562;0.002388;0.001239;0.003839;-0.001149;0.853688;2.769668e-04;-2.769668e-04;0.044711
0.636344;0.536368;0.93313;-0.776149;0.069313;-0.05257;0.781009;-0.002566;0.005593;-0.003204;0.548227;0.458747;2.179851;1.824061;0.006701;-0.003674;0.005187;123.966324;78.966324;0.006917;0.006074;-0.002566;-0.005849;-5.596231e-04;0.005593;0.005289;0.88056;0.003027;-0.003027;0.080182
0.703509;0.536368;0.928571;-0.775793;0.06904;-0.057612;0.780987;0.003492;0.003959;-0.002885;-0.125538;-0.881966;-1.13383;-7.965714;0.00662;8.310693e-04;0.002894;171.085922;126.085922;0.003859;0.004164;0.003492;-0.003759;-0.002011;0.003959;0.001747;0.870959;0.007451;-0.007451;0.059249
0.770674;0.536368;0.935722;-0.775911;0.068944;-0.058712;0.781177;-0.012734;0.01163;-0.003354;1.09139;1.094952;0.913282;0.916263;0.012083;-0.013188;0.012635;94.264671;49.264671;0.016847;0.014595;-0.012734;-0.007941;0.001233;0.01163;0.009174;0.87701;-0.001104;0.001104;0.049531
0.83784;0.536368;0.898828;-0.77607;0.068976;-0.049811;0.78072;-0.006211;0.024545;-0.015302;0.40591;0.253035;3.95202;2.463599;0.030861;-0.012527;0.021694;130.230988;85.230995;0.028925;0.025784;-0.006211;-0.028104;-0.002499;0.024545;0.025605;0.849017;0.018334;-0.018334;0.070009
0.905005;0.536368;0.856248;-0.776006;0.068934;-0.057589;0.781187;0.001879;0.010277;-0.006181;0.10288;-0.182851;-5.468923;9.720034;0.013551;-0.001394;0.007472;154.459991;109.459991;0.009963;0.009533;0.001879;-0.008026;-0.004335;0.010277;0.003691;0.798659;0.012157;-0.012157;0.086457
0.97217;0.536368;0.872345;-0.776137;0.068553;-0.052836;0.780948;-0.00266;5.627881e-04;-7.984318e-04;3.796825;4.726015;0.211595;0.263378;7.497633e-04;-0.002847;0.001798;30.581667;165.581665;0.002398;0.002191;-0.00266;7.099337e-04;-0.002307;5.627881e-04;-0.003017;0.819509;-0.002097;0.002097;0.057819
1.039336;0.536368;0.839414;-0.776387;0.068649;-0.057819;0.781558;8.127954e-04;0.001277;0.005521;0.681931;-0.636463;-1.571184;1.466424;0.00657;-0.004481;0.005526;131.37442;86.374428;0.007367;0.006418;8.127954e-04;0.01166;-6.189643e-04;0.001277;-0.012279;0.781595;0.00209;-0.00209;0.032019
1.106501;0.536368;0.784361;-0.776775;0.068321;-0.056155;0.781793;0.012846;6.107823e-04;0.005469;0.098923;-21.032391;-0.047546;10.108919;0.014934;-0.001477;0.008206;88.189957;43.18996;0.010941;0.010483;0.012846;0.012101;-0.001163;6.107823e-04;-0.013263;0.728206;0.013457;-0.013457;0.029459
1.173667;0.536368;0.761661;-0.776257;0.06841;-0.063486;0.781848;0.012491;0.001018;-0.002689;-0.032007;-12.268941;-0.081507;-31.243446;0.01309;4.18964e-04;0.006335;17.573605;152.573608;0.008447;0.00859;0.012491;-0.006547;0.001169;0.001018;0.007716;0.698176;0.013509;-0.013509;0.037888
1.240832;0.536368;0.701349;-0.776276;0.068367;-0.059596;0.781557;-0.014845;0.001722;-0.011464;2.73054;8.618484;0.11603;0.366228;0.007583;-0.020705;0.014144;103.709084;58.709084;0.018859;0.016908;-0.014845;-0.024492;0.001563;0.001722;0.026055;0.641753;-0.013122;0.013122;0.028257
1.307997;0.536368;0.640863;-0.776548;0.068442;-0.054489;0.781461;-0.013076;0.001445;-0.002932;6.772552;9.048147;0.11052;0.147655;0.002015;-0.013646;0.00783;74.4739;29.473902;0.01044;0.009838;-0.013076;-0.007308;0.001443;0.001445;0.008751;0.586374;-0.011631;0.011631;0.066228
1.375163;0.536368;0.572418;-0.776583;0.0688;-0.053805;0.781479;-0.007393;0.002618;0.00596;1.884822;2.823411;0.354181;0.530554;0.005396;-0.01017;0.007783;166.343399;121.343399;0.010377;0.009127;-0.007393;0.011678;2.421131e-04;0.002618;-0.011436;0.518613;-0.004774;0.004774;0.092106
1.442328;0.536368;0.486704;-0.776784;0.06877;-0.054127;0.781699;1.518524e-04;0.005242;-0.006288;0.431036;-0.028967;-34.522041;2.319991;0.009481;-0.004086;0.006784;136.378967;91.378967;0.009045;0.008037;1.518524e-04;-0.012126;-4.495919e-04;0.005242;0.011677;0.432577;0.005394;-0.005394;0.047441
-0.303971;0.469203;0.377073;-0.774777;0.070368;-0.061407;0.780386;0.010154;0.003318;0.015139;0.394668;-3.060126;-0.326784;2.533774;0.022256;-0.008784;0.01552;117.554688;72.554688;0.020694;0.018475;0.010154;0.031672;-0.001394;0.003318;-0.033066;0.315666;0.013473;-0.013473;0.052738
-0.236806;0.469203;0.488961;-0.774764;0.070138;-0.058713;0.780145;-0.009104;0.003811;0.011132;1.517677;2.388622;0.418651;0.658902;0.010223;-0.015516;0.012869;156.58432;111.584328;0.017159;0.014965;-0.009104;0.022547;-2.823983e-04;0.003811;-0.022829;0.430248;-0.005292;0.005292;0.08015
-0.169641;0.469203;0.576375;-0.774878;0.070284;-0.06298;0.780603;-0.004612;0.003194;0.003361;1.319316;1.444054;0.692495;0.757969;0.004441;-0.005859;0.00515;164.401978;119.40197;0.006867;0.005966;-0.004612;0.007581;-8.601538e-04;0.003194;-0.008442;0.513395;-0.001418;0.001418;0.068002
-0.102475;0.469203;0.603413;-0.77526;0.069948;-0.056566;0.780462;0.053092;0.002342;-0.003536;-0.039313;-22.669636;-0.044112;-25.436785;0.053337;0.002097;0.02562;40.552967;175.552963;0.03416;0.03488;0.053092;-0.004001;-0.00307;0.002342;9.306255e-04;0.546847;0.055434;-0.055434;0.057216
-0.03531;0.469203;0.668066;-0.775452;0.069857;-0.045536;0.779923;0.039119;9.065049e-04;-0.006318;0.002765;-43.153397;-0.023173;361.673767;0.040136;-1.109736e-04;0.020124;29.725977;164.725983;0.026831;0.026795;0.039119;-0.010663;-0.001973;9.065049e-04;0.008691;0.622531;0.040025;-0.040025;0.073945
0.031855;0.469203;0.704536;-0.775015;0.06968;-0.04634;0.779519;-0.023699;0.002561;-6.634101e-04;9.201356;9.255002;0.10805;0.10868;0.002577;-0.023716;0.013146;39.864101;174.864105;0.017529;0.016736;-0.023699;0.001809;-0.003135;0.002561;-0.004944;0.658196;-0.021138;0.021138;0.078807
0.099021;0.469203;0.742006;-0.775169;0.069482;-0.055023;0.780219;-0.016854;0.007313;0.003402;2.225728;2.304465;0.43394;0.449291;0.007783;-0.017323;0.012553;12.820662;147.820663;0.016738;0.01484;-0.016854;0.008819;-0.002015;0.007313;-0.010834;0.686982;-0.00954;0.00954;0.01754
0.166186;0.469203;0.814823;-0.775192;0.069183;-0.051432;0.77997;-0.017872;2.167321e-04;-0.009619;5.03475;82.461021;0.012127;0.19862;0.004376;-0.022031;0.013203;86.7397;41.739704;0.017605;0.016342;-0.017872;-0.016203;-0.003036;2.167321e-04;0.013167;0.763391;-0.017655;0.017655;0.089434
0.233352;0.469203;0.866322;-0.775107;0.068843;-0.05987;0.780458;-0.01859;-0.00377;-0.01041;14.992096;-4.930942;-0.202801;0.066702;0.001598;-0.023958;0.012778;94.878296;49.878296;0.017037;0.016531;-0.01859;-0.021668;8.481139e-04;-0.00377;0.022517;0.806452;-0.02236;0.02236;0.089645
0.300517;0.469203;0.864802;-0.775814;0.069167;-0.05499;0.78083;0.001953;6.013131e-04;-0.002119;0.270505;-3.247805;-0.3079;3.696787;0.003501;-9.471497e-04;0.002224;155.692352;110.692352;0.002966;0.002706;0.001953;-0.005029;7.907362e-04;6.013131e-04;0.00582;0.809811;0.002554;-0.002554;0.03359
0.367682;0.469203;0.892468;-0.775688;0.069038;-0.054728;0.780675;0.004638;0.005522;-0.00274;-0.293356;-0.839927;-1.19058;-3.408822;0.007856;0.002305;0.002776;171.423813;126.42382;0.003701;0.004663;0.004638;-0.003453;-0.002027;0.005522;0.001426;0.837739;0.010161;-0.010161;0.038007
0.434848;0.469203;0.898181;-0.77568;0.069098;-0.052478;0.780518;4.018923e-04;0.006096;-0.001146;-0.028493;-0.065922;-15.169439;-35.096458;0.006318;1.80028e-04;0.003069;139.691635;94.691635;0.004092;0.004154;4.018923e-04;-0.001868;-4.23248e-04;0.006096;0.001445;0.845704;0.006498;-0.006498;0.095858
0.502013;0.469203;0.909682;-0.775937;0.069039;-0.054425;0.780901;-0.003998;0.004696;3.641784e-05;0.851298;0.851293;1.174683;1.174677;0.004697;-0.003998;0.004347;170.862015;125.862015;0.005796;0.005025;-0.003998;0.001124;-0.001051;0.004696;-0.002176;0.855258;6.983811e-04;-6.983811e-04;0.061287
0.569178;0.469203;0.897315;-0.776101;0.06889;-0.056852;0.781224;-0.001711;0.005263;-3.882072e-04;0.327773;0.325021;3.07672;3.050892;0.005285;-0.001732;0.003508;143.525833;98.525826;0.004678;0.004221;-0.001711;-5.261074e-05;-7.238037e-04;0.005263;-6.711929e-04;0.840464;0.003553;-0.003553;0.055083
0.636344;0.469203;0.90457;-0.77622;0.068931;-0.057306;0.781379;-0.006251;0.012581;-4.414589e-04;0.497223;0.49681;2.012843;2.01117;0.012592;-0.006261;0.009426;123.61599;78.61599;0.012569;0.011087;-0.006251;-0.001948;0.001065;0.012581;0.003013;0.847264;0.006331;-0.006331;0.051549
0.703509;0.469203;0.923489;-0.775862;0.068859;-0.061521;0.781337;-6.599069e-04;0.012182;-0.002808;0.097649;0.05417;18.460312;10.240779;0.012769;-0.001247;0.007008;142.017929;97.017921;0.009344;0.008957;-6.599069e-04;-0.00378;-0.001835;0.012182;0.001945;0.861968;0.011522;-0.011522;0.048855
0.770674;0.469203;0.913906;-0.776015;0.068613;-0.064089;0.781674;-0.006441;0.013144;-0.013385;0.663817;0.49008;2.040482;1.50644;0.019936;-0.013234;0.016585;128.520187;83.520187;0.022114;0.019281;-0.006441;-0.021193;-0.005578;0.013144;0.015616;0.849817;0.006702;-0.006702;0.040617
0.83784;0.469203;0.856675;-0.776183;0.068668;-0.062001;0.781677;-0.017359;0.006867;-0.014284;1.77822;2.527903;0.395585;0.56236;0.013482;-0.023974;0.018728;102.915878;57.915878;0.024971;0.021906;-0.017359;-0.026139;-0.002428;0.006867;0.023711;0.794674;-0.010492;0.010492;0.045574
0.905005;0.469203;0.853389;-0.776284;0.06854;-0.058323;0.781483;-1.479421e-04;0.001366;-6.555763e-04;0.243708;0.108329;9.231152;4.103278;0.00161;-3.924024e-04;0.001001;129.213699;84.213707;0.001335;0.001225;-1.479421e-04;-0.001448;1.371387e-04;0.001366;0.001585;0.795066;0.001218;-0.001218;0.072168
0.97217;0.469203;0.879652;-0.776305;0.068575;-0.054806;0.781252;-0.005671;0.001889;0.003005;2.28728;3.002053;0.333105;0.437201;0.002938;-0.006719;0.004829;173.80394;128.80394;0.006438;0.005716;-0.005671;0.006866;-8.563732e-04;0.001889;-0.007722;0.824846;-0.003782;0.003782;0.043922
1.039336;0.469203;0.847639;-0.776556;0.068572;-0.053906;0.781439;-0.00952;0.001485;0.016926;1.58313;6.412615;0.155943;0.63166;0.01378;-0.021816;0.017798;149.968216;104.968216;0.023731;0.020725;-0.00952;0.035946;-0.002094;0.001485;-0.03804;0.793733;-0.008036;0.008036;0.041273
1.106501;0.469203;0.797375;-0.776805;0.068172;-0.051339;0.781478;0.01569;0.003663;0.022203;0.407804;-4.283859;-0.233434;2.45216;0.03268;-0.013327;0.023003;115.71711;70.71711;0.030671;0.027334;0.01569;0.044552;-1.459722e-04;0.003663;-0.044698;0.746035;0.019353;-0.019353;0.034134
1.173667;0.469203;0.754788;-0.776704;0.068537;-0.058666;0.781926;0.024381;0.003407;0.026554;0.345297;-7.156091;-0.139741;2.896055;0.042443;-0.014656;0.028549;109.181679;64.181679;0.038066;0.034242;0.024381;0.050535;0.002572;0.003407;-0.047963;0.696122;0.027788;-0.027788;0.044497
1.240832;0.469203;0.693874;-0.776575;0.068493;-0.060548;0.781937;0.003246;9.825792e-04;0.02043;0.812681;-3.303767;-0.302685;1.230495;0.022575;-0.018347;0.020461;130.253906;85.253914;0.027281;0.023668;0.003246;0.039517;0.001342;9.825792e-04;-0.038174;0.633326;0.004229;-0.004229;0.034786
1.307997;0.469203;0.626739;-0.776961;0.068751;-0.061811;0.782442;-0.013526;0.001394;6.512451e-04;9.529656;9.703279;0.103058;0.104936;0.001422;-0.013554;0.007488;38.613049;173.613052;0.009984;0.009545;-0.013526;0.00148;-1.78e-04;0.001394;-0.001658;0.564929;-0.012132;0.012132;1.891217e-05
1.375163;0.469203;0.546106;-0.776705;0.068248;-0.052868;0.781487;-0.003269;0.0055;-0.012767;0.847318;0.594287;1.68269;1.180194;0.014615;-0.012383;0.013499;128.287598;83.28759;0.017999;0.015605;-0.003269;-0.024296;-0.001238;0.0055;0.023057;0.493238;0.002231;-0.002231;0.057123
1.442328;0.469203;0.450479;-0.776973;0.068256;-0.058711;0.782172;0.023574;0.007307;-0.01503;0.050688;-3.225989;-0.309983;19.728491;0.03253;-0.001649;0.01709;173.299698;128.299698;0.022786;0.022257;0.023574;-0.028845;-0.001215;0.007307;0.02763;0.391767;0.030881;-0.030881;0.038069
-0.303971;0.402037;0.377296;-0.775003;0.069944;-0.059187;0.7804;0.008354;0.004598;-0.001318;-0.476896;-1.816644;-0.550466;-2.096894;0.00877;0.004182;0.002294;24.988855;159.988861;0.003058;0.005065;0.008354;-0.00188;-7.548822e-04;0.004598;0.001125;0.318109;0.012952;-0.012952;0.035086
-0.236806;0.402037;0.492445;-0.775076;0.06988;-0.058472;0.780413;-0.001128;0.003405;-0.004442;0.628192;0.331183;3.019479;1.591869;0.006125;-0.003848;0.004986;129.302216;84.302216;0.006649;0.005808;-0.001128;-0.00851;-3.73692e-04;0.003405;0.008136;0.433973;0.002277;-0.002277;0.080519
-0.169641;0.402037;0.587288;-0.774819;0.069981;-0.06141;0.780393;0.004946;0.002891;-0.01395;0.562337;-1.71068;-0.584563;1.778292;0.017907;-0.01007;0.013988;145.158081;100.158073;0.018651;0.016362;0.004946;-0.027523;-3.780586e-04;0.002891;0.027145;0.525878;0.007837;-0.007837;0.059225
-0.102475;0.402037;0.626303;-0.775058;0.069943;-0.058737;0.780421;0.042458;0.002945;-0.008645;-0.025673;-14.416692;-0.069364;-38.95113;0.044267;0.001136;0.021565;24.17247;159.17247;0.028754;0.02914;0.042458;-0.016031;-0.001259;0.002945;0.014772;0.567566;0.045403;-0.045403;0.066359
-0.03531;0.402037;0.671258;-0.775288;0.069778;-0.047736;0.779884;0.025957;0.002827;0.007265;-0.026189;-9.180695;-0.108924;-38.184185;0.02805;7.34602e-04;0.013658;76.932587;31.932589;0.01821;0.01846;0.025957;0.016164;-0.001633;0.002827;-0.017797;0.623522;0.028785;-0.028785;0.077077
0.031855;0.402037;0.729902;-0.775084;0.069622;-0.048187;0.779695;-0.032815;-0.001235;0.014653;8.538633;-26.580627;-0.037621;0.117115;0.004517;-0.038566;0.021541;0.093291;135.093292;0.028722;0.027341;-0.032815;0.03288;-0.003574;-0.001235;-0.036454;0.681714;-0.03405;0.03405;0.072024
0.099021;0.402037;0.750497;-0.77537;0.069244;-0.058114;0.780622;-0.00963;-0.005513;0.011615;4.584844;-1.746915;-0.572438;0.21811;0.004224;-0.019367;0.011796;152.270477;107.270477;0.015728;0.014526;-0.00963;0.028237;-0.005008;-0.005513;-0.033245;0.692383;-0.015143;0.015143;0.045688
0.166186;0.402037;0.786854;-0.775436;0.069119;-0.049124;0.780059;-0.005555;-0.001055;0.013354;1.645687;-5.265537;-0.189914;0.607649;0.010237;-0.016847;0.013542;146.525558;101.525558;0.018056;0.015792;-0.005555;0.027134;-4.260356e-04;-0.001055;-0.02756;0.73773;-0.00661;0.00661;0.089078
0.233352;0.402037;0.865189;-0.775367;0.069245;-0.056555;0.780505;-0.017905;-9.522676e-04;0.004494;115.056885;-18.802069;-0.053186;0.008691;1.653286e-04;-0.019022;0.009594;21.712324;156.712326;0.012792;0.012737;-0.017905;0.007675;0.001313;-9.522676e-04;-0.006362;0.808635;-0.018857;0.018857;0.082343
0.300517;0.402037;0.8691;-0.775828;0.069286;-0.056705;0.780977;0.001842;3.633309e-04;-6.344524e-05;-0.195455;-5.070524;-0.197218;-5.116257;0.001845;3.606142e-04;7.421903e-04;73.047211;28.047213;9.895872e-04;0.001129;0.001842;0.001926;-0.002053;3.633309e-04;-0.003979;0.812396;0.002206;-0.002206;0.04219
0.367682;0.402037;0.896913;-0.775654;0.068806;-0.055495;0.780675;0.001639;0.001409;9.312363e-04;-0.237853;-1.163638;-0.859374;-4.204271;0.002462;5.856824e-04;9.383425e-04;121.212769;76.212769;0.001251;0.001485;0.001639;0.005003;-0.003141;0.001409;-0.008144;0.841418;0.003048;-0.003048;0.034091
0.434848;0.402037;0.891534;-0.775728;0.068754;-0.055255;0.780726;-4.759742e-04;0.001626;0.002527;0.652709;0.29268;3.416706;1.532075;0.003312;-0.002162;0.002737;141.221161;96.221161;0.003649;0.003184;-4.759742e-04;0.005742;-6.881829e-04;0.001626;-0.006431;0.836279;0.00115;-0.00115;0.067826
0.502013;0.402037;0.917169;-0.775989;0.068678;-0.052681;0.780801;-5.867242e-05;0.001865;-0.001178;0.25475;0.031464;31.782393;3.925424;0.002423;-6.173729e-04;0.00152;1.571061;136.57106;0.002027;0.001856;-5.867242e-05;-3.536165e-04;-0.002002;0.001865;-0.001648;0.864488;0.001806;-0.001806;0.013098
0.569178;0.402037;0.908348;-0.776015;0.068496;-0.053143;0.780843;0.001512;0.008377;0.001815;-0.120256;-0.180506;-5.539986;-8.315601;0.008827;0.001062;0.003883;123.336761;78.336761;0.005177;0.005565;0.001512;0.002209;0.001422;0.008377;-7.866457e-04;0.855205;0.009889;-0.009889;0.035396
0.636344;0.402037;0.899395;-0.776017;0.068636;-0.061083;0.781437;-0.009814;0.010945;0.002682;0.899724;0.896601;1.115324;1.111452;0.011286;-0.010155;0.010721;157.67157;112.671577;0.014294;0.012385;-0.009814;0.003656;0.001709;0.010945;-0.001947;0.838312;0.001132;-0.001132;0.037961
0.703509;0.402037;0.928163;-0.775871;0.068523;-0.066149;0.781695;-0.001583;0.008191;0.002925;0.265781;0.193321;5.172741;3.762501;0.008999;-0.002392;0.005696;145.175339;100.175339;0.007594;0.006936;-0.001583;0.007041;-0.001191;0.008191;-0.008233;0.862014;0.006607;-0.006607;0.031946
0.770674;0.402037;0.910603;-0.776042;0.068612;-0.066691;0.781919;-0.001328;0.007053;0.007257;0.490822;0.188322;5.310044;2.037398;0.011242;-0.005518;0.00838;137.091461;92.091454;0.011174;0.009863;-0.001328;0.013173;0.001342;0.007053;-0.011831;0.843913;0.005724;-0.005724;0.042224
0.83784;0.402037;0.889304;-0.775978;0.068887;-0.065874;0.78181;-0.016077;0.007459;-0.004242;2.050814;2.155238;0.463986;0.487611;0.008201;-0.016818;0.01251;42.34568;177.345688;0.016679;0.014728;-0.016077;-0.002221;-0.006264;0.007459;-0.004043;0.82343;-0.008617;0.008617;0.026359
0.905005;0.402037;0.878146;-0.776336;0.068294;-0.05352;0.78117;-0.01085;-4.896192e-04;-0.008863;3.467489;-22.160444;-0.045125;0.288393;0.004596;-0.015935;0.010266;89.525146;44.52515;0.013687;0.012442;-0.01085;-0.012052;-0.005673;-4.896192e-04;0.006378;0.824626;-0.01134;0.01134;0.034668
0.97217;0.402037;0.864133;-0.776518;0.068474;-0.050388;0.781158;-0.011754;0.00211;-9.303501e-04;5.438937;5.569669;0.179544;0.183859;0.002172;-0.011816;0.006994;62.387447;17.387447;0.009326;0.008693;-0.011754;-0.003401;0.00154;0.00211;0.004941;0.813744;-0.009644;0.009644;0.019686
1.039336;0.402037;0.842281;-0.776805;0.068735;-0.046755;0.78124;-0.016015;0.001136;-0.003014;10.012967;14.092047;0.070962;0.09987;0.001651;-0.016529;0.00909;60.67963;15.679629;0.01212;0.011609;-0.016015;-0.004595;-0.001434;0.001136;0.003161;0.795526;-0.014878;0.014878;0.091332
1.106501;0.402037;0.789819;-0.777011;0.068327;-0.047076;0.781429;0.005847;0.001436;0.001707;-0.13261;-4.071048;-0.245637;-7.540915;0.00643;8.52681e-04;0.002789;88.420486;43.420483;0.003718;0.004033;0.005847;0.005911;-0.002497;0.001436;-0.008407;0.742743;0.007283;-0.007283;0.070631
1.173667;0.402037;0.763025;-0.776843;0.068184;-0.051276;0.781513;0.012129;0.006349;0.017041;0.303321;-1.910304;-0.523477;3.296832;0.026523;-0.008045;0.017284;115.904335;70.904335;0.023046;0.020887;0.012129;0.03401;7.15276e-05;0.006349;-0.033939;0.71175;0.018478;-0.018478;0.025126
1.240832;0.402037;0.697593;-0.776705;0.068283;-0.050614;0.781342;0.014641;0.011519;0.027003;0.348095;-1.271009;-0.786777;2.872782;0.040128;-0.013968;0.027048;119.497391;74.497391;0.036064;0.032427;0.014641;0.051919;0.002087;0.011519;-0.049833;0.646979;0.026159;-0.026159;0.027534
1.307997;0.402037;0.639749;-0.777403;0.068455;-0.056708;0.782469;0.011222;0.010222;0.020245;0.307648;-1.09775;-0.910954;3.250464;0.030973;-0.009529;0.020251;120.161354;75.161354;0.027001;0.024452;0.011222;0.040188;3.012573e-04;0.010222;-0.039886;0.583041;0.021444;-0.021444;0.048691
1.375163;0.402037;0.560201;-0.777003;0.068113;-0.058784;0.782194;0.005062;0.004295;0.009059;0.319267;-1.17852;-0.848522;3.132178;0.013745;-0.004388;0.009067;121.501411;76.501411;0.012089;0.010924;0.005062;0.01929;-0.001172;0.004295;-0.020462;0.501418;0.009357;-0.009357;0.053024
1.442328;0.402037;0.459796;-0.777071;0.068085;-0.059513;0.782315;0.013833;0.003091;0.010469;0.163336;-4.475054;-0.223461;6.122355;0.020229;-0.003304;0.011766;102.777275;57.777279;0.015688;0.014711;0.013833;0.021583;-6.452715e-04;0.003091;-0.022228;0.400283;0.016924;-0.016924;0.027981
-0.303971;0.334872;0.386031;-0.775178;0.069673;-0.060407;0.780644;0.006821;-5.177245e-04;-0.011919;0.596552;13.174099;0.075907;1.676299;0.015622;-0.00932;0.012471;151.132416;106.132416;0.016628;0.014553;0.006821;-0.023555;-2.833591e-04;-5.177245e-04;0.023271;0.325624;0.006303;-0.006303;0.025767
-0.236806;0.334872;0.469415;-0.775553;0.069721;-0.059005;0.780913;0.006033;-0.001661;-0.012273;0.709436;3.633087;0.275248;1.409571;0.015048;-0.010675;0.012862;148.624588;103.624596;0.017149;0.014923;0.006033;-0.024868;3.226878e-04;-0.001661;0.025191;0.41041;0.004372;-0.004372;0.037706
-0.169641;0.334872;0.558357;-0.775426;0.069596;-0.055042;0.780486;0.016944;-0.002769;-0.010705;0.344912;6.120149;0.163395;2.899291;0.021639;-0.007464;0.014551;172.417358;127.417358;0.019402;0.017454;0.016944;-0.021961;5.512167e-04;-0.002769;0.022512;0.503315;0.014176;-0.014176;0.030348
-0.102475;0.334872;0.621255;-0.775459;0.069632;-0.050711;0.780229;0.027151;-5.726109e-04;-0.004421;0.045279;47.416519;0.02109;22.085218;0.027839;-0.001261;0.01455;29.687012;164.687012;0.0194;0.018994;0.027151;-0.007474;-0.001368;-5.726109e-04;0.006105;0.570544;0.026579;-0.026579;0.034017
-0.03531;0.334872;0.639442;-0.775471;0.069571;-0.050273;0.780206;-0.00442;0.005498;0.005035;0.858229;0.803878;1.243969;1.165191;0.007606;-0.006528;0.007067;155.323883;110.323883;0.009422;0.008168;-0.00442;0.012906;-0.002837;0.005498;-0.015743;0.589169;0.001078;-0.001078;0.042073
0.031855;0.334872;0.72733;-0.775453;0.069377;-0.054647;0.780466;-0.033899;0.005214;0.014894;3.801187;6.501009;0.153822;0.263076;0.01024;-0.038924;0.024582;2.180035;137.180038;0.032776;0.029952;-0.033899;0.031018;-0.00123;0.005214;-0.032249;0.672682;-0.028684;0.028684;0.030265
0.099021;0.334872;0.793932;-0.775689;0.069218;-0.059492;0.78104;-0.012101;-0.001587;0.009742;4.239275;-7.623424;-0.131175;0.235889;0.004226;-0.017914;0.01107;165.48468;120.48468;0.01476;0.013573;-0.012101;0.020437;-9.523688e-04;-0.001587;-0.021389;0.73444;-0.013689;0.013689;0.052263
0.166186;0.334872;0.811708;-0.775795;0.068985;-0.05858;0.781056;4.560208e-04;0.002817;0.010157;0.724057;-0.161867;-6.177917;1.381107;0.011862;-0.008589;0.010226;133.755493;88.755493;0.013634;0.011858;4.560208e-04;0.020353;-3.902684e-05;0.002817;-0.020392;0.753129;0.003273;-0.003273;0.046836
0.233352;0.334872;0.867644;-0.775701;0.069225;-0.059601;0.781061;-0.001432;0.005147;0.001712;0.332466;0.278174;3.594879;3.007822;0.005566;-0.00185;0.003708;112.902382;67.902382;0.004944;0.004457;-0.001432;0.001154;0.002269;0.005147;0.001115;0.808043;0.003715;-0.003715;0.070488
0.300517;0.334872;0.86306;-0.775851;0.069006;-0.05502;0.780854;0.003785;4.193232e-04;-0.001005;-0.034968;-9.026073;-0.11079;-28.597456;0.004062;1.420448e-04;0.00196;37.827492;172.827499;0.002613;0.002662;0.003785;-3.822532e-04;-0.001628;4.193232e-04;-0.001246;0.80804;0.004204;-0.004204;0.060831
0.367682;0.334872;0.899638;-0.775759;0.068828;-0.057006;0.78089;-0.004836;0.001042;-0.002159;3.167819;4.639822;0.215526;0.315675;0.00175;-0.005544;0.003647;69.981186;24.981188;0.004863;0.004397;-0.004836;-0.00262;-0.001698;0.001042;9.222896e-04;0.842632;-0.003794;0.003794;0.048185
0.434848;0.334872;0.900452;-0.775872;0.068685;-0.058217;0.781079;-0.00352;-0.001064;0.002936;6.150545;-3.307913;-0.302305;0.162587;8.90129e-04;-0.005475;0.003182;163.535919;118.535912;0.004243;0.00398;-0.00352;0.006287;-4.153324e-04;-0.001064;-0.006703;0.842235;-0.004585;0.004585;0.068382
0.502013;0.334872;0.921707;-0.775946;0.068745;-0.057959;0.781139;0.00649;-0.001848;-3.149922e-04;0.286115;3.51114;0.284808;3.4951;0.006502;-0.00186;0.004181;68.506592;23.506594;0.005575;0.00507;0.00649;0.002585;-0.003215;-0.001848;-0.005801;0.863748;0.004642;-0.004642;0.002786
0.569178;0.334872;0.917206;-0.77571;0.06825;-0.050221;0.780325;-4.987675e-04;0.003784;-0.002986;0.382152;0.131816;7.586348;2.616762;0.005317;-0.002032;0.003674;6.157395;141.157394;0.004899;0.004382;-4.987675e-04;-0.001164;-0.004808;0.003784;-0.003643;0.866985;0.003285;-0.003285;0.017719
0.636344;0.334872;0.921801;-0.776089;0.068239;-0.052117;0.780824;-0.009375;0.014158;0.00615;0.694728;0.662162;1.510204;1.439412;0.015669;-0.010885;0.013277;158.966446;113.966454;0.017703;0.015414;-0.009375;0.015417;-0.003116;0.014158;-0.018533;0.869684;0.004783;-0.004783;0.03823
0.703509;0.334872;0.943416;-0.776123;0.068205;-0.058931;0.78134;0.00291;0.006576;0.005677;0.114113;-0.442505;-2.259859;8.763231;0.010708;-0.001222;0.005965;123.779396;78.779396;0.007954;0.007579;0.00291;0.011262;9.107813e-05;0.006576;-0.011171;0.884485;0.009486;-0.009486;0.055913
0.770674;0.334872;0.91725;-0.776261;0.068451;-0.057788;0.781413;-0.001955;0.005715;0.009955;0.700336;0.342023;2.923782;1.427886;0.012548;-0.008788;0.010668;137.319077;92.319084;0.014224;0.012382;-0.001955;0.016331;0.003579;0.005715;-0.012752;0.859462;0.00376;-0.00376;0.047153
0.83784;0.334872;0.912779;-0.776188;0.068653;-0.058297;0.781396;-0.00129;0.01091;0.004227;0.213482;0.118232;8.457976;4.684235;0.012232;-0.002611;0.007421;136.89119;91.891182;0.009895;0.00915;-0.00129;0.008053;4.005255e-04;0.01091;-0.007653;0.854482;0.00962;-0.00962;0.035312
0.905005;0.334872;0.887548;-0.776303;0.068256;-0.061471;0.781718;-0.00742;0.00336;-0.003564;1.916165;2.208506;0.452795;0.521876;0.004432;-0.008492;0.006462;85.293961;40.293961;0.008615;0.007583;-0.00742;-0.00575;-0.001379;0.00336;0.004371;0.826077;-0.00406;0.00406;0.035979
0.97217;0.334872;0.862568;-0.776297;0.068264;-0.05916;0.781535;-0.01318;0.002567;-0.006076;3.287772;5.134371;0.194766;0.304157;0.004639;-0.015252;0.009945;90.801582;45.801582;0.01326;0.012016;-0.01318;-0.013365;0.001213;0.002567;0.014578;0.803407;-0.010613;0.010613;0.034719
1.039336;0.334872;0.853476;-0.77652;0.068361;-0.053846;0.781381;-0.017449;4.843556e-04;-0.01008;4.386875;36.025288;0.027758;0.227953;0.005009;-0.021974;0.013491;93.368439;48.368439;0.017988;0.016573;-0.017449;-0.019631;-5.295679e-04;4.843556e-04;0.019102;0.79963;-0.016965;0.016965;0.054851
1.106501;0.334872;0.806929;-0.777065;0.068244;-0.053303;0.781875;-0.007791;-8.788492e-04;-0.010054;2.376917;-8.865044;-0.112803;0.420713;0.006297;-0.014966;0.010632;109.697281;64.697281;0.014175;0.012612;-0.007791;-0.017091;-0.003017;-8.788492e-04;0.014073;0.753626;-0.00867;0.00867;0.058719
1.173667;0.334872;0.758718;-0.776937;0.067944;-0.048872;0.781432;0.003432;0.001469;-0.008863;0.568886;-2.335929;-0.428095;1.757823;0.011367;-0.006467;0.008917;146.427765;101.427765;0.011889;0.010425;0.003432;-0.017115;-6.106668e-04;0.001469;0.016504;0.709845;0.004901;-0.004901;0.036547
1.240832;0.334872;0.714554;-0.776495;0.068075;-0.04947;0.781042;0.018921;0.003807;-0.013324;0.148177;-4.969423;-0.201231;6.748685;0.026682;-0.003954;0.015318;168.478485;123.478485;0.020424;0.019242;0.018921;-0.028189;0.001541;0.003807;0.02973;0.665084;0.022728;-0.022728;0.028891
1.307997;0.334872;0.663067;-0.776804;0.06806;-0.052194;0.781524;0.010674;0.003126;-0.00632;0.03237;-3.415187;-0.29281;30.893126;0.014262;-4.616405e-04;0.007362;175.758453;130.758453;0.009815;0.009665;0.010674;-0.011974;-6.671968e-04;0.003126;0.011306;0.610873;0.0138;-0.0138;0.042731
1.375163;0.334872;0.574326;-0.777091;0.068038;-0.053079;0.781868;-0.001708;0.003911;0.013888;0.855769;0.436809;2.289328;1.168539;0.01527;-0.013068;0.014169;138.554092;93.554085;0.018892;0.016378;-0.001708;0.028438;-6.623222e-04;0.003911;-0.0291;0.521247;0.002202;-0.002202;0.041264
1.442328;0.334872;0.486089;-0.777148;0.068052;-0.053718;0.781969;-0.002201;0.005036;0.027522;0.902855;0.437164;2.287472;1.107598;0.029177;-0.026342;0.027759;137.301666;92.301659;0.037012;0.032068;-0.002201;0.055624;-5.79255e-04;0.005036;-0.056203;0.432371;0.002834;-0.002834;0.024452
-0.303971;0.267707;0.365684;-0.775193;0.069882;-0.055728;0.780329;0.018192;-6.734951e-04;-0.013024;0.294759;27.011721;0.037021;3.392601;0.024841;-0.007322;0.016081;172.046616;127.046616;0.021442;0.019466;0.018192;-0.024164;-0.001885;-6.734951e-04;0.022279;0.309956;0.017519;-0.017519;0.049567
-0.236806;0.267707;0.446658;-0.775358;0.069563;-0.053373;0.7803;0.005128;0.001255;-0.018919;0.712599;-4.086182;-0.244727;1.403313;0.02221;-0.015827;0.019018;143.038788;98.038788;0.025357;0.022063;0.005128;-0.036598;-0.00124;0.001255;0.035358;0.393285;0.006383;-0.006383;0.066063
-0.169641;0.267707;0.521157;-0.775505;0.069514;-0.0584;0.780801;0.007119;0.001015;-0.010939;0.472658;-7.01408;-0.14257;2.115695;0.015424;-0.00729;0.011357;153.96788;108.967873;0.015143;0.013391;0.007119;-0.020832;-0.001047;0.001015;0.019785;0.462757;0.008134;-0.008134;0.041212
-0.102475;0.267707;0.610471;-0.775369;0.069443;-0.053353;0.780298;0.01824;0.001904;0.003673;-0.058664;-9.579794;-0.104386;-17.046289;0.019028;0.001116;0.008956;69.622391;24.622389;0.011941;0.01233;0.01824;0.008377;-0.001031;0.001904;-0.009408;0.557118;0.020144;-0.020144;0.011538
-0.03531;0.267707;0.647303;-0.775441;0.069355;-0.050631;0.780181;-0.01487;9.001671e-04;0.006744;5.120379;16.519556;0.060534;0.195298;0.003391;-0.017361;0.010376;178.012131;133.012131;0.013834;0.012854;-0.01487;0.016162;-0.002675;9.001671e-04;-0.018837;0.596672;-0.01397;0.01397;0.056864
0.031855;0.267707;0.711765;-0.775569;0.068912;-0.057148;0.780719;-0.026022;0.002859;0.001601;8.857551;9.10071;0.109882;0.112898;0.002948;-0.02611;0.014529;34.489113;169.48912;0.019372;0.018468;-0.026022;0.004638;-0.001436;0.002859;-0.006075;0.654617;-0.023163;0.023163;0.056468
0.099021;0.267707;0.792372;-0.775821;0.068992;-0.05884;0.781102;-0.002388;0.006329;-0.008012;0.644705;0.37735;2.650057;1.551098;0.011091;-0.00715;0.009121;129.960724;84.960724;0.012161;0.010613;-0.002388;-0.013911;-0.002112;0.006329;0.011799;0.733532;0.003941;-0.003941;0.076287
0.166186;0.267707;0.801962;-0.775985;0.068659;-0.057789;0.781157;0.006024;0.004855;-0.007555;0.164283;-1.240656;-0.806025;6.087051;0.013017;-0.002139;0.007578;157.997223;112.997223;0.010104;0.009472;0.006024;-0.013688;-0.001423;0.004855;0.012265;0.744173;0.010879;-0.010879;0.03988
0.233352;0.267707;0.814881;-0.775854;0.068589;-0.054786;0.780805;-0.001174;-0.005064;-0.007339;2.394278;-0.231878;-4.312614;0.417662;0.004474;-0.010711;0.007593;132.0784;87.0784;0.010123;0.00901;-0.001174;-0.0156;9.214515e-04;-0.005064;0.016521;0.760095;-0.006238;0.006238;0.048729
0.300517;0.267707;0.839039;-0.775988;0.068555;-0.055094;0.780956;3.954532e-04;0.005987;0.001151;-0.026976;-0.066055;-15.138959;-37.069962;0.006215;1.67644e-04;0.003023;125.808716;80.808716;0.004031;0.004088;3.954532e-04;0.001375;9.281461e-04;0.005987;-4.464411e-04;0.783945;0.006382;-0.006382;0.041284
0.367682;0.267707;0.882735;-0.776114;0.068684;-0.051632;0.780856;-0.009561;0.004775;0.001795;1.957891;2.002299;0.499426;0.510754;0.004996;-0.009782;0.007389;25.908478;160.908478;0.009853;0.00868;-0.009561;0.002867;7.235504e-04;0.004775;-0.002143;0.831103;-0.004786;0.004786;0.051761
0.434848;0.267707;0.916988;-0.77609;0.068766;-0.057818;0.781273;-0.015308;6.401156e-04;0.005129;7.83194;23.914932;0.041815;0.127682;0.002147;-0.016815;0.009481;11.94219;146.942184;0.012641;0.01199;-0.015308;0.009959;2.985432e-04;6.401156e-04;-0.00966;0.859169;-0.014668;0.014668;0.083084
0.502013;0.267707;0.915252;-0.776123;0.06882;-0.059766;0.781458;-6.325768e-04;2.401495e-04;-0.004969;1.081896;2.634096;0.379637;0.924303;0.004792;-0.005184;0.004988;130.134277;85.134277;0.006651;0.005761;-6.325768e-04;-0.007349;-0.002589;2.401495e-04;0.00476;0.855486;-3.924273e-04;3.924273e-04;0.032859
0.569178;0.267707;0.92105;-0.776002;0.068218;-0.05026;0.780615;0.004127;0.001444;5.513672e-04;-0.315291;-2.857133;-0.350001;-3.171676;0.004236;0.001336;0.00145;85.812508;40.812511;0.001934;0.002501;0.004127;0.005239;-0.004136;0.001444;-0.009375;0.870789;0.005571;-0.005571;0.030071
0.636344;0.267707;0.943194;-0.776447;0.068043;-0.052366;0.78118;-0.002175;0.001774;0.001263;1.187086;1.226024;0.815645;0.842399;0.002144;-0.002545;0.002344;165.599548;120.599556;0.003126;0.00271;-0.002175;0.004284;-0.001758;0.001774;-0.006042;0.890828;-4.010585e-04;4.010585e-04;0.028277
0.703509;0.267707;0.916923;-0.776273;0.067958;-0.059747;0.78153;0.00438;0.00222;1.631046e-04;-0.502621;-1.973076;-0.506823;-1.98957;0.004392;0.002208;0.001092;47.493374;2.493376;0.001456;0.002536;0.00438;-4.457395e-05;3.707831e-04;0.00222;4.15357e-04;0.857175;0.0066;-0.0066;0.018508
0.770674;0.267707;0.901811;-0.77637;0.06811;-0.054889;0.781283;-0.001918;0.001295;0.003284;1.186189;1.480825;0.675299;0.843036;0.003344;-0.003967;0.003656;151.348343;106.348335;0.004874;0.004226;-0.001918;0.005962;6.052849e-04;0.001295;-0.005357;0.846921;-6.226687e-04;6.226687e-04;0.017476
0.83784;0.267707;0.910081;-0.776286;0.068051;-0.05661;0.781316;7.558286e-04;0.004872;9.958904e-04;-0.103436;-0.155146;-6.445529;-9.667838;0.0051;5.275243e-04;0.002286;145.186508;100.186508;0.003048;0.003239;7.558286e-04;0.00393;-0.001938;0.004872;-0.005868;0.853471;0.005628;-0.005628;0.04586
0.905005;0.267707;0.893797;-0.776221;0.0678;-0.057231;0.781275;-0.003176;0.016862;0.013339;0.418272;0.188384;5.308305;2.390787;0.023525;-0.00984;0.016682;139.859894;94.859894;0.022243;0.019796;-0.003176;0.026658;1.953188e-05;0.016862;-0.026638;0.836566;0.013685;-0.013685;0.034716
0.97217;0.267707;0.866569;-0.776283;0.067991;-0.057163;0.781348;-0.007779;0.01306;0.013443;0.73122;0.595638;1.678872;1.367577;0.019649;-0.014368;0.017008;149.089661;104.089661;0.022678;0.019718;-0.007779;0.029052;-0.002167;0.01306;-0.031219;0.809406;0.005281;-0.005281;0.065731
1.039336;0.267707;0.856966;-0.776554;0.067863;-0.052914;0.781307;-0.009582;0.004701;0.005596;1.735942;2.038361;0.49059;0.576056;0.006632;-0.011513;0.009073;171.938721;126.938721;0.012097;0.010602;-0.009582;0.011648;-4.554597e-04;0.004701;-0.012104;0.804052;-0.004881;0.004881;0.037781
1.106501;0.267707;0.830063;-0.777078;0.068166;-0.051807;0.78178;0.001555;0.001487;-0.006573;0.624177;-1.045723;-0.956276;1.60211;0.008094;-0.005052;0.006573;142.839691;97.839691;0.008764;0.007658;0.001555;-0.012102;-0.001045;0.001487;0.011057;0.778256;0.003042;-0.003042;0.046813
1.173667;0.267707;0.760844;-0.77704;0.067906;-0.052923;0.781795;0.020047;-0.002792;-0.025959;0.533489;7.1812;0.139252;1.874454;0.036987;-0.019732;0.02836;157.176163;112.176155;0.037813;0.033249;0.020047;-0.048902;-0.003016;-0.002792;0.045886;0.707921;0.017255;-0.017255;0.023199
1.240832;0.267707;0.693591;-0.777029;0.067929;-0.059268;0.782241;0.019026;0.00225;-0.030938;0.501663;-8.457376;-0.11824;1.993371;0.042692;-0.021417;0.032055;152.50621;107.506203;0.04274;0.037687;0.019026;-0.060416;-0.00146;0.00225;0.058956;0.634323;0.021275;-0.021275;0.065194
1.307997;0.267707;0.635591;-0.77697;0.068007;-0.059272;0.782189;-0.01551;0.003064;-0.023243;1.661791;5.062144;0.197545;0.60176;0.018807;-0.031253;0.02503;116.305786;71.305786;0.033373;0.029198;-0.01551;-0.045519;-9.678325e-04;0.003064;0.044551;0.576319;-0.012446;0.012446;0.073798
1.375163;0.267707;0.57202;-0.777252;0.067745;-0.05336;0.782022;-0.029487;0.005234;-0.008121;4.445492;5.634253;0.177486;0.224947;0.007039;-0.031293;0.019166;72.83976;27.839762;0.025555;0.023562;-0.029487;-0.015296;-9.468842e-04;0.005234;0.014349;0.51866;-0.024254;0.024254;0.055151
1.442328;0.267707;0.465893;-0.777237;0.067631;-0.049209;0.781724;-0.026722;0.00591;0.006874;3.851503;4.521716;0.221155;0.259639;0.007299;-0.028111;0.017705;15.643937;150.643936;0.023606;0.021589;-0.026722;0.014397;-6.489732e-04;0.00591;-0.015046;0.416684;-0.020812;0.020812;0.040998
-0.303971;0.200541;0.392515;-0.775483;0.069968;-0.057913;0.780784;0.025503;0.001653;-0.001501;-0.060902;-15.428652;-0.064814;-16.419853;0.025597;0.001559;0.012019;44.678104;179.678101;0.016025;0.01657;0.025503;5.324505e-05;-0.003055;0.001653;-0.003108;0.334602;0.027156;-0.027156;0.032645
-0.236806;0.200541;0.485656;-0.775387;0.069673;-0.050637;0.780156;0.012712;7.10443e-04;0.001662;-0.037457;-17.893255;-0.055887;-26.697283;0.012938;4.846172e-04;0.006227;69.961258;24.96126;0.008302;0.008468;0.012712;0.006265;-0.002941;7.10443e-04;-0.009206;0.435018;0.013423;-0.013423;0.056465
-0.169641;0.200541;0.548436;-0.775578;0.06949;-0.050257;0.780305;0.001179;0.002888;-0.004693;0.402195;-0.408317;-2.44908;2.486359;0.006804;-0.002737;0.00477;142.523453;97.523453;0.006361;0.005673;0.001179;-0.008983;-4.034017e-04;0.002888;0.00858;0.498179;0.004068;-0.004068;0.042998
-0.102475;0.200541;0.618257;-0.775433;0.06934;-0.05422;0.780413;0.002459;0.003954;-0.007531;0.404808;-0.621996;-1.607728;2.470306;0.010774;-0.004361;0.007568;144.495178;99.495171;0.01009;0.008996;0.002459;-0.014516;-5.458943e-04;0.003954;0.01397;0.564037;0.006413;-0.006413;0.019712
-0.03531;0.200541;0.67188;-0.775481;0.069096;-0.054013;0.780425;-0.015184;0.003484;-0.0019;4.182889;4.357805;0.229473;0.239069;0.003676;-0.015376;0.009526;44.901978;179.901978;0.012701;0.011671;-0.015184;-6.885357e-04;-0.003112;0.003484;-0.002424;0.617868;-0.0117;0.0117;0.043697
0.031855;0.200541;0.74739;-0.775482;0.068918;-0.056437;0.780581;-0.016916;0.002736;-0.002137;5.781855;6.183427;0.161723;0.172955;0.002965;-0.017145;0.010055;52.023582;7.023584;0.013407;0.012536;-0.016916;-0.002357;-0.001917;0.002736;4.397077e-04;0.690953;-0.01418;0.01418;0.023131
0.099021;0.200541;0.822686;-0.775587;0.068743;-0.056255;0.780657;0.010487;0.002161;-0.004032;-0.043631;-4.85276;-0.206068;-22.919546;0.012119;5.287661e-04;0.005795;17.037514;152.037521;0.007727;0.007909;0.010487;-0.005358;-0.002706;0.002161;0.002652;0.766431;0.012648;-0.012648;0.050179
0.166186;0.200541;0.821476;-0.775796;0.068472;-0.050159;0.780425;0.004117;0.002679;-0.004734;0.169936;-1.536832;-0.650689;5.88457;0.008186;-0.001391;0.004789;164.769318;119.769318;0.006385;0.005975;0.004117;-0.007495;-0.001974;0.002679;0.005522;0.771318;0.006795;-0.006795;0.055859
0.233352;0.200541;0.80506;-0.775665;0.068379;-0.048486;0.780182;-0.012247;4.833638e-04;0.002357;13.989274;25.336308;0.039469;0.071483;9.056157e-04;-0.012669;0.006787;22.980408;157.980408;0.00905;0.008763;-0.012247;0.004941;-2.280102e-04;4.833638e-04;-0.005169;0.756574;-0.011763;0.011763;0.045294
0.300517;0.200541;0.837794;-0.775772;0.068375;-0.062198;0.781259;-0.010328;0.002222;0.007502;2.415247;4.647253;0.215181;0.414036;0.005727;-0.013833;0.00978;168.423416;123.423409;0.01304;0.011612;-0.010328;0.015478;-4.753283e-04;0.002222;-0.015954;0.775596;-0.008106;0.008106;0.018584
0.367682;0.200541;0.844115;-0.776018;0.068449;-0.054158;0.780911;-0.007913;0.006479;0.017034;1.080682;1.221355;0.818763;0.925341;0.017775;-0.019209;0.018492;148.028305;103.028305;0.024656;0.021358;-0.007913;0.03004;0.004029;0.006479;-0.026011;0.789957;-0.001434;0.001434;0.046667
0.434848;0.200541;0.959193;-0.775832;0.068605;-0.062168;0.781336;-0.023847;0.003989;0.008233;4.181301;5.977968;0.167281;0.23916;0.006242;-0.0261;0.016171;13.768666;148.768661;0.021561;0.019811;-0.023847;0.014403;0.002064;0.003989;-0.012339;0.897024;-0.019858;0.019858;0.095008
0.502013;0.200541;0.929327;-0.775902;0.068394;-0.058751;0.781123;-0.011637;0.004765;-0.006988;1.936436;2.442217;0.409464;0.516413;0.007338;-0.01421;0.010774;86.875107;41.875103;0.014366;0.01265;-0.011637;-0.010228;-0.003748;0.004765;0.006479;0.870576;-0.006872;0.006872;0.060846
0.569178;0.200541;0.911402;-0.776301;0.068083;-0.053514;0.781116;6.27994e-04;-5.280123e-04;-0.001816;0.948881;1.189355;0.840792;1.053873;0.001956;-0.001856;0.001906;52.897381;7.897382;0.002541;0.002201;6.27994e-04;-2.764335e-04;-0.003356;-5.280123e-04;-0.003079;0.857887;9.998163e-05;-9.998163e-05;0.040406
0.636344;0.200541;0.941492;-0.776547;0.067946;-0.056128;0.781532;0.001548;-0.003204;0.00427;1.408291;0.482979;2.070484;0.710081;0.004058;-0.005715;0.004886;124.546982;79.546982;0.006515;0.005669;0.001548;0.010025;-0.001486;-0.003204;-0.011511;0.885364;-0.001657;0.001657;0.03366
0.703509;0.200541;0.913736;-0.776309;0.068043;-0.058809;0.781501;-6.074732e-04;-6.230314e-06;-4.375904e-04;3.739115;0;0;0.267443;2.240518e-04;-8.377553e-04;5.309035e-04;68.284554;23.284555;7.078714e-04;6.462657e-04;-6.074732e-04;-3.893076e-04;-4.858731e-04;-6.230314e-06;-9.65655e-05;0.854928;-6.137035e-04;6.137035e-04;0.006469
0.770674;0.200541;0.895795;-0.776453;0.067869;-0.054497;0.781316;-6.961219e-04;0.001041;-0.002081;0.857947;0.668707;1.495424;1.165573;0.002428;-0.002083;0.002255;128.382965;83.382973;0.003007;0.002607;-6.961219e-04;-0.003121;-0.001042;0.001041;0.00208;0.841298;3.448753e-04;-3.448753e-04;0.036901
0.83784;0.200541;0.90643;-0.776284;0.067827;-0.054899;0.781173;0.001019;0.00293;-0.003619;0.30922;-0.347748;-2.875646;3.233939;0.005717;-0.001768;0.003743;179.121887;134.121887;0.00499;0.004518;0.001019;-0.003161;-0.004076;0.00293;-9.145762e-04;0.851531;0.00395;-0.00395;0.07705
0.905005;0.200541;0.905349;-0.776263;0.0676;-0.04429;0.780458;-0.012921;0.005321;0.005308;2.125369;2.428208;0.411826;0.470507;0.006753;-0.014353;0.010553;176.591858;131.591858;0.014071;0.012447;-0.012921;0.014098;-0.003482;0.005321;-0.01758;0.861059;-0.0076;0.0076;0.039392
0.97217;0.200541;0.877618;-0.776508;0.067646;-0.046388;0.780828;0.009538;0.002284;0.011687;0.348575;-4.175118;-0.239514;2.868822;0.018148;-0.006326;0.012237;112.791382;67.791382;0.016316;0.014669;0.009538;0.023199;1.746028e-04;0.002284;-0.023025;0.83123;0.011822;-0.011822;0.075537
1.039336;0.200541;0.836163;-0.776785;0.067564;-0.050598;0.781357;0.018023;0.005028;-0.003975;-0.204165;-3.584853;-0.278951;-4.898;0.019143;0.003908;0.007617;16.708118;151.708115;0.010156;0.011679;0.018023;-0.009381;0.001431;0.005028;0.010812;0.785565;0.023051;-0.023051;0.047579
1.106501;0.200541;0.824655;-0.776743;0.06789;-0.055271;0.781661;0.020082;0.01344;-0.015618;-0.02426;-1.49423;-0.669241;-41.219551;0.032727;7.939797e-04;0.015967;163.936249;118.936249;0.021289;0.021559;0.020082;-0.031878;6.433795e-04;0.01344;0.032522;0.769383;0.033521;-0.033521;0.042513
1.173667;0.200541;0.789595;-0.776642;0.067864;-0.06019;0.781922;0.023391;0.004984;-0.021931;0.252731;-4.693618;-0.213055;3.956783;0.037971;-0.009596;0.023784;164.69751;119.69751;0.031712;0.029046;0.023391;-0.041014;-0.002847;0.004984;0.038167;0.729405;0.028375;-0.028375;0.010244
1.240832;0.200541;0.713109;-0.776979;0.06753;-0.063562;0.782494;0.002836;0.002315;-0.008655;0.541542;-1.225081;-0.816273;1.846577;0.011234;-0.006084;0.008659;145.14946;100.14946;0.011546;0.010145;0.002836;-0.016319;-9.919729e-04;0.002315;0.015327;0.649547;0.005151;-0.005151;0.023354
1.307997;0.200541;0.67275;-0.776934;0.067509;-0.06194;0.782317;-0.027083;0.004473;2.408333e-05;6.055103;6.055124;0.165149;0.16515;0.004473;-0.027083;0.015778;42.081684;177.08168;0.021038;0.019716;-0.027083;0.001162;-0.001114;0.004473;-0.002276;0.61081;-0.022611;0.022611;0.048758
1.375163;0.200541;0.594649;-0.777369;0.06728;-0.056076;0.782287;-0.030798;0.002078;-0.010032;6.864045;14.819923;0.067477;0.145687;0.004898;-0.033617;0.019257;75.18203;30.182034;0.025677;0.02421;-0.030798;-0.017982;-0.002083;0.002078;0.015899;0.538574;-0.02872;0.02872;0.08987
1.442328;0.200541;0.455661;-0.77721;0.067193;-0.049041;0.781649;-0.031763;0.002841;-0.022852;3.036416;11.179385;0.08945;0.329336;0.014203;-0.043125;0.028664;99.279068;54.279064;0.038218;0.034473;-0.031763;-0.044043;-0.001662;0.002841;0.042381;0.40662;-0.028922;0.028922;0.07374
-0.303971;0.133376;0.38663;-0.775346;0.069595;-0.053542;0.780302;-0.019182;0.006508;0.001917;2.90575;2.947399;0.339282;0.344145;0.00665;-0.019324;0.012987;25.408316;160.40831;0.017317;0.01558;-0.019182;0.005679;-0.001845;0.006508;-0.007524;0.333088;-0.012674;0.012674;0.056367
-0.236806;0.133376;0.48463;-0.775255;0.069327;-0.056846;0.780421;-0.006271;0.00482;0.024258;1.060044;1.300915;0.768689;0.943357;0.024158;-0.025609;0.024884;142.236191;97.236183;0.033178;0.028737;-0.006271;0.050307;-0.001792;0.00482;-0.052099;0.427783;-0.001451;0.001451;0.062438
-0.169641;0.133376;0.548541;-0.775355;0.069161;-0.056475;0.780479;0.025221;0.001575;0.019188;0.254335;-16.009054;-0.062465;3.931816;0.035936;-0.00914;0.022538;102.631706;57.631706;0.030051;0.027515;0.025221;0.039743;-0.001367;0.001575;-0.04111;0.492065;0.026796;-0.026796;0.058793
-0.102475;0.133376;0.618207;-0.775297;0.069159;-0.048743;0.7799;0.009489;0.004311;-7.481369e-04;-0.438212;-2.20136;-0.454265;-2.282;0.009595;0.004205;0.002695;42.887558;177.887558;0.003594;0.005554;0.009489;7.047557e-04;-0.002201;0.004311;-0.002906;0.569464;0.0138;-0.0138;0.037407
-0.03531;0.133376;0.677249;-0.775603;0.068805;-0.052295;0.780403;-0.020822;0.004505;-0.002913;4.373713;4.621432;0.216383;0.228639;0.004836;-0.021153;0.012994;53.318233;8.318234;0.017326;0.01596;-0.020822;-0.003438;-0.002389;0.004505;0.001049;0.624954;-0.016316;0.016316;0.06026
0.031855;0.133376;0.736889;-0.775756;0.068684;-0.055443;0.780761;-0.014856;0.00301;-0.002121;4.635263;4.935277;0.202623;0.215737;0.003259;-0.015104;0.009181;55.153503;10.153503;0.012242;0.011313;-0.014856;-0.002843;-0.0014;0.00301;0.001444;0.681446;-0.011846;0.011846;0.044738
0.099021;0.133376;0.784568;-0.775696;0.068646;-0.058717;0.780938;0.007897;4.745836e-04;-0.001508;-0.021982;-16.639849;-0.060097;-45.491936;0.008192;1.800653e-04;0.004006;39.771343;174.771347;0.005341;0.005402;0.007897;-6.444897e-04;-0.002371;4.745836e-04;-0.001726;0.725851;0.008372;-0.008372;0.041926
0.166186;0.133376;0.810547;-0.775604;0.068466;-0.054912;0.780554;0.014095;9.274027e-04;5.506246e-04;-0.064062;-15.19827;-0.065797;-15.609941;0.014118;9.044174e-04;0.006607;60.931515;15.931515;0.008809;0.009125;0.014095;0.004391;-0.00329;9.274027e-04;-0.007681;0.755635;0.015022;-0.015022;0.063537
0.233352;0.133376;0.832339;-0.775498;0.068303;-0.053035;0.780305;-0.021488;0.003374;0.002756;5.928734;6.369605;0.156996;0.16867;0.003675;-0.02179;0.012733;31.858894;166.858902;0.016977;0.015894;-0.021488;0.004978;5.337174e-04;0.003374;-0.004444;0.779304;-0.018115;0.018115;0.035214
0.300517;0.133376;0.852052;-0.77554;0.068397;-0.06803;0.781517;-0.012325;0.007498;0.001637;1.632377;1.643706;0.608381;0.612604;0.007633;-0.012459;0.010046;12.319931;147.319931;0.013395;0.011711;-0.012325;0.005213;-0.001938;0.007498;-0.007151;0.784022;-0.004827;0.004827;0.003037
0.367682;0.133376;0.853046;-0.776198;0.068116;-0.056038;0.781193;-0.001864;0.004925;-0.004157;0.556187;0.378435;2.64246;1.797955;0.006898;-0.003836;0.005367;136.246445;91.246437;0.007156;0.006281;-0.001864;-0.005874;-0.002441;0.004925;0.003433;0.797008;0.003061;-0.003061;0.022639
0.434848;0.133376;0.944346;-0.776129;0.068014;-0.062991;0.781646;-0.011292;-0.001205;-0.008659;4.312702;-9.371163;-0.10671;0.231873;0.003772;-0.016269;0.010021;98.603844;53.60384;0.013361;0.012298;-0.011292;-0.015461;-0.001858;-0.001205;0.013603;0.881355;-0.012497;0.012497;0.09061
0.502013;0.133376;0.930322;-0.776144;0.06804;-0.056953;0.7812;0.002286;-9.184938e-04;0.004172;0.734541;2.489197;0.401736;1.361395;0.005153;-0.003785;0.004469;121.44075;76.44075;0.005958;0.00518;0.002286;0.010565;-0.002222;-9.184938e-04;-0.012788;0.873369;0.001368;-0.001368;0.063691
0.569178;0.133376;0.949017;-0.776185;0.067939;-0.05316;0.780964;-0.002611;0.004974;-0.003221;0.616271;0.525004;1.904749;1.622662;0.006157;-0.003795;0.004976;143.164642;98.164635;0.006635;0.005799;-0.002611;-0.003747;-0.002695;0.004974;0.001052;0.895857;0.002363;-0.002363;0.053971
0.636344;0.133376;0.973284;-0.77642;0.067872;-0.057046;0.781466;0.00339;0.00329;0.002522;-0.139404;-1.030459;-0.970442;-7.173408;0.005863;8.173626e-04;0.002523;104.502113;59.502113;0.003364;0.003667;0.00339;0.004462;5.828519e-04;0.00329;-0.003879;0.916238;0.006681;-0.006681;0.024938
0.703509;0.133376;0.93276;-0.776377;0.068096;-0.057917;0.781507;-0.003338;0.002955;0.002544;1.099326;1.129558;0.885302;0.909648;0.003855;-0.004238;0.004046;163.299423;118.299416;0.005395;0.004674;-0.003338;0.004514;5.732069e-04;0.002955;-0.003941;0.874843;-3.828752e-04;3.828752e-04;0.045914
0.770674;0.133376;0.91031;-0.776176;0.067897;-0.055474;0.781113;0.001359;0.003362;-0.002728;0.10366;-0.404159;-2.474271;9.646937;0.005267;-5.45961e-04;0.002906;156.91066;111.91066;0.003875;0.003707;0.001359;-0.003881;-0.001576;0.003362;0.002305;0.854836;0.004721;-0.004721;0.058202
0.83784;0.133376;0.926599;-0.776191;0.067951;-0.054843;0.781087;-0.004149;-0.002536;-0.002935;-21.404282;-1.63627;-0.611146;-0.04672;-2.983523e-04;-0.006386;0.003044;69.051331;24.051327;0.004058;0.004161;-0.004149;-0.001266;-0.004604;-0.002536;-0.003337;0.871756;-0.006684;0.006684;0.029118
0.905005;0.133376;0.89741;-0.776594;0.067555;-0.050289;0.781147;-0.013987;0.001256;-0.016531;2.075428;11.134339;0.089812;0.481828;0.011838;-0.024569;0.018203;107.577065;62.577061;0.024271;0.021444;-0.013987;-0.027515;-0.005547;0.001256;0.021967;0.847122;-0.012731;0.012731;0.013709
0.97217;0.133376;0.87022;-0.776747;0.067504;-0.047228;0.781104;0.00639;-3.350402e-04;-0.024043;0.778238;19.072683;0.052431;1.284954;0.027304;-0.021249;0.024277;142.915146;97.915146;0.032369;0.028105;0.00639;-0.045949;-0.002137;-3.350402e-04;0.043812;0.822991;0.006055;-0.006055;0.079759
1.039336;0.133376;0.822494;-0.777076;0.067387;-0.055346;0.781954;0.032965;0.002748;-0.01707;0.121489;-11.993991;-0.083375;8.231219;0.040652;-0.004939;0.022795;178.96666;133.96666;0.030394;0.028889;0.032965;-0.034061;-7.781264e-05;0.002748;0.033983;0.767148;0.035713;-0.035713;0.062053
1.106501;0.133376;0.795377;-0.776898;0.067607;-0.061948;0.78229;0.016011;0.00786;-0.007773;-0.15253;-2.036981;-0.490923;-6.556078;0.020712;0.003159;0.008776;179.961777;134.961777;0.011702;0.012885;0.016011;-0.014051;-0.001494;0.00786;0.012557;0.733429;0.023871;-0.023871;0.027824
1.173667;0.133376;0.768981;-0.776885;0.067359;-0.061892;0.782252;0.009319;0.002018;0.002755;-0.106933;-4.617115;-0.216585;-9.351665;0.010242;0.001095;0.004573;83.374756;38.374756;0.006098;0.006494;0.009319;0.007462;-0.001952;0.002018;-0.009414;0.707089;0.011337;-0.011337;0.023279
1.240832;0.133376;0.719019;-0.777033;0.067128;-0.063661;0.782521;-0.009419;4.556001e-04;0.007655;2.93693;20.672752;0.048373;0.340492;0.004627;-0.01359;0.009109;172.362228;127.362236;0.012145;0.010934;-0.009419;0.012649;0.002661;4.556001e-04;-0.009988;0.655358;-0.008963;0.008963;0.012282
1.307997;0.133376;0.676502;-0.777037;0.067541;-0.055034;0.781906;-0.017318;0.001109;0.003176;10.876851;15.615577;0.064039;0.091938;0.001641;-0.01785;0.009746;25.742617;160.742615;0.012994;0.012483;-0.017318;0.006045;3.07106e-04;0.001109;-0.005738;0.621469;-0.016209;0.016209;0.014031
1.375163;0.133376;0.596546;-0.777483;0.067401;-0.058276;0.782572;-0.010648;0.001578;-0.010254;2.225288;6.749838;0.148152;0.44938;0.007403;-0.016473;0.011938;105.050415;60.050411;0.015917;0.014112;-0.010648;-0.018403;-0.002106;0.001578;0.016297;0.53827;-0.00907;0.00907;0.064456
1.442328;0.133376;0.476395;-0.777237;0.067066;-0.057304;0.782227;-0.0208;0.001935;-0.019076;2.476877;10.751299;0.093012;0.403734;0.012774;-0.031639;0.022206;105.201012;60.201012;0.029608;0.026401;-0.0208;-0.036228;-0.001924;0.001935;0.034304;0.419091;-0.018865;0.018865;0.056155
-0.303971;0.06621;0.37609;-0.775602;0.069057;-0.053381;0.780498;-0.041312;0.005404;-0.001309;7.599684;7.644449;0.130814;0.131584;0.005441;-0.041348;0.023395;46.226452;1.226454;0.031193;0.029547;-0.041312;-0.001073;-0.001546;0.005404;-4.731252e-04;0.322709;-0.035908;0.035908;0.024505
-0.236806;0.06621;0.489398;-0.775619;0.069065;-0.064103;0.781322;-0.01629;0.003523;-0.011645;2.433599;4.623567;0.216283;0.410914;0.008905;-0.021672;0.015289;99.534904;54.534904;0.020385;0.018159;-0.01629;-0.022464;-8.260828e-04;0.003523;0.021637;0.425295;-0.012767;0.012767;0.021244
-0.169641;0.06621;0.571005;-0.775399;0.069031;-0.059663;0.780749;0.026233;0.004143;-0.00561;-0.101547;-6.331292;-0.157946;-9.847676;0.027576;0.0028;0.012388;24.036417;159.036423;0.016517;0.017525;0.026233;-0.009679;-0.001541;0.004143;0.008139;0.511343;0.030376;-0.030376;0.010512
-0.102475;0.06621;0.627221;-0.775388;0.068667;-0.050631;0.780067;0.008696;0.004857;0.011312;0.257377;-1.790384;-0.558539;3.885355;0.01825;-0.004697;0.011473;117.734924;72.734924;0.015298;0.013997;0.008696;0.02591;-0.003287;0.004857;-0.029197;0.57659;0.013553;-0.013553;0.013043
-0.03531;0.06621;0.676676;-0.775635;0.068483;-0.054159;0.780533;-0.014785;0.007035;0.010219;1.699928;2.101725;0.4758;0.58826;0.011073;-0.018823;0.014948;167.410904;122.410904;0.019931;0.017453;-0.014785;0.022182;-0.001744;0.007035;-0.023926;0.622517;-0.00775;0.00775;0.081961
0.031855;0.06621;0.723982;-0.775677;0.068421;-0.055834;0.780688;6.052453e-04;0.001965;-0.001956;0.234255;-0.308054;-3.246186;4.268846;0.003356;-7.862052e-04;0.002071;139.816422;94.816414;0.002762;0.00254;6.052453e-04;-0.004295;3.817073e-04;0.001965;0.004676;0.668148;0.00257;-0.00257;0.071085
0.099021;0.06621;0.775426;-0.775491;0.068569;-0.054156;0.780398;0.007557;-4.489275e-04;-0.009282;0.479766;16.832644;0.059408;2.084349;0.013663;-0.006555;0.010109;157.742554;112.742554;0.013478;0.011911;0.007557;-0.018009;-5.558003e-04;-4.489275e-04;0.017453;0.72127;0.007108;-0.007108;0.044833
0.166186;0.06621;0.806025;-0.775533;0.068378;-0.052422;0.780305;0.013656;0.002652;-0.003491;-0.111632;-5.150154;-0.194169;-8.958015;0.01467;0.001638;0.006516;23.869818;158.869812;0.008688;0.009282;0.013656;-0.004909;-0.002072;0.002652;0.002837;0.753603;0.016307;-0.016307;0.047979
0.233352;0.06621;0.831819;-0.775747;0.068273;-0.046194;0.780114;-0.01718;0.003766;-0.002662;4.272627;4.562136;0.219196;0.234048;0.004099;-0.017513;0.010806;57.880291;12.88029;0.014408;0.013254;-0.01718;-0.004027;-0.001298;0.003766;0.002728;0.785625;-0.013414;0.013414;0.060787
0.300517;0.06621;0.875393;-0.775728;0.068258;-0.056158;0.780748;-0.019129;0.008243;-2.974182e-04;2.320092;2.320609;0.430921;0.431017;0.008246;-0.019133;0.01369;41.971577;176.971573;0.018253;0.016218;-0.019129;4.000213e-04;-9.948579e-04;0.008243;-0.001395;0.819234;-0.010886;0.010886;0.033922
0.367682;0.06621;0.879516;-0.776306;0.068013;-0.055042;0.781221;-0.004246;0.003836;-0.001101;1.102943;1.106898;0.903426;0.906665;0.003983;-0.004394;0.004188;54.345764;9.345762;0.005585;0.004838;-0.004246;-0.001114;-0.001089;0.003836;2.470442e-05;0.824474;-4.100675e-04;4.100675e-04;0.012308
0.434848;0.06621;0.894629;-0.776404;0.067818;-0.05751;0.781479;0.003851;-4.7727e-05;-0.00161;0.141487;80.683609;0.012394;7.06778;0.00443;-6.267629e-04;0.002528;11.509041;146.509033;0.003371;0.003183;0.003851;-0.002597;-6.235184e-04;-4.7727e-05;0.001973;0.837119;0.003803;-0.003803;0.071902
0.502013;0.06621;0.912389;-0.776488;0.067949;-0.052726;0.781237;0.015108;-0.00352;0.001433;0.238496;4.292418;0.232969;4.192937;0.015217;-0.003629;0.009423;69.965965;24.965967;0.012564;0.011546;0.015108;0.006503;-0.003636;-0.00352;-0.010138;0.859663;0.011588;-0.011588;0.059272
0.569178;0.06621;0.938504;-0.776197;0.067664;-0.05135;0.780831;-0.001963;-0.003255;-0.004615;3.545168;-0.603155;-1.657949;0.282074;0.00205;-0.007269;0.00466;100.754829;55.754829;0.006213;0.005655;-0.001963;-0.005243;-0.003986;-0.003255;0.001257;0.887154;-0.005219;0.005219;0.080673
0.636344;0.06621;0.946959;-0.776443;0.067591;-0.055935;0.781384;0.004862;-0.006115;-0.002276;1.235622;0.795176;1.257583;0.809309;0.005315;-0.006568;0.005941;164.3703;119.3703;0.007922;0.006873;0.004862;-0.006351;0.001799;-0.006115;0.00815;0.891024;-0.001252;0.001252;0.04718
0.703509;0.06621;0.914706;-0.776625;0.067776;-0.055823;0.781573;-0.001317;-6.483197e-04;0.0045;1.556971;-2.031888;-0.492153;0.642273;0.003529;-0.005495;0.004512;144.609756;99.609756;0.006016;0.005251;-0.001317;0.008176;8.234037e-04;-6.483197e-04;-0.007352;0.858882;-0.001966;0.001966;0.061059
0.770674;0.06621;0.916859;-0.775998;0.067605;-0.052997;0.780738;0.001686;-4.652262e-04;2.549873e-04;0.2886;3.622985;0.276015;3.464998;0.001715;-4.950436e-04;0.001105;93.69088;48.690884;0.001474;0.001339;0.001686;0.006102;-0.005592;-4.652262e-04;-0.011693;0.863862;0.00122;-0.00122;0.043293
0.83784;0.06621;0.935113;-0.776399;0.067438;-0.055777;0.781316;5.255121e-04;0.002426;-0.006859;0.648602;-0.216577;-4.617293;1.541778;0.008401;-0.005449;0.006925;16.386978;151.386978;0.009233;0.008056;5.255121e-04;-0.005591;-0.008127;0.002426;-0.002536;0.879336;0.002952;-0.002952;0.033271
0.905005;0.06621;0.903312;-0.777168;0.066944;-0.065517;0.782792;-3.936792e-04;0.011174;-0.005907;0.210673;0.035232;28.383226;4.746703;0.013657;-0.002877;0.008267;146.919388;101.919395;0.011023;0.0102;-3.936792e-04;-0.00806;-0.003755;0.011174;0.004305;0.837794;0.01078;-0.01078;0.043491
0.97217;0.06621;0.897099;-0.776895;0.067215;-0.06022;0.782119;-0.012244;0.003431;-0.00889;2.183654;3.568219;0.280252;0.457948;0.007445;-0.016258;0.011851;102.797066;57.79707;0.015802;0.013996;-0.012244;-0.019268;0.001488;0.003431;0.020756;0.83688;-0.008812;0.008812;0.093983
1.039336;0.06621;0.845359;-0.776695;0.067407;-0.058498;0.781806;0.006216;0.004734;0.003606;-0.195971;-1.312845;-0.761705;-5.102807;0.009156;0.001794;0.003681;104.027954;59.027954;0.004908;0.005602;0.006216;0.008145;-9.340252e-04;0.004734;-0.009079;0.786861;0.01095;-0.01095;0.049092
1.106501;0.06621;0.794905;-0.776945;0.067336;-0.060391;0.782192;1.014825e-04;0.015684;0.016423;0.394491;-0.00647;-154.552155;2.534915;0.02607;-0.010284;0.018177;135.752396;90.752403;0.024237;0.021639;1.014825e-04;0.034254;-0.001409;0.015684;-0.035663;0.734514;0.015786;-0.015786;0.035571
1.173667;0.06621;0.737265;-0.776932;0.06683;-0.055645;0.781784;0.010107;0.008485;0.018354;0.328035;-1.191173;-0.839508;3.048456;0.027668;-0.009076;0.018372;121.057022;76.057022;0.024496;0.022101;0.010107;0.03797;-0.001262;0.008485;-0.039233;0.68162;0.018592;-0.018592;0.028021
1.240832;0.06621;0.688713;-0.776845;0.067192;-0.060669;0.782102;0.010591;0.003191;0.00359;-0.14406;-3.318905;-0.301304;-6.94154;0.012046;0.001735;0.005155;71.680733;26.680733;0.006874;0.007519;0.010591;0.004709;0.002471;0.003191;-0.002238;0.628044;0.013782;-0.013782;0.002274
1.307997;0.06621;0.646658;-0.777069;0.067317;-0.059206;0.782223;-0.005966;0.009198;-0.013765;0.813514;0.64864;1.541688;1.229235;0.017331;-0.014099;0.015715;123.801125;78.801125;0.020953;0.018178;-0.005966;-0.028057;5.271306e-04;0.009198;0.028584;0.587452;0.003232;-0.003232;0.00762
1.375163;0.06621;0.598136;-0.777431;0.067177;-0.060114;0.78264;-0.013227;0.006363;-0.015176;1.469204;2.07886;0.481033;0.68064;0.01463;-0.021495;0.018062;111.159256;66.159256;0.024083;0.020982;-0.013227;-0.028128;-0.002224;0.006363;0.025904;0.538021;-0.006864;0.006864;0.04714
1.442328;0.06621;0.474526;-0.777532;0.06675;-0.055637;0.782372;-0.024634;0.004154;-0.005314;5.012769;5.929896;0.168637;0.199491;0.005104;-0.025584;0.015344;62.872078;17.872078;0.020458;0.018987;-0.024634;-0.00815;-0.002477;0.004154;0.005673;0.418889;-0.02048;0.02048;0.050154
-0.303971;-9.548888e-04;0.366079;-0.775643;0.0688;-0.054613;0.780601;0.002641;0.003292;-4.983852e-04;-0.66565;-0.802038;-1.246824;-1.502291;0.003562;0.002371;5.954727e-04;159.982346;114.982346;7.939636e-04;0.002094;0.002641;-8.550337e-04;-1.417367e-04;0.003292;7.132969e-04;0.311466;0.005933;-0.005933;0.044691
-0.236806;-9.548888e-04;0.459714;-0.77582;0.06868;-0.050717;0.780503;-0.00198;0.001845;-0.017325;1.00775;1.072919;0.932037;0.99231;0.017363;-0.017498;0.01743;131.738541;86.738541;0.023241;0.020127;-0.00198;-0.0346;-5.002604e-05;0.001845;0.03455;0.408997;-1.345626e-04;1.345626e-04;0.084971
-0.169641;-9.548888e-04;0.559791;-0.775713;0.068785;-0.051771;0.780475;-0.004269;0.001312;-0.006487;1.529589;3.254517;0.307265;0.653771;0.005583;-0.00854;0.007062;113.189407;68.189407;0.009416;0.008214;-0.004269;-0.010474;-0.002501;0.001312;0.007972;0.50802;-0.002957;0.002957;0.036377
-0.102475;-9.548888e-04;0.625147;-0.776024;0.068303;-0.056665;0.781082;-0.008771;0.003222;0.006733;1.888851;2.721841;0.367398;0.529422;0.006242;-0.01179;0.009016;162.901184;117.901184;0.012022;0.010574;-0.008771;0.017766;-0.004299;0.003222;-0.022065;0.568483;-0.005548;0.005548;0.05482
-0.03531;-9.548888e-04;0.671053;-0.775843;0.068101;-0.058448;0.781016;-0.006023;0.00205;0.010568;1.42599;2.937743;0.340397;0.701267;0.009327;-0.0133;0.011313;150.311844;105.311836;0.015084;0.01313;-0.006023;0.022168;-0.001031;0.00205;-0.023199;0.612605;-0.003973;0.003973;0.089543
0.031855;-9.548888e-04;0.702795;-0.77576;0.068327;-0.053962;0.780631;0.011031;0.004367;0.016551;0.373621;-2.526181;-0.395855;2.676509;0.024583;-0.009185;0.016884;115.180946;70.180946;0.022511;0.02016;0.011031;0.030877;0.002226;0.004367;-0.028651;0.648833;0.015398;-0.015398;0.040083
0.099021;-9.548888e-04;0.768518;-0.776023;0.068386;-0.051078;0.780703;0.009719;0.008099;0.013636;0.210547;-1.200037;-0.833307;4.749533;0.022569;-0.004752;0.01366;118.407623;73.407623;0.018214;0.016855;0.009719;0.029201;-0.001928;0.008099;-0.031129;0.71744;0.017817;-0.017817;0.032857
0.166186;-9.548888e-04;0.804854;-0.775723;0.067907;-0.0537;0.780539;0.002675;0.012615;0.011437;0.239889;-0.212008;-4.716795;4.168591;0.020115;-0.004825;0.01247;133.173645;88.173637;0.016627;0.015275;0.002675;0.02635;-0.003476;0.012615;-0.029826;0.751154;0.01529;-0.01529;0.042452
0.233352;-9.548888e-04;0.834218;-0.776052;0.067994;-0.052804;0.780813;-0.0118;0.010371;0.016907;1.073274;1.137795;0.878893;0.931729;0.019503;-0.020932;0.020217;152.75946;107.759468;0.026956;0.02335;-0.0118;0.034949;-0.001135;0.010371;-0.036084;0.781413;-0.001429;0.001429;0.073692
0.300517;-9.548888e-04;0.874177;-0.776002;0.067926;-0.057021;0.781053;-0.01919;0.003559;0.008094;3.543814;5.391973;0.185461;0.282182;0.006145;-0.021776;0.01396;2.141281;137.141281;0.018614;0.016941;-0.01919;0.017502;-0.001314;0.003559;-0.018816;0.817156;-0.015631;0.015631;0.07177
0.367682;-9.548888e-04;0.888081;-0.776101;0.067932;-0.061933;0.781526;-0.0019;0.003452;-3.889943e-04;0.55418;0.550548;1.816372;1.804467;0.00348;-0.001929;0.002704;173.312698;128.312698;0.003606;0.003165;-0.0019;0.001566;-0.002344;0.003452;-0.00391;0.826148;0.001551;-0.001551;0.039678
0.434848;-9.548888e-04;0.893355;-0.776247;0.06765;-0.057894;0.781337;0.003922;0.003641;-2.292288e-04;-0.867152;-1.077387;-0.928171;-1.153201;0.004051;0.003512;2.690537e-04;21.528553;156.528549;3.587382e-04;0.00254;0.003922;5.390897e-04;-9.975473e-04;0.003641;-0.001537;0.83546;0.007563;-0.007563;0.053257
0.502013;-9.548888e-04;0.9107;-0.776725;0.067678;-0.053441;0.781497;0.016769;0.002992;0.002499;-0.148331;-5.605139;-0.178408;-6.741662;0.017208;0.002553;0.007328;61.401527;16.401525;0.009771;0.010723;0.016769;0.004755;2.421697e-04;0.002992;-0.004513;0.857259;0.019761;-0.019761;0.038314
0.569178;-9.548888e-04;0.924628;-0.776442;0.067573;-0.048639;0.780893;0.002644;-0.001778;-0.00111;0.702005;1.48732;0.67235;1.424492;0.002907;-0.002041;0.002474;69.804886;24.804884;0.003299;0.002871;0.002644;6.63269e-04;-0.002884;-0.001778;-0.003547;0.87599;8.663792e-04;-8.663792e-04;0.030813
0.636344;-9.548888e-04;0.915581;-0.776376;0.067321;-0.052499;0.781056;0.010455;-0.003573;-0.002181;0.361986;2.925844;0.341782;2.762535;0.010787;-0.003905;0.007346;17.751467;152.751465;0.009794;0.008787;0.010455;-0.004795;4.340402e-04;-0.003573;0.005229;0.863082;0.006882;-0.006882;0.051069
0.703509;-9.548888e-04;0.90233;-0.77642;0.067528;-0.055525;0.781327;0.003742;0.004905;-0.001649;-0.42407;-0.762891;-1.310803;-2.358103;0.006072;0.002575;0.001748;146.764969;101.764969;0.002331;0.003519;0.003742;-0.006292;0.002994;0.004905;0.009287;0.846805;0.008646;-0.008646;0.047639
0.770674;-9.548888e-04;0.896566;-0.776278;0.067486;-0.052743;0.780989;-0.005185;0.011433;2.991424e-04;0.453797;0.45354;2.204879;2.203629;0.011438;-0.005191;0.008315;155.345657;110.345665;0.011086;0.009824;-0.005185;0.003187;-0.002589;0.011433;-0.005776;0.843823;0.006248;-0.006248;0.063948
0.83784;-9.548888e-04;0.872674;-0.776591;0.067068;-0.050669;0.781127;-0.001688;-0.001572;-0.004751;2.044366;-1.074237;-0.930893;0.489149;0.003121;-0.006381;0.004751;85.666008;40.666004;0.006335;0.005593;-0.001688;-0.004523;-0.004979;-0.001572;-4.560929e-04;0.822005;-0.00326;0.00326;0.049645
0.905005;-9.548888e-04;0.880603;-0.776884;0.06695;-0.058399;0.781947;0.001156;-0.011072;-0.00134;8.618761;0.104443;9.574564;0.116026;0.001301;-0.011217;0.006259;125.035561;80.035561;0.008345;0.007947;0.001156;-6.809972e-04;-0.001999;-0.011072;-0.001318;0.822204;-0.009915;0.009915;0.033126
0.97217;-9.548888e-04;0.87263;-0.776873;0.067186;-0.057369;0.78188;-0.012921;-0.00491;0.011043;7.298043;-2.631433;-0.380021;0.137023;0.002831;-0.020663;0.011747;163.864853;118.864845;0.015663;0.014809;-0.012921;0.02254;-4.537587e-04;-0.00491;-0.022994;0.815261;-0.017831;0.017831;0.079282
1.039336;-9.548888e-04;0.839332;-0.776716;0.067069;-0.05195;0.781335;-0.007715;-5.633083e-04;0.006594;3.462238;-13.696639;-0.073011;0.288831;0.003362;-0.011641;0.007502;161.270081;116.270073;0.010002;0.009091;-0.007715;0.015861;-0.002672;-5.633083e-04;-0.018534;0.787381;-0.008279;0.008279;0.055961
1.106501;-9.548888e-04;0.836464;-0.776841;0.066833;-0.051188;0.781389;0.002103;0.007773;0.003623;-0.035347;-0.270529;-3.696462;-28.290812;0.009539;3.37167e-04;0.004601;134.664581;89.664581;0.006134;0.00625;0.002103;0.009784;-0.002538;0.007773;-0.012322;0.785277;0.009876;-0.009876;0.029246
1.173667;-9.548888e-04;0.771322;-0.777071;0.066524;-0.053209;0.781726;0.020423;0.007171;0.00749;-0.159542;-2.848067;-0.351115;-6.267941;0.023797;0.003797;0.01;80.083801;35.083801;0.013334;0.014763;0.020423;0.012971;0.002009;0.007171;-0.010962;0.718113;0.027594;-0.027594;0.03349
1.240832;-9.548888e-04;0.712017;-0.777057;0.066887;-0.061372;0.782341;0.022518;0.009595;0.013422;-0.03749;-2.346793;-0.426113;-26.673847;0.030952;0.00116;0.014896;91.086151;46.086155;0.019861;0.020259;0.022518;0.021915;0.004928;0.009595;-0.016988;0.650646;0.032113;-0.032113;0.016944
1.307997;-9.548888e-04;0.640066;-0.777059;0.066834;-0.064691;0.782606;-0.001197;0.010225;0.021209;0.659048;0.11708;8.541136;1.51734;0.026478;-0.01745;0.021964;136.486038;91.486031;0.029286;0.02554;-0.001197;0.042266;1.513341e-04;0.010225;-0.042115;0.575375;0.009028;-0.009028;0.021302
1.375163;-9.548888e-04;0.587236;-0.777348;0.06661;-0.062708;0.782713;-0.013421;0.003351;0.018674;1.65238;4.004611;0.249712;0.605188;0.015435;-0.025505;0.02047;154.107834;109.107841;0.027294;0.023874;-0.013421;0.038821;-0.001474;0.003351;-0.040295;0.524528;-0.01007;0.01007;0.055881
1.442328;-9.548888e-04;0.486924;-0.777539;0.066591;-0.057546;0.782504;-0.020522;0.001243;0.006049;7.858732;16.515633;0.060549;0.127247;0.002811;-0.022091;0.012451;12.074823;147.074829;0.016601;0.015748;-0.020522;0.013256;-0.001157;0.001243;-0.014413;0.429378;-0.01928;0.01928;0.033935
-0.303971;-0.06812;0.373627;-0.775843;0.068627;-0.058;0.781029;0.031956;0.003718;0.034194;0.34939;-8.594786;-0.11635;2.862134;0.054832;-0.019158;0.036995;110.177437;65.177437;0.049326;0.044342;0.031956;0.068888;-4.98854e-04;0.003718;-0.069386;0.315627;0.035674;-0.035674;0.004527
-0.236806;-0.06812;0.475324;-0.775814;0.068589;-0.052093;0.78058;0.008097;4.39444e-04;0.031055;0.759934;-18.425407;-0.054273;1.315904;0.035558;-0.027022;0.03129;127.619247;82.619247;0.04172;0.036243;0.008097;0.062487;-3.765236e-04;4.39444e-04;-0.062863;0.423232;0.008536;-0.008536;0.04306
-0.169641;-0.06812;0.540658;-0.775928;0.0686;-0.058168;0.781124;-0.009509;0.003262;0.018449;1.38096;2.915177;0.343032;0.724134;0.016399;-0.022647;0.019523;149.150833;104.150833;0.02603;0.022639;-0.009509;0.037715;-8.175222e-04;0.003262;-0.038533;0.482489;-0.006247;0.006247;0.02128
-0.102475;-0.06812;0.61004;-0.775945;0.068533;-0.055213;0.78092;-0.005582;0.003411;0.007389;1.286947;1.636273;0.611145;0.777033;0.007564;-0.009735;0.00865;153.730057;108.730057;0.011533;0.010014;-0.005582;0.017483;-0.002705;0.003411;-0.020188;0.554827;-0.002171;0.002171;0.053493
-0.03531;-0.06812;0.695295;-0.775935;0.067986;-0.057122;0.781;-0.020191;0.002844;0.009586;3.74873;7.099778;0.140849;0.266757;0.006311;-0.023658;0.014985;178.713654;133.713654;0.01998;0.018243;-0.020191;0.021014;-0.001843;0.002844;-0.022857;0.638173;-0.017347;0.017347;0.079595
0.031855;-0.06812;0.714468;-0.775958;0.068184;-0.064765;0.781635;0.008236;0.001861;0.013442;0.464734;-4.426648;-0.225905;2.151769;0.018863;-0.008766;0.013815;118.197685;73.197685;0.018419;0.016303;0.008236;0.027116;-2.326842e-04;0.001861;-0.027349;0.649703;0.010097;-0.010097;0.029125
0.099021;-0.06812;0.760062;-0.776414;0.068074;-0.059257;0.781642;0.025887;0.004427;0.003814;-0.142018;-5.847014;-0.171027;-7.041372;0.026545;0.00377;0.011388;68.206017;23.206015;0.015183;0.016583;0.025887;0.011485;-0.003858;0.004427;-0.015343;0.700805;0.030315;-0.030315;0.009952
0.166186;-0.06812;0.770176;-0.776215;0.067601;-0.056488;0.781198;-0.003846;0.003783;0.002908;1.01306;1.016449;0.983817;0.987109;0.004765;-0.004827;0.004796;161.540924;116.540924;0.006395;0.005538;-0.003846;0.007382;-0.001567;0.003783;-0.00895;0.713688;-6.223255e-05;6.223255e-05;0.051509
0.233352;-0.06812;0.815591;-0.776403;0.067725;-0.058278;0.781527;-0.010739;0.001391;0.010906;2.197613;7.719011;0.12955;0.455039;0.007805;-0.017153;0.012479;161.711075;116.711067;0.016639;0.014743;-0.010739;0.021237;5.753317e-04;0.001391;-0.020662;0.757313;-0.009348;0.009348;0.056872
0.300517;-0.06812;0.884635;-0.776329;0.067641;-0.058657;0.781475;-0.002213;0.002725;0.002943;0.875173;0.812311;1.231055;1.142631;0.004097;-0.003586;0.003841;153.121414;108.121407;0.005122;0.004439;-0.002213;0.006837;-9.51895e-04;0.002725;-0.007789;0.825979;5.114086e-04;-5.114086e-04;0.038583
0.367682;-0.06812;0.890588;-0.7763;0.067597;-0.057922;0.781387;-0.002297;0.007296;-8.788643e-04;0.322208;0.314789;3.176736;3.103588;0.007376;-0.002376;0.004876;160.36615;115.36615;0.006501;0.005872;-0.002297;0.001245;-0.003002;0.007296;-0.004247;0.832666;0.004999;-0.004999;0.028271
0.434848;-0.06812;0.882555;-0.77647;0.067268;-0.052921;0.781173;1.001885e-04;0.002323;-4.075618e-04;-0.011614;-0.043127;-23.187441;-86.105919;0.002395;2.78202e-05;0.001184;158.875824;113.875832;0.001578;0.001588;1.001885e-04;2.262572e-04;-0.001041;0.002323;-0.001268;0.829634;0.002423;-0.002423;0.043394
0.502013;-0.06812;0.899758;-0.7766;0.067412;-0.056672;0.781577;0.01716;0.003516;-0.002162;-0.181867;-4.880553;-0.204895;-5.498528;0.017494;0.003182;0.007156;28.045128;163.045135;0.009542;0.01076;0.01716;-0.00519;8.663378e-04;0.003516;0.006056;0.843086;0.020676;-0.020676;0.050334
0.569178;-0.06812;0.92369;-0.776552;0.067434;-0.044828;0.780762;0.001906;0.003448;-0.001771;-0.161792;-0.552618;-1.809568;-6.180787;0.004608;7.456058e-04;0.001931;179.54715;134.54715;0.002575;0.002856;0.001906;-6.544922e-04;-0.002887;0.003448;-0.002232;0.878861;0.005354;-0.005354;0.032068
0.636344;-0.06812;0.900775;-0.776521;0.066962;-0.048904;0.780935;0.013585;0.003374;0.001635;-0.225292;-4.02679;-0.248337;-4.438684;0.01384;0.003118;0.005361;61.797478;16.797476;0.007148;0.008383;0.013585;0.00404;-7.696474e-04;0.003374;-0.00481;0.851871;0.016958;-0.016958;0.074479
0.703509;-0.06812;0.90898;-0.776157;0.06731;-0.057867;0.781216;0.005528;-6.9277e-05;0.005239;0.370337;79.797928;0.012532;2.700244;0.00867;-0.003211;0.00594;96.168663;51.168663;0.00792;0.007096;0.005528;0.007566;0.002913;-6.9277e-05;-0.004654;0.851114;0.005459;-0.005459;0.028373
0.770674;-0.06812;0.892458;-0.776554;0.067425;-0.062327;0.781964;-0.007973;-0.006627;-0.007218;-285.268768;-1.203195;-0.83112;-0.003505;-5.100071e-05;-0.014549;0.007249;103.151154;58.151154;0.009665;0.009682;-0.007973;-0.011714;-0.002721;-0.006627;0.008993;0.830131;-0.0146;0.0146;0.036683
0.83784;-0.06812;0.869517;-0.776946;0.06706;-0.05532;0.781795;-0.005125;-0.011298;-0.0041;-4.333279;-0.453596;-2.204603;-0.230772;-0.003079;-0.013344;0.005132;109.613846;64.613846;0.006843;0.008068;-0.005125;-0.004423;-0.003777;-0.011298;6.465741e-04;0.814198;-0.016423;0.016423;0.069177
0.905005;-0.06812;0.889681;-0.776794;0.067083;-0.053531;0.781521;0.001074;-0.004714;0.001377;3.627016;0.22793;4.387305;0.275709;0.001385;-0.005025;0.003205;137.025848;92.025841;0.004274;0.003895;0.001074;0.00209;6.642153e-04;-0.004714;-0.001426;0.836151;-0.00364;0.00364;0.061764
0.97217;-0.06812;0.877469;-0.776619;0.0671;-0.054882;0.781442;-0.010471;2.596377e-04;-0.004272;6.826406;40.32975;0.024796;0.14649;0.001753;-0.011964;0.006858;77.363251;32.363255;0.009144;0.00862;-0.010471;-0.006784;-0.00176;2.596377e-04;0.005025;0.822587;-0.010211;0.010211;0.033176
1.039336;-0.06812;0.80695;-0.776858;0.066834;-0.053194;0.78154;-0.003178;0.004055;-0.006382;0.887175;0.783698;1.276002;1.127174;0.007774;-0.006897;0.007335;132.726013;87.726013;0.00978;0.008475;-0.003178;-0.007323;-0.005441;0.004055;0.001882;0.753756;8.770557e-04;-8.770557e-04;0.026856
1.106501;-0.06812;0.802646;-0.776788;0.066406;-0.058139;0.781786;-0.001467;0.004602;-0.003289;0.481117;0.318702;3.137729;2.078495;0.006042;-0.002907;0.004475;176.779114;131.779114;0.005966;0.005272;-0.001467;-0.002139;-0.004438;0.004602;-0.002299;0.744508;0.003135;-0.003135;0.023008
1.173667;-0.06812;0.806178;-0.7771;0.066168;-0.054614;0.781822;0.003498;0.001731;0.005074;0.326557;-2.020894;-0.494831;3.062253;0.007765;-0.002536;0.00515;116.850426;71.850426;0.006867;0.006197;0.003498;0.010336;-1.884248e-04;0.001731;-0.010524;0.751565;0.005229;-0.005229;0.032791
1.240832;-0.06812;0.752771;-0.777264;0.066324;-0.056469;0.782129;0.002073;0.007613;0.020012;0.613249;-0.272312;-3.672253;1.630658;0.025046;-0.015359;0.020203;131.437653;86.437653;0.026937;0.02355;0.002073;0.03808;0.001944;0.007613;-0.036137;0.696302;0.009687;-0.009687;0.022814
1.307997;-0.06812;0.660446;-0.77721;0.066538;-0.05017;0.781664;-0.012429;0.007331;0.032339;1.163074;1.69553;0.589786;0.859791;0.031266;-0.036364;0.033815;145.899811;100.899811;0.045086;0.039083;-0.012429;0.062625;0.002053;0.007331;-0.060572;0.610276;-0.005099;0.005099;0.035287
1.375163;-0.06812;0.582091;-0.777499;0.066778;-0.051373;0.782051;0.009287;3.528764e-04;0.029136;0.718934;-26.316624;-0.037999;1.390948;0.034296;-0.024656;0.029476;125.793541;80.793541;0.039302;0.034187;0.009287;0.057342;9.296522e-04;3.528764e-04;-0.056412;0.530718;0.009639;-0.009639;0.045083
1.442328;-0.06812;0.495733;-0.777697;0.066794;-0.056587;0.782609;0.018322;-4.15866e-04;0.014232;0.3111;44.056511;0.022698;3.214401;0.025992;-0.008086;0.017039;102.382301;57.382301;0.022719;0.02056;0.018322;0.028627;-1.63032e-04;-4.15866e-04;-0.02879;0.439146;0.017906;-0.017906;0.020838
-0.303971;-0.135286;0.352343;-0.775938;0.068297;-0.064765;0.781626;0.014578;7.246403e-04;0.023331;0.521621;-20.118238;-0.049706;1.917099;0.03199;-0.016686;0.024338;117.198235;72.198235;0.032451;0.028562;0.014578;0.045468;0.001195;7.246403e-04;-0.044273;0.287577;0.015303;-0.015303;0.037793
-0.236806;-0.135286;0.496204;-0.775542;0.068495;-0.062048;0.781029;0.009233;0.001118;0.029346;0.702561;-8.257627;-0.1211;1.423364;0.034801;-0.02445;0.029626;125.911186;80.911186;0.039501;0.034382;0.009233;0.05781;8.830062e-04;0.001118;-0.056927;0.434156;0.010351;-0.010351;0.046348
-0.169641;-0.135286;0.547238;-0.775867;0.068487;-0.059471;0.781151;0.015225;0.001651;0.011895;0.237508;-9.219536;-0.108465;4.210386;0.022133;-0.005257;0.013695;104.386909;59.386913;0.01826;0.016784;0.015225;0.025655;-0.001865;0.001651;-0.027519;0.487767;0.016876;-0.016876;0.02209
-0.102475;-0.135286;0.596288;-0.775934;0.068312;-0.058293;0.781114;0.004134;0.003018;-0.006471;0.289818;-1.369827;-0.730019;3.450436;0.010071;-0.002919;0.006495;165.946136;120.946129;0.00866;0.00787;0.004134;-0.008797;-0.004145;0.003018;0.004651;0.537995;0.007152;-0.007152;0.030526
-0.03531;-0.135286;0.677844;-0.776152;0.067627;-0.061615;0.781525;-0.020674;0.001738;-0.014036;3.229583;11.893624;0.084079;0.309637;0.008493;-0.027429;0.017961;94.132721;49.132725;0.023948;0.021679;-0.020674;-0.024143;-0.00393;0.001738;0.020213;0.616228;-0.018936;0.018936;0.042754
0.031855;-0.135286;0.72327;-0.776022;0.067753;-0.063965;0.781596;0.020809;0.004546;-0.020798;0.27576;-4.577618;-0.218454;3.626341;0.035008;-0.009654;0.022331;163.092514;118.092514;0.029775;0.027135;0.020809;-0.039017;-0.002579;0.004546;0.036438;0.659306;0.025354;-0.025354;0.045802
0.099021;-0.135286;0.77929;-0.776068;0.067372;-0.052954;0.780785;0.030667;0.012757;-0.024269;0.087364;-2.403902;-0.41599;11.446403;0.04758;-0.004157;0.025869;167.988205;122.988205;0.034491;0.033193;0.030667;-0.04544;-0.003099;0.012757;0.042341;0.726335;0.043424;-0.043424;0.036065
0.166186;-0.135286;0.803332;-0.776062;0.067513;-0.05264;0.78077;-0.02536;0.012391;-2.011423e-04;2.046631;2.046721;0.488586;0.488608;0.012392;-0.025361;0.018876;47.01445;2.01445;0.025169;0.022221;-0.02536;-5.884935e-04;1.862088e-04;0.012391;7.747023e-04;0.750691;-0.01297;0.01297;0.012439
0.233352;-0.135286;0.849329;-0.776344;0.06756;-0.060877;0.781652;-0.015859;2.442767e-04;0.003674;15.974861;64.921097;0.015403;0.062598;0.001043;-0.016657;0.00885;20.366314;155.366318;0.0118;0.011468;-0.015859;0.007271;7.557721e-05;2.442767e-04;-0.007196;0.788452;-0.015614;0.015614;0.031063
0.300517;-0.135286;0.901185;-0.776421;0.067441;-0.058088;0.781506;0.015498;0.003577;-0.005335;-0.087695;-4.332939;-0.23079;-11.403105;0.017537;0.001538;0.007999;12.661341;147.661346;0.010666;0.011214;0.015498;-0.009353;-0.001317;0.003577;0.008037;0.843097;0.019075;-0.019075;0.048436
0.367682;-0.135286;0.905961;-0.776523;0.067327;-0.056081;0.781452;-0.009303;0.00496;5.856323e-04;1.871449;1.875667;0.533144;0.534345;0.004984;-0.009327;0.007155;23.985601;158.985596;0.00954;0.008388;-0.009303;0.002242;-0.001071;0.00496;-0.003313;0.84988;-0.004343;0.004343;0.032383
0.434848;-0.135286;0.869053;-0.776886;0.067102;-0.050751;0.781429;-4.889182e-04;0.003937;-8.129324e-04;0.1552;0.124177;8.053006;6.443301;0.004082;-6.335022e-04;0.002358;162.081696;117.081703;0.003144;0.002955;-4.889182e-04;3.49758e-04;-0.001976;0.003937;-0.002325;0.818302;0.003448;-0.003448;0.043622
0.502013;-0.135286;0.910335;-0.776598;0.067144;-0.052062;0.781232;0.007053;0.004123;-0.002286;-0.346066;-1.710486;-0.584629;-2.889621;0.008303;0.002873;0.002715;3.583695;138.583694;0.00362;0.004869;0.007053;-0.004949;3.780767e-04;0.004123;0.005328;0.858273;0.011176;-0.011176;0.041652
0.569178;-0.135286;0.933325;-0.776464;0.067156;-0.048153;0.780849;7.111543e-04;0.001009;8.627949e-04;0.008857;-0.70464;-1.419164;112.8992;0.001736;-1.537454e-05;8.755738e-04;128.724609;83.724609;0.001167;0.001162;7.111543e-04;0.002955;-0.001229;0.001009;-0.004184;0.885172;0.00172;-0.00172;0.050042
0.636344;-0.135286;0.909564;-0.776602;0.066945;-0.05109;0.781154;0.003436;-0.003127;0.004408;0.94528;1.098869;0.910026;1.057887;0.00565;-0.005341;0.005496;115.778923;70.778923;0.007327;0.006347;0.003436;0.009394;-5.771664e-04;-0.003127;-0.009971;0.858474;3.09176e-04;-3.09176e-04;0.071412
0.703509;-0.135286;0.932321;-0.776426;0.066906;-0.059819;0.781595;-0.001936;0.007701;0.008957;0.558353;0.25144;3.977084;1.79098;0.013053;-0.007288;0.010171;140.302963;95.302963;0.013561;0.0119;-0.001936;0.018002;-8.874528e-05;0.007701;-0.018091;0.872502;0.005765;-0.005765;0.011918
0.770674;-0.135286;0.921875;-0.77672;0.066849;-0.060939;0.78197;-0.002822;0.014445;0.004255;0.247073;0.195386;5.118084;4.047383;0.015437;-0.003814;0.009626;138.172104;93.172112;0.012834;0.011771;-0.002822;0.007969;5.414041e-04;0.014445;-0.007428;0.860936;0.011623;-0.011623;0.024623
0.83784;-0.135286;0.910554;-0.777105;0.067096;-0.061025;0.78238;-0.002798;-3.44469e-04;-0.00162;7.817556;-8.12341;-0.123101;0.127917;4.609762e-04;-0.003604;0.002032;98.561142;53.561146;0.00271;0.00257;-0.002798;-0.003804;5.630711e-04;-3.44469e-04;0.004367;0.849529;-0.003143;0.003143;0.047646
0.905005;-0.135286;0.900273;-0.777105;0.067057;-0.06065;0.782347;-0.001334;-0.001815;-0.005333;1.836775;-0.735057;-1.360438;0.544433;0.003764;-0.006914;0.005339;128.436264;83.436264;0.007118;0.006253;-0.001334;-0.010933;2.657653e-04;-0.001815;0.011198;0.839623;-0.00315;0.00315;0.058327
0.97217;-0.135286;0.886545;-0.776942;0.067007;-0.058819;0.782041;-0.013525;0.003273;-0.009909;2.303802;4.132585;0.241979;0.434065;0.007863;-0.018116;0.012989;97.497795;52.497799;0.017319;0.015383;-0.013525;-0.017307;-0.002511;0.003273;0.014795;0.827726;-0.010252;0.010252;0.026145
1.039336;-0.135286;0.823578;-0.777166;0.066797;-0.055255;0.781986;-0.005144;-0.001065;-0.008109;2.180944;-4.829083;-0.207079;0.458517;0.005257;-0.011466;0.008362;108.540146;63.540146;0.011149;0.009875;-0.005144;-0.01197;-0.004249;-0.001065;0.007721;0.768323;-0.006209;0.006209;0.050774
1.106501;-0.135286;0.796999;-0.777079;0.066616;-0.05585;0.781926;-0.008773;-9.586807e-04;-0.003639;21.552549;-9.150709;-0.109281;0.046398;4.734833e-04;-0.010205;0.005339;66.869362;21.86936;0.007119;0.006966;-0.008773;-0.003705;-0.003573;-9.586807e-04;1.312831e-04;0.741148;-0.009731;0.009731;0.06075
1.173667;-0.135286;0.768789;-0.777284;0.066336;-0.049274;0.781664;-0.003989;0.002024;-0.003666;1.522875;1.971024;0.50735;0.656653;0.003758;-0.005723;0.004741;103.270164;58.270161;0.006321;0.005513;-0.003989;-0.005862;-0.00147;0.002024;0.004392;0.719515;-0.001965;0.001965;0.043035
1.240832;-0.135286;0.735838;-0.777046;0.066233;-0.055315;0.781823;-0.0044;0.00267;-0.004195;1.374369;1.647966;0.606809;0.727607;0.004621;-0.006351;0.005486;109.427658;64.427658;0.007315;0.006361;-0.0044;-0.008633;2.426422e-04;0.00267;0.008876;0.680523;-0.00173;0.00173;0.048306
1.307997;-0.135286;0.666959;-0.777207;0.066513;-0.052229;0.781794;-0.021403;0.003208;-0.003041;6.084048;6.670639;0.149911;0.164364;0.003579;-0.021773;0.012676;65.274841;20.274839;0.016901;0.015843;-0.021403;-0.00761;0.001528;0.003208;0.009138;0.61473;-0.018194;0.018194;0.060543
1.375163;-0.135286;0.567034;-0.777556;0.066728;-0.050846;0.782068;0.011203;0.004931;0.004851;-0.16546;-2.271801;-0.440179;-6.043766;0.013844;0.002291;0.005777;86.508804;41.508801;0.007702;0.008568;0.011203;0.008768;9.34882e-04;0.004931;-0.007833;0.516188;0.016134;-0.016134;0.057513
1.442328;-0.135286;0.493721;-0.777542;0.06668;-0.055726;0.782383;0.035885;0.005157;0.009099;-0.069436;-6.958277;-0.143714;-14.401816;0.038377;0.002665;0.017856;72.196518;27.196522;0.023808;0.024745;0.035885;0.018132;6.700772e-05;0.005157;-0.018065;0.437995;0.041042;-0.041042;0.003267
-0.303971;-0.202451;0.359847;-0.775834;0.068715;-0.062501;0.781375;-0.014044;0.002295;-0.033609;1.409171;6.119386;0.163415;0.709637;0.028713;-0.040462;0.034588;123.061836;78.061836;0.046117;0.04013;-0.014044;-0.06621;-0.001008;0.002295;0.065202;0.297346;-0.011749;0.011749;0.030861
-0.236806;-0.202451;0.484504;-0.77568;0.068483;-0.065255;0.781427;-0.008203;0.00362;-0.010102;1.486878;2.26609;0.441289;0.67255;0.009413;-0.013996;0.011705;112.052208;67.052208;0.015607;0.013602;-0.008203;-0.018331;-0.001873;0.00362;0.016458;0.419249;-0.004583;0.004583;0.034064
-0.169641;-0.202451;0.550472;-0.775704;0.06821;-0.063968;0.78132;0.036834;0.00514;0.00107;-0.138431;-7.166064;-0.139547;-7.223805;0.03687;0.005104;0.015883;51.680515;6.680516;0.021178;0.023068;0.036834;0.004581;-0.002441;0.00514;-0.007022;0.486504;0.041974;-0.041974;0.028644
-0.102475;-0.202451;0.608996;-0.775848;0.068117;-0.051374;0.780525;0.020516;0.005612;-0.008304;-0.078717;-3.65589;-0.273531;-12.703682;0.024221;0.001907;0.011157;11.489372;146.489365;0.014876;0.015551;0.020516;-0.012783;-0.003824;0.005612;0.00896;0.557622;0.026127;-0.026127;0.018516
-0.03531;-0.202451;0.675576;-0.776141;0.067555;-0.053588;0.780916;-0.019923;0.005251;-0.009815;2.700871;3.793828;0.263586;0.370251;0.008626;-0.023297;0.015962;87.933067;42.933064;0.021282;0.019069;-0.019923;-0.017939;-0.001691;0.005251;0.016249;0.621988;-0.014671;0.014671;0.038489
0.031855;-0.202451;0.712352;-0.776121;0.067714;-0.053966;0.780936;0.017841;0.002314;-0.007183;0.024173;-7.711395;-0.129678;41.36797;0.020654;-4.992755e-04;0.010577;7.882798;142.882797;0.014102;0.013939;0.017841;-0.013349;-0.001017;0.002314;0.012332;0.658385;0.020155;-0.020155;0.056636
0.099021;-0.202451;0.772914;-0.776203;0.067335;-0.047911;0.78059;0.013487;-9.627199e-04;0.002067;0.090914;14.009383;0.071381;10.999358;0.013777;-0.001253;0.007515;58.506065;13.506064;0.01002;0.009629;0.013487;0.00329;8.440393e-04;-9.627199e-04;-0.002445;0.725003;0.012524;-0.012524;0.047396
0.166186;-0.202451;0.840038;-0.77635;0.06763;-0.051429;0.780986;-0.041322;-0.001584;0.010932;36.038445;-26.080124;-0.038343;0.027748;0.001225;-0.044131;0.022678;19.32906;154.329056;0.030237;0.029837;-0.041322;0.019828;0.002037;-0.001584;-0.017791;0.788609;-0.042906;0.042906;0.027142
0.233352;-0.202451;0.86579;-0.77629;0.067453;-0.064235;0.781858;-0.012433;0.004434;0.005928;2.26791;2.804193;0.356609;0.440935;0.006309;-0.014308;0.010308;175.149582;130.149582;0.013745;0.012198;-0.012433;0.014349;-0.002492;0.004434;-0.016842;0.801555;-0.007999;0.007999;0.026875
0.300517;-0.202451;0.879365;-0.776402;0.067426;-0.055085;0.781269;0.024728;0.008337;0.012334;-0.055024;-2.965916;-0.337164;-18.173883;0.031341;0.001724;0.014808;92.50827;47.50827;0.019744;0.020343;0.024728;0.02554;-8.732732e-04;0.008337;-0.026414;0.82428;0.033065;-0.033065;0.089484
0.367682;-0.202451;0.904171;-0.776436;0.067132;-0.050669;0.780978;-0.002831;0.006983;0.002214;0.443401;0.405451;2.466388;2.255293;0.007459;-0.003308;0.005383;160.117142;115.117134;0.007178;0.006369;-0.002831;0.009706;-0.005279;0.006983;-0.014985;0.853502;0.004152;-0.004152;0.05241
0.434848;-0.202451;0.873468;-0.776945;0.066896;-0.048882;0.78135;-0.001349;0.003138;-9.356657e-04;0.461931;0.429817;2.326569;2.164827;0.003325;-0.001536;0.002431;0.033412;135.033417;0.003241;0.00287;-0.001349;0.001217;-0.003088;0.003138;-0.004305;0.824586;0.001789;-0.001789;0.042263
0.502013;-0.202451;0.90566;-0.776858;0.066756;-0.049847;0.781312;-0.003176;0.005636;0.004859;0.684173;0.563504;1.77461;1.461618;0.007789;-0.005329;0.006559;148.99086;103.990868;0.008745;0.007618;-0.003176;0.009713;4.333452e-06;0.005636;-0.009709;0.855814;0.00246;-0.00246;0.011314
0.569178;-0.202451;0.922673;-0.776598;0.066903;-0.054737;0.781394;-0.003145;0.009139;0.003389;0.401279;0.344088;2.906236;2.492031;0.010012;-0.004018;0.007015;139.018188;94.018188;0.009353;0.008343;-0.003145;0.005642;0.001137;0.009139;-0.004505;0.867936;0.005995;-0.005995;0.044596
0.636344;-0.202451;0.928712;-0.776778;0.067091;-0.054016;0.781539;-0.002775;0.003035;0.00247;0.933912;0.914143;1.093921;1.070765;0.003943;-0.003683;0.003813;158.645538;113.645531;0.005084;0.004404;-0.002775;0.005661;-7.209103e-04;0.003035;-0.006381;0.874696;2.606107e-04;-2.606107e-04;0.055154
0.703509;-0.202451;0.931956;-0.77695;0.066835;-0.053569;0.781657;-0.002022;0.004798;3.618438e-04;0.423736;0.421436;2.372837;2.359959;0.004817;-0.002041;0.003429;167.829971;122.829971;0.004572;0.004066;-0.002022;0.004563;-0.003839;0.004798;-0.008402;0.878387;0.002776;-0.002776;0.046205
0.770674;-0.202451;0.939967;-0.776774;0.06643;-0.055247;0.781565;-1.898652e-04;0.006264;0.002462;0.143967;0.03031;32.992393;6.946055;0.007096;-0.001022;0.004059;139.823013;94.823013;0.005412;0.005105;-1.898652e-04;0.005717;-7.933781e-04;0.006264;-0.00651;0.884721;0.006074;-0.006074;0.002203
0.83784;-0.202451;0.943789;-0.776813;0.066676;-0.058015;0.781824;0.007917;0.006436;0.002372;-0.485599;-1.230235;-0.812853;-2.059311;0.009661;0.004692;0.002485;88.107567;43.107567;0.003313;0.005579;0.007917;0.004103;6.408843e-04;0.006436;-0.003462;0.885775;0.014353;-0.014353;0.028119
0.905005;-0.202451;0.895272;-0.776785;0.066584;-0.06162;0.782065;-0.003264;0.006649;0.002874;0.54391;0.490896;2.037089;1.838539;0.007422;-0.004037;0.005729;145.591019;100.591026;0.007639;0.006711;-0.003264;0.004985;7.621219e-04;0.006649;-0.004223;0.833652;0.003385;-0.003385;2.497374e-04
0.97217;-0.202451;0.862123;-0.777292;0.066849;-0.059845;0.782453;-0.011346;0.005963;0.003529;1.808777;1.902582;0.525602;0.55286;0.006655;-0.012038;0.009346;5.152183;140.152176;0.012462;0.01094;-0.011346;0.007755;-6.982698e-04;0.005963;-0.008454;0.802278;-0.005382;0.005382;0.020591
1.039336;-0.202451;0.839174;-0.777303;0.066454;-0.058628;0.782338;-0.00272;0.005091;-0.001277;0.552207;0.534305;1.871589;1.810915;0.005295;-0.002924;0.004109;151.849045;106.849045;0.005479;0.00481;-0.00272;-9.464652e-04;-0.001608;0.005091;-6.615004e-04;0.780547;0.002371;-0.002371;0.068355
1.106501;-0.202451;0.820948;-0.777109;0.066512;-0.05876;0.78216;-0.008326;0.002711;-0.004478;2.30605;3.07093;0.325634;0.433642;0.004299;-0.009914;0.007107;88.633987;43.633984;0.009476;0.008417;-0.008326;-0.007619;-0.001336;0.002711;0.006283;0.762188;-0.005615;0.005615;0.056468
1.173667;-0.202451;0.764695;-0.777372;0.066254;-0.057968;0.782341;-0.001218;0.00454;-0.009711;0.718188;0.268216;3.728335;1.392393;0.01179;-0.008467;0.010128;132.472809;87.472816;0.013505;0.011748;-0.001218;-0.017905;-0.001516;0.00454;0.01639;0.706727;0.003322;-0.003322;0.029448
1.240832;-0.202451;0.724353;-0.777182;0.066281;-0.057913;0.78215;-0.007625;0.005363;-0.008794;1.230837;1.42188;0.703294;0.812455;0.009801;-0.012063;0.010932;113.465302;68.465302;0.014576;0.012645;-0.007625;-0.018531;9.429487e-04;0.005363;0.019474;0.66644;-0.002262;0.002262;0.052747
1.307997;-0.202451;0.665617;-0.777337;0.066101;-0.053201;0.781955;-0.029722;0.003501;-0.008043;5.90502;8.489904;0.117787;0.169347;0.005346;-0.031567;0.018456;73.654175;28.654171;0.024608;0.023034;-0.029722;-0.016069;-1.822375e-05;0.003501;0.01605;0.612417;-0.026221;0.026221;0.044493
1.375163;-0.202451;0.594376;-0.777648;0.066038;-0.048878;0.781976;-0.00103;0.004962;9.043872e-04;0.228324;0.20756;4.817892;4.379741;0.005096;-0.001163;0.00313;137.726303;92.726295;0.004173;0.003844;-0.00103;0.001709;1.000488e-04;0.004962;-0.001609;0.545498;0.003932;-0.003932;0.044744
1.442328;-0.202451;0.497093;-0.777622;0.06619;-0.053252;0.782249;0.024147;0.006271;0.011537;-0.020628;-3.850688;-0.259694;-48.477272;0.029803;6.147873e-04;0.014594;89.011345;44.011345;0.019459;0.019667;0.024147;0.022502;5.722462e-04;0.006271;-0.021929;0.443841;0.030418;-0.030418;0.02844
-0.303971;-0.269616;0.373756;-0.775916;0.068485;-0.051676;0.780645;-0.035327;0.007537;-0.053442;1.636163;4.687404;0.213338;0.611186;0.043684;-0.071475;0.05758;116.38147;71.38147;0.076773;0.067129;-0.035327;-0.10394;-0.002945;0.007537;0.100996;0.322081;-0.02779;0.02779;0.013132
-0.236806;-0.269616;0.494888;-0.776108;0.067995;-0.059756;0.781369;-0.032519;0.007566;-0.045205;1.674887;4.2979;0.232672;0.597055;0.036973;-0.061925;0.049449;114.868668;69.868668;0.065932;0.057701;-0.032519;-0.087727;-0.002683;0.007566;0.085045;0.435132;-0.024952;0.024952;0.037595
-0.169641;-0.269616;0.562362;-0.77596;0.067676;-0.063999;0.781531;0.016999;0.008005;-0.020477;0.252883;-2.123634;-0.470891;3.954392;0.033466;-0.008463;0.020965;158.150375;113.150368;0.027953;0.025602;0.016999;-0.039071;-0.001882;0.008005;0.037189;0.498364;0.025003;-0.025003;0.050406
-0.102475;-0.269616;0.608213;-0.776074;0.067514;-0.052832;0.780794;0.014665;0.005541;0.001733;-0.348612;-2.64656;-0.377849;-2.868521;0.014983;0.005223;0.00488;64.674072;19.67407;0.006507;0.008782;0.014665;0.005123;-0.001658;0.005541;-0.006781;0.555381;0.020207;-0.020207;0.050693
-0.03531;-0.269616;0.703213;-0.776282;0.067543;-0.058416;0.781402;-0.022718;0.003302;0.010334;3.810788;6.879108;0.145368;0.262413;0.006907;-0.026323;0.016615;4.091267;139.091263;0.022153;0.020248;-0.022718;0.0195;0.001168;0.003302;-0.018332;0.644797;-0.019415;0.019415;0.072484
0.031855;-0.269616;0.767704;-0.775978;0.067695;-0.059658;0.781206;0.009328;-0.002762;0.013046;0.628243;3.3771;0.296112;1.591742;0.017661;-0.011096;0.014378;115.897858;70.897858;0.019171;0.016746;0.009328;0.026887;-7.946186e-04;-0.002762;-0.027681;0.708046;0.006566;-0.006566;0.067899
0.099021;-0.269616;0.787471;-0.776101;0.06736;-0.054243;0.780904;0.005878;-9.521199e-04;0.010192;0.627194;6.173177;0.161991;1.594402;0.013212;-0.008286;0.010749;119.86377;74.86377;0.014332;0.01252;0.005878;0.022033;-0.001648;-9.521199e-04;-0.023681;0.733228;0.004925;-0.004925;0.058878
0.166186;-0.269616;0.827492;-0.77642;0.067552;-0.058252;0.781527;-0.026471;0.002034;-0.006741;7.888845;13.015727;0.07683;0.126761;0.003547;-0.027985;0.015766;70.370178;25.370178;0.021021;0.019944;-0.026471;-0.01255;-9.312365e-04;0.002034;0.011619;0.769239;-0.024437;0.024437;0.05473
0.233352;-0.269616;0.843645;-0.776254;0.067235;-0.06606;0.781955;-0.011767;-0.00681;-0.01161;8.19098;-1.727769;-0.578781;0.122086;0.002583;-0.02116;0.011872;106.711632;61.711636;0.015829;0.015042;-0.011767;-0.021053;-0.002168;-0.00681;0.018886;0.777586;-0.018577;0.018577;0.017628
0.300517;-0.269616;0.858108;-0.776341;0.067293;-0.06487;0.781947;0.016477;0.005339;0.008492;-0.035721;-3.086199;-0.324023;-27.9951;0.021063;7.523833e-04;0.010155;91.071457;46.071461;0.01354;0.013798;0.016477;0.016243;7.40992e-04;0.005339;-0.015502;0.793238;0.021815;-0.021815;0.088244
0.367682;-0.269616;0.872964;-0.776388;0.06693;-0.055756;0.78126;0.013468;0.007807;0.008847;-0.067646;-1.725147;-0.579661;-14.782924;0.019926;0.001348;0.009289;106.527069;61.527069;0.012386;0.012858;0.013468;0.021887;-0.004192;0.007807;-0.02608;0.817208;0.021274;-0.021274;0.06219
0.434848;-0.269616;0.89738;-0.776553;0.066715;-0.058083;0.781574;0.002894;-0.007478;3.673625e-04;2.576991;0.386986;2.584073;0.388049;0.002907;-0.007491;0.005199;119.620094;74.620094;0.006932;0.006194;0.002894;0.001961;-0.001226;-0.007478;-0.003187;0.839297;-0.004584;0.004584;0.039768
0.502013;-0.269616;0.899657;-0.776644;0.066616;-0.053848;0.781354;1.180155e-04;-4.120074e-04;-9.895847e-04;1.335049;0.28644;3.491129;0.749036;8.774595e-04;-0.001171;0.001024;107.615814;62.615814;0.001366;0.001187;1.180155e-04;-0.001044;-9.353855e-04;-4.120074e-04;1.083985e-04;0.845809;-2.939919e-04;2.939919e-04;0.019977
0.569178;-0.269616;0.904418;-0.776686;0.066684;-0.056737;0.781606;-0.005627;0.005088;-0.001365;1.102513;1.105963;0.904189;0.907019;0.005259;-0.005799;0.005529;87.17173;42.17173;0.007372;0.006387;-0.005627;-0.002108;-6.229545e-04;0.005088;0.001485;0.847681;-5.391547e-04;5.391547e-04;0.072971
0.636344;-0.269616;0.930566;-0.776986;0.066571;-0.057646;0.78196;1.679978e-04;0.008871;-0.003817;0.123068;-0.018937;-52.805374;8.12556;0.010308;-0.001269;0.005788;146.199783;101.199776;0.007718;0.007331;1.679978e-04;-0.00536;-0.002273;0.008871;0.003087;0.872919;0.009039;-0.009039;0.057808
0.703509;-0.269616;0.929383;-0.777069;0.066435;-0.053942;0.781766;-0.001117;0.003548;0.003019;0.516766;0.314836;3.176261;1.935112;0.00503;-0.002599;0.003815;146.235382;101.235382;0.005086;0.004479;-0.001117;0.007486;-0.001449;0.003548;-0.008934;0.875441;0.002431;-0.002431;0.058266
0.770674;-0.269616;0.951876;-0.776746;0.066521;-0.059738;0.781875;0.005074;0.006117;-0.004222;-0.13612;-0.829518;-1.205519;-7.346449;0.00985;0.001341;0.004255;153.163589;108.163589;0.005673;0.006168;0.005074;-0.010146;0.001701;0.006117;0.011848;0.892137;0.011191;-0.011191;0.036813
0.83784;-0.269616;0.932833;-0.776834;0.066428;-0.05909;0.781905;-0.001014;0.00643;-0.003264;0.292785;0.157696;6.3413;3.415472;0.007659;-0.002242;0.00495;165.173248;120.173248;0.006601;0.005995;-0.001014;-0.002326;-0.004202;0.00643;-0.001876;0.873744;0.005416;-0.005416;0.033512
0.905005;-0.269616;0.885536;-0.77685;0.065855;-0.059809;0.781927;-0.012039;0.005851;0.006971;1.750293;2.057464;0.486035;0.571333;0.008247;-0.014435;0.011341;172.423355;127.423363;0.015121;0.013257;-0.012039;0.01434;-3.972664e-04;0.005851;-0.014737;0.825727;-0.006188;0.006188;0.046406
0.97217;-0.269616;0.864206;-0.777296;0.066223;-0.054633;0.782023;-0.006482;0.012232;0.006274;0.593409;0.529958;1.886943;1.685177;0.014141;-0.008391;0.011266;149.387985;104.387985;0.015021;0.013149;-0.006482;0.011825;7.237685e-04;0.012232;-0.011101;0.809573;0.005749;-0.005749;0.035484
1.039336;-0.269616;0.84639;-0.777299;0.066002;-0.057848;0.782238;0.005112;0.007364;0.006966;0.0616;-0.694133;-1.440645;16.233812;0.013294;-8.189324e-04;0.007057;117.661957;72.661957;0.009409;0.009148;0.005112;0.013457;4.750397e-04;0.007364;-0.012982;0.788542;0.012475;-0.012475;0.02398
1.106501;-0.269616;0.790301;-0.777176;0.066425;-0.056192;0.782031;-0.00337;0.003497;0.004808;0.978699;0.963624;1.037749;1.021764;0.005972;-0.005844;0.005908;152.302643;107.30265;0.007877;0.006822;-0.00337;0.008757;8.591189e-04;0.003497;-0.007898;0.734109;1.271977e-04;-1.271977e-04;0.018457
1.173667;-0.269616;0.751766;-0.7774;0.066235;-0.056368;0.78225;3.316161e-04;7.943541e-04;0.004625;0.783217;-0.417466;-2.395403;1.276785;0.005194;-0.004068;0.004631;133.376404;88.376396;0.006175;0.005361;3.316161e-04;0.009884;-6.332542e-04;7.943541e-04;-0.010517;0.695398;0.001126;-0.001126;0.02686
1.240832;-0.269616;0.699526;-0.777512;0.066358;-0.059021;0.782567;-0.001262;-3.364809e-04;0.00368;1.549143;-3.749443;-0.266706;0.645518;0.00291;-0.004508;0.003709;144.556137;99.556137;0.004946;0.004316;-0.001262;0.007456;-9.56906e-05;-3.364809e-04;-0.007552;0.640505;-0.001598;0.001598;0.0334
1.307997;-0.269616;0.651529;-0.777587;0.066269;-0.056857;0.782474;-0.026418;0.00322;-0.008243;5.330034;8.205669;0.121867;0.187616;0.005358;-0.028556;0.016957;75.245682;30.24568;0.022609;0.021052;-0.026418;-0.015325;-0.00116;0.00322;0.014165;0.594672;-0.023199;0.023199;0.023443
1.375163;-0.269616;0.59176;-0.777923;0.06595;-0.050895;0.782371;-0.019694;0.002178;-0.008927;4.268488;9.041604;0.1106;0.234275;0.005359;-0.022874;0.014117;85.643188;40.643192;0.018822;0.017314;-0.019694;-0.016829;-0.001024;0.002178;0.015805;0.540865;-0.017515;0.017515;0.027217
1.442328;-0.269616;0.478968;-0.777933;0.065826;-0.051001;0.782377;0.049977;0.002491;-0.009464;-0.013011;-20.067009;-0.049833;-76.856186;0.051794;6.73908e-04;0.02556;23.687563;158.687561;0.03408;0.034307;0.049977;-0.019478;5.502542e-04;0.002491;0.020028;0.427967;0.052468;-0.052468;0.036023
-0.303971;-0.336782;0.360108;-0.776288;0.067932;-0.045968;0.780609;-0.02527;0.005258;-0.016665;2.589238;4.806407;0.208056;0.386214;0.012593;-0.032605;0.022599;95.915237;50.915241;0.030132;0.026934;-0.02527;-0.030599;-0.002731;0.005258;0.027869;0.31414;-0.020013;0.020013;0.063319
-0.236806;-0.336782;0.472041;-0.776252;0.067519;-0.048819;0.78071;-0.0305;0.003836;-0.025337;2.5437;7.951973;0.125755;0.393128;0.017273;-0.043938;0.030606;102.776901;57.776897;0.040807;0.036441;-0.0305;-0.048129;-0.002545;0.003836;0.045585;0.423222;-0.026665;0.026665;0.083004
-0.169641;-0.336782;0.562267;-0.776217;0.067532;-0.054408;0.781047;-0.017775;0.004247;-0.016326;2.046345;4.18483;0.238958;0.488676;0.012928;-0.026456;0.019692;105.664703;60.664703;0.026256;0.023181;-0.017775;-0.03105;-0.001602;0.004247;0.029449;0.507859;-0.013528;0.013528;0.054753
-0.102475;-0.336782;0.612751;-0.776332;0.067146;-0.055449;0.781201;0.001456;0.003208;-3.864255e-04;-0.417842;-0.453826;-2.203486;-2.393247;0.00329;0.001375;9.576172e-04;140.882904;95.882904;0.001277;0.001908;0.001456;-8.835746e-04;1.107237e-04;0.003208;9.942983e-04;0.557302;0.004665;-0.004665;0.052042
-0.03531;-0.336782;0.662374;-0.776622;0.067288;-0.055398;0.781498;-0.012975;5.582107e-06;-0.008302;4.199981;0;0;0.238096;0.004053;-0.017022;0.010538;97.550819;52.550816;0.01405;0.012913;-0.012975;-0.016945;3.413442e-04;5.582107e-06;0.017286;0.606976;-0.012969;0.012969;0.062488
0.031855;-0.336782;0.756005;-0.775986;0.067339;-0.06002;0.781211;-3.573801e-04;-0.003057;-0.009995;1.407496;-0.116907;-8.553787;0.710482;0.008379;-0.011793;0.010086;133.226379;88.226387;0.013448;0.011702;-3.573801e-04;-0.018587;-0.001403;-0.003057;0.017184;0.695984;-0.003414;0.003414;0.049949
0.099021;-0.336782;0.790744;-0.776047;0.067346;-0.055742;0.780955;0.013861;-0.001261;-0.001355;0.098842;10.988097;0.091008;10.117152;0.013981;-0.001382;0.007682;26.375263;161.375259;0.010242;0.009814;0.013861;-0.004577;0.001867;-0.001261;0.006444;0.735002;0.012599;-0.012599;0.03486
0.166186;-0.336782;0.801425;-0.77647;0.067341;-0.052037;0.781119;-0.001206;-6.627128e-04;-0.009539;1.217041;-1.819504;-0.5496;0.821665;0.008609;-0.010478;0.009543;131.77504;86.77504;0.012724;0.011037;-0.001206;-0.02062;0.001541;-6.627128e-04;0.022162;0.749388;-0.001869;0.001869;0.04868
0.233352;-0.336782;0.803119;-0.776556;0.066986;-0.05296;0.781236;-0.013503;9.937518e-04;-0.016493;2.063675;13.588204;0.073593;0.484572;0.011761;-0.02427;0.018015;107.945518;62.945518;0.024021;0.021216;-0.013503;-0.027161;-0.005825;9.937518e-04;0.021336;0.750159;-0.01251;0.01251;0.019013
0.300517;-0.336782;0.846137;-0.776689;0.067104;-0.060784;0.781948;-0.007354;0.002847;-0.017441;1.283123;2.583086;0.387134;0.779349;0.015918;-0.020425;0.018171;121.552788;76.552788;0.024229;0.021036;-0.007354;-0.029489;-0.005393;0.002847;0.024095;0.785353;-0.004507;0.004507;0.0262
0.367682;-0.336782;0.875063;-0.776553;0.066703;-0.058305;0.78159;0.007915;0.004233;-0.007435;0.115414;-1.869843;-0.534804;8.664453;0.013734;-0.001585;0.007659;172.254654;127.254646;0.010213;0.009727;0.007915;-0.010857;-0.004012;0.004233;0.006845;0.816758;0.012149;-0.012149;0.022953
0.434848;-0.336782;0.932678;-0.776393;0.066656;-0.056414;0.781289;0.011493;0.002673;-0.003206;-0.130111;-4.299011;-0.232612;-7.68572;0.012535;0.001631;0.005452;19.812956;154.812958;0.007269;0.00787;0.011493;-0.005019;-0.001394;0.002673;0.003625;0.876264;0.014166;-0.014166;0.026151
0.502013;-0.336782;0.925938;-0.776664;0.066662;-0.05108;0.781192;-0.003718;0.005588;-0.001875;0.685824;0.665383;1.502894;1.458101;0.005952;-0.004082;0.005017;111.83918;66.83918;0.006689;0.005827;-0.003718;-0.004221;4.706937e-04;0.005588;0.004692;0.874858;0.00187;-0.00187;0.044831
0.569178;-0.336782;0.920953;-0.776742;0.066513;-0.05034;0.781208;-0.002638;0.008867;-0.00563;0.442;0.297496;3.361392;2.262444;0.011163;-0.004934;0.008049;135.020645;90.020638;0.010732;0.009523;-0.002638;-0.008673;-0.002586;0.008867;0.006087;0.870613;0.006229;-0.006229;0.091447
0.636344;-0.336782;0.947773;-0.776845;0.066082;-0.051377;0.781341;-0.006053;0.010675;-0.008719;0.678874;0.567028;1.763581;1.473027;0.014393;-0.009771;0.012082;123.739365;78.739365;0.016109;0.014036;-0.006053;-0.01465;-0.002788;0.010675;0.011862;0.896396;0.004622;-0.004622;0.023599
0.703509;-0.336782;0.974715;-0.776859;0.066141;-0.05221;0.781416;0.011554;0.008641;0.011159;0.05413;-1.337104;-0.747885;18.474087;0.021351;-0.001156;0.011254;105.402527;60.402527;0.015005;0.014635;0.011554;0.019117;0.003201;0.008641;-0.015916;0.922504;0.020196;-0.020196;0.043728
0.770674;-0.336782;0.914462;-0.777064;0.0663;-0.063916;0.782502;0.022454;0.002266;0.003296;-0.075763;-9.911279;-0.100895;-13.199082;0.022979;0.001741;0.010619;61.180569;16.180571;0.014159;0.014773;0.022454;0.006442;1.512293e-04;0.002266;-0.00629;0.850546;0.02472;-0.02472;0.051257
0.83784;-0.336782;0.907365;-0.777181;0.066238;-0.060356;0.78233;-0.009425;9.06138e-04;0.002048;7.56676;10.400943;0.096145;0.132157;0.001297;-0.009816;0.005556;5.134091;140.134094;0.007409;0.007016;-0.009425;0.008892;-0.004797;9.06138e-04;-0.013689;0.847009;-0.008519;0.008519;0.02887
0.905005;-0.336782;0.891716;-0.777213;0.065549;-0.056205;0.781995;-0.011358;0.004448;0.001862;2.481532;2.553597;0.391604;0.402977;0.004664;-0.011574;0.008119;14.69559;149.695587;0.010826;0.009654;-0.011358;0.005613;-0.001889;0.004448;-0.007502;0.835511;-0.00691;0.00691;0.094788
0.97217;-0.336782;0.887745;-0.777327;0.066033;-0.052455;0.781888;-0.002362;0.008758;0.005032;0.40206;0.269686;3.708019;2.487193;0.010697;-0.004301;0.007499;136.978317;91.978325;0.009999;0.008918;-0.002362;0.008356;0.001708;0.008758;-0.006647;0.83529;0.006396;-0.006396;0.085427
1.039336;-0.336782;0.866929;-0.777478;0.065918;-0.056234;0.782291;0.014456;0.004987;0.006301;-0.104504;-2.898724;-0.344979;-9.568977;0.017603;0.00184;0.007882;89.526512;44.526508;0.010509;0.011173;0.014456;0.013357;-7.542484e-04;0.004987;-0.014111;0.810695;0.019443;-0.019443;0.031319
1.106501;-0.336782;0.803062;-0.777313;0.065887;-0.056777;0.782163;0.004321;0.003306;3.242158e-04;-0.727271;-1.30696;-0.765134;-1.375002;0.004416;0.003212;6.021995e-04;56.008354;11.008356;8.029327e-04;0.002636;0.004321;-3.865844e-04;0.001035;0.003306;0.001422;0.746285;0.007628;-0.007628;0.033264
1.173667;-0.336782;0.753174;-0.777472;0.066052;-0.057291;0.782373;-0.014232;0.002476;0.002459;5.153169;5.747535;0.173988;0.194055;0.00283;-0.014586;0.008708;35.565372;170.565369;0.011611;0.010792;-0.014232;0.002712;0.002206;0.002476;-5.066599e-04;0.695883;-0.011756;0.011756;0.034869
1.240832;-0.336782;0.691331;-0.777746;0.06629;-0.05333;0.782386;-0.0018;0.003976;0.01451;0.863028;0.452815;2.208409;1.158712;0.015883;-0.013707;0.014795;138.37648;93.376488;0.019727;0.017099;-0.0018;0.02832;7.006006e-04;0.003976;-0.027619;0.638001;0.002175;-0.002175;0.040219
1.307997;-0.336782;0.647524;-0.777625;0.066175;-0.060072;0.782744;-0.006777;0.001623;0.010563;1.586323;4.175136;0.239513;0.630388;0.008791;-0.013945;0.011368;151.851654;106.851646;0.015157;0.013238;-0.006777;0.022668;-0.001542;0.001623;-0.02421;0.587452;-0.005154;0.005154;0.035928
1.375163;-0.336782;0.565154;-0.777814;0.066002;-0.052802;0.782393;-0.02391;2.137169e-04;-0.002706;47.153366;111.87751;0.008938;0.021207;5.134273e-04;-0.02421;0.012362;57.233887;12.233885;0.016482;0.016314;-0.02391;-0.005186;-2.248708e-04;2.137169e-04;0.004961;0.512352;-0.023696;0.023696;0.006474
1.442328;-0.336782;0.464247;-0.777984;0.066083;-0.049006;0.782322;0.08729;-1.458658e-04;-0.014471;0.027657;598.425598;0.001671;36.156914;0.089623;-0.002479;0.046051;28.390392;163.390396;0.061401;0.060592;0.08729;-0.026068;-0.002874;-1.458658e-04;0.023194;0.415241;0.087144;-0.087144;0.028193
1.509493;-0.336782;0.385016;-0.777577;0.065251;-0.083023;0.784714;0.241538;2.812385e-04;0.008139;0;-858.837769;-0.001164;0;0.241813;6.94103e-06;0.120903;50.608177;5.608178;0.161204;0.161206;0.241538;0.023749;-0.00747;2.812385e-04;-0.031219;0.301993;0.241819;-0.241819;0.012296
-0.303971;-0.403947;0.351476;-0.776214;0.067593;-0.048344;0.78065;0.001788;0.006723;0.041727;0.81521;-0.265975;-3.759753;1.226678;0.046055;-0.037545;0.0418;133.926407;88.926414;0.055734;0.04835;0.001788;0.085671;-0.002216;0.006723;-0.087887;0.303132;0.008511;-0.008511;0.062267
-0.236806;-0.403947;0.474408;-0.776255;0.067276;-0.049783;0.780753;-0.010003;0.005555;0.019013;1.242752;1.800472;0.55541;0.804666;0.018319;-0.022766;0.020543;149.034805;104.034813;0.02739;0.023767;-0.010003;0.040835;-0.002809;0.005555;-0.043644;0.424625;-0.004447;0.004447;0.048962
-0.169641;-0.403947;0.55108;-0.776435;0.066903;-0.054286;0.781201;-0.022973;0.003787;2.850565e-04;6.06233;6.066389;0.164843;0.164953;0.00379;-0.022976;0.013383;41.084644;176.084641;0.017844;0.016724;-0.022973;0.001397;-8.266081e-04;0.003787;-0.002223;0.496793;-0.019186;0.019186;0.048862
-0.102475;-0.403947;0.628476;-0.776303;0.067341;-0.058702;0.781426;0.002202;0.002625;-0.004966;0.346336;-0.838757;-1.192241;2.887371;0.007383;-0.002557;0.00497;144.094254;99.094254;0.006627;0.00596;0.002202;-0.011376;0.001445;0.002625;0.012821;0.569775;0.004826;-0.004826;0.068862
-0.03531;-0.403947;0.667013;-0.776389;0.067291;-0.052009;0.781033;0.001327;0.0029;-0.007159;0.546287;-0.457542;-2.185593;1.830539;0.009316;-0.005089;0.007202;140.205124;95.205132;0.009603;0.008435;0.001327;-0.014212;-1.06119e-04;0.0029;0.014106;0.615004;0.004227;-0.004227;0.045389
0.031855;-0.403947;0.713162;-0.776273;0.06709;-0.054655;0.781082;-0.010407;6.380805e-04;-0.004592;5.251879;16.309874;0.061313;0.190408;0.002298;-0.012066;0.007182;87.171738;42.171738;0.009576;0.008909;-0.010407;-0.009409;2.255094e-04;6.380805e-04;0.009634;0.658507;-0.009769;0.009769;0.028177
0.099021;-0.403947;0.761545;-0.77625;0.067298;-0.054866;0.781091;0.014302;0.002281;0.001927;-0.135537;-6.271498;-0.159452;-7.378055;0.014603;0.001979;0.006312;64.424095;19.424095;0.008416;0.009147;0.014302;0.005122;-0.001269;0.002281;-0.006391;0.706678;0.016583;-0.016583;0.00287
0.166186;-0.403947;0.814857;-0.776212;0.066847;-0.051446;0.780782;0.022173;0.003775;-0.004527;-0.117174;-5.873452;-0.170258;-8.534308;0.023227;0.002722;0.010253;33.387779;168.387772;0.01367;0.014662;0.022173;-0.003852;-0.005202;0.003775;-0.00135;0.763411;0.025948;-0.025948;0.016777
0.233352;-0.403947;0.83346;-0.776535;0.06649;-0.046432;0.780759;-0.003949;0.009274;-0.006288;0.548233;0.425843;2.348283;1.824043;0.011786;-0.006462;0.009124;131.576523;86.576515;0.012165;0.010684;-0.003949;-0.009507;-0.003068;0.009274;0.006438;0.787028;0.005325;-0.005325;0.040444
0.300517;-0.403947;0.841391;-0.776769;0.066491;-0.050561;0.781248;-0.019721;0.007461;-0.013201;1.956594;2.643286;0.378317;0.511092;0.012817;-0.025077;0.018947;100.753899;55.753899;0.025263;0.022257;-0.019721;-0.027886;0.001484;0.007461;0.02937;0.79083;-0.012261;0.012261;0.026668
0.367682;-0.403947;0.877945;-0.776499;0.066486;-0.055598;0.781321;-0.015383;0.005076;-0.00989;2.135774;3.030762;0.32995;0.468214;0.009075;-0.019382;0.014229;97.653206;52.65321;0.018971;0.016785;-0.015383;-0.019292;-4.883934e-04;0.005076;0.018804;0.822347;-0.010307;0.010307;0.022184
0.434848;-0.403947;0.913564;-0.77654;0.066479;-0.057312;0.781485;0.003523;0.004158;0.003602;-0.030118;-0.847161;-1.180413;-33.202309;0.007457;2.245803e-04;0.003616;114.57238;69.57238;0.004821;0.004898;0.003523;0.007324;-1.201646e-04;0.004158;-0.007444;0.856252;0.007681;-0.007681;0.032808
0.502013;-0.403947;0.916409;-0.776985;0.066446;-0.050912;0.781482;-0.011485;0.007981;0.011657;1.260825;1.439055;0.6949;0.793131;0.013434;-0.016938;0.015186;159.769669;114.769676;0.020248;0.017574;-0.011485;0.021928;0.001387;0.007981;-0.02054;0.865497;-0.003504;0.003504;0.059207
0.569178;-0.403947;0.911026;-0.77724;0.066425;-0.045544;0.781402;-3.261863e-04;0.00106;0.002844;0.77738;0.307852;3.248319;1.286372;0.003294;-0.002561;0.002928;139.52887;94.528862;0.003903;0.003389;-3.261863e-04;0.00737;-0.001681;0.00106;-0.009051;0.865482;7.333708e-04;-7.333708e-04;0.099311
0.636344;-0.403947;0.943732;-0.777195;0.066274;-0.04981;0.781604;-0.014533;0.00257;-0.001387;5.460933;5.654865;0.176839;0.183119;0.002682;-0.014645;0.008663;43.141018;178.141022;0.011551;0.010769;-0.014533;-1.363032e-05;-0.00276;0.00257;-0.002746;0.893921;-0.011963;0.011963;0.044803
0.703509;-0.403947;0.989298;-0.776983;0.066344;-0.053165;0.78162;0.008341;-0.006496;-0.004566;0.808483;1.284013;0.778808;1.236885;0.009633;-0.007788;0.008711;167.917999;122.917999;0.011614;0.010077;0.008341;-0.011624;0.002493;-0.006496;0.014117;0.936133;0.001845;-0.001845;0.047941
0.770674;-0.403947;0.923578;-0.777126;0.066113;-0.05598;0.78194;0.026071;-0.003918;0.010891;0.251803;6.654726;0.150269;3.971354;0.029609;-0.007456;0.018532;83.577042;38.577042;0.02471;0.022638;0.026071;0.020575;0.001207;-0.003918;-0.019367;0.867598;0.022153;-0.022153;0.016279
0.83784;-0.403947;0.90566;-0.777073;0.065946;-0.059397;0.782125;-4.49783e-04;0.001509;-0.001218;0.493706;0.29797;3.356046;2.025497;0.002093;-0.001033;0.001563;18.044453;153.044449;0.002084;0.001839;-4.49783e-04;7.448109e-04;-0.003181;0.001509;-0.003926;0.846264;0.00106;-0.00106;0.025936
0.905005;-0.403947;0.893751;-0.777275;0.065561;-0.053431;0.781863;-0.003795;0.003382;0.001091;1.116301;1.121879;0.891362;0.895816;0.003545;-0.003957;0.003751;61.096054;16.096056;0.005001;0.004333;-0.003795;8.531435e-04;0.001329;0.003382;4.759889e-04;0.84032;-4.122506e-04;4.122506e-04;0.02892
0.97217;-0.403947;0.901544;-0.777277;0.06605;-0.050172;0.78169;-0.00154;0.005558;-0.004727;0.492609;0.276966;3.61055;2.030008;0.007921;-0.003902;0.005911;127.19648;82.19648;0.007882;0.006956;-0.00154;-0.009884;4.29465e-04;0.005558;0.010314;0.851372;0.004019;-0.004019;0.07662
1.039336;-0.403947;0.870789;-0.777599;0.065701;-0.054637;0.78228;0.018463;0.004068;-0.009642;0.032891;-4.538081;-0.220357;30.403091;0.023297;-7.662833e-04;0.012032;3.238529;138.238525;0.016042;0.015793;0.018463;-0.016215;-0.003069;0.004068;0.013146;0.816152;0.022531;-0.022531;0.068195
1.106501;-0.403947;0.809415;-0.777249;0.065631;-0.057126;0.782104;0.012098;-9.211284e-04;-0.006109;0.230016;13.133968;0.076138;4.347527;0.014516;-0.003339;0.008927;176.228165;131.228165;0.011903;0.010961;0.012098;-0.013904;0.001685;-9.211284e-04;0.015589;0.752288;0.011177;-0.011177;0.038335
1.173667;-0.403947;0.785663;-0.777573;0.066071;-0.058934;0.782597;-0.030919;-0.004002;-0.00939;-32.270657;-7.726677;-0.129422;-0.030988;-0.00105;-0.033871;0.016411;80.206322;35.206326;0.021881;0.022239;-0.030919;-0.021849;0.003068;-0.004002;0.024917;0.726729;-0.034921;0.034921;0.041506
1.240832;-0.403947;0.70949;-0.778008;0.066275;-0.049608;0.7824;-0.023622;0.00197;4.617866e-04;11.944238;11.990513;0.083399;0.083722;0.001978;-0.02363;0.012804;41.267509;176.267502;0.017072;0.016453;-0.023622;0.001485;-5.612141e-04;0.00197;-0.002046;0.659882;-0.021652;0.021652;0.049543
1.307997;-0.403947;0.652773;-0.777793;0.065927;-0.052256;0.782329;0.006247;0.003703;0.009077;0.29634;-1.68687;-0.592814;3.374505;0.014141;-0.00419;0.009166;118.941582;73.941582;0.012221;0.011091;0.006247;0.020178;-0.002024;0.003703;-0.022202;0.600516;0.00995;-0.00995;0.03907
1.375163;-0.403947;0.573912;-0.777733;0.06596;-0.052472;0.782287;-0.007047;0.004741;0.002671;1.433711;1.486512;0.672716;0.69749;0.005318;-0.007625;0.006471;179.891464;134.891464;0.008628;0.007512;-0.007047;0.005242;1.011953e-04;0.004741;-0.005141;0.521439;-0.002306;0.002306;0.002782
1.442328;-0.403947;0.472799;-0.77783;0.066079;-0.054535;0.782535;0.076751;0.0041;0.007456;-0.043128;-18.719707;-0.05342;-23.18705;0.077508;0.003343;0.037083;58.139446;13.139445;0.049444;0.050595;0.076751;0.018046;-0.003134;0.0041;-0.021181;0.418264;0.080851;-0.080851;0.040147
1.509493;-0.403947;0.395465;-0.77745;0.065121;-0.075974;0.783863;0.175821;0.00193;0.033495;0.023613;-91.099831;-0.010977;42.349457;0.182049;-0.004299;0.093174;68.09108;23.091078;0.124232;0.122824;0.175821;0.075153;-0.008163;0.00193;-0.083315;0.31949;0.177751;-0.177751;0.039587
-0.303971;-0.471112;0.347351;-0.776064;0.067462;-0.06247;0.781492;0.034523;0.004752;0.03941;0.364116;-7.26426;-0.13766;2.746379;0.061765;-0.02249;0.042128;111.61232;66.61232;0.05617;0.050376;0.034523;0.079525;-7.046341e-04;0.004752;-0.08023;0.284881;0.039276;-0.039276;0.049487
-0.236806;-0.471112;0.457363;-0.77632;0.067344;-0.054495;0.781139;0.021205;0.003566;0.021165;0.298554;-5.946323;-0.168171;3.349475;0.035315;-0.010543;0.022929;109.718536;64.718536;0.030572;0.027734;0.021205;0.044517;-0.002187;0.003566;-0.046704;0.402869;0.024771;-0.024771;0.057887
-0.169641;-0.471112;0.530015;-0.776592;0.066746;-0.052659;0.781232;-0.002813;6.092424e-04;0.001469;2.911306;4.617595;0.216563;0.343488;0.001153;-0.003357;0.002255;173.342453;128.342453;0.003007;0.002706;-0.002813;0.003602;-6.640654e-04;6.092424e-04;-0.004266;0.477356;-0.002204;0.002204;0.041227
-0.102475;-0.471112;0.621769;-0.776496;0.067045;-0.053321;0.781206;0.004443;0.002416;-0.006687;0.327031;-1.838724;-0.543855;3.057817;0.010193;-0.003334;0.006763;151.775864;106.775864;0.009018;0.008138;0.004443;-0.014064;6.903887e-04;0.002416;0.014755;0.568448;0.00686;-0.00686;0.034889
-0.03531;-0.471112;0.687077;-0.776527;0.066971;-0.051786;0.781128;-0.002541;0.004998;-0.002999;0.593612;0.508416;1.966892;1.684603;0.006045;-0.003589;0.004817;131.386536;86.386536;0.006423;0.005622;-0.002541;-0.00426;-0.001739;0.004998;0.002521;0.63529;0.002457;-0.002457;0.036641
0.031855;-0.471112;0.698733;-0.776657;0.066763;-0.056453;0.781563;-0.014469;0.005228;0.00219;2.689707;2.767458;0.361342;0.371788;0.005469;-0.01471;0.010089;26.795038;161.795044;0.013452;0.01205;-0.014469;0.004235;1.452658e-04;0.005228;-0.00409;0.64228;-0.009241;0.009241;0.02696
0.099021;-0.471112;0.767268;-0.776965;0.067041;-0.056745;0.781914;0.009938;0.005452;0.005105;-0.159674;-1.822978;-0.548553;-6.262772;0.013271;0.002119;0.005576;93.955864;48.955864;0.007434;0.008232;0.009938;0.009845;3.643478e-04;0.005452;-0.009481;0.710523;0.01539;-0.01539;0.032538
0.166186;-0.471112;0.812716;-0.776409;0.06683;-0.052941;0.781077;0.033442;0.003883;0.004731;-0.091983;-8.613094;-0.116102;-10.871599;0.034181;0.003144;0.015518;65.202324;20.202322;0.020691;0.021815;0.033442;0.01252;-0.003059;0.003883;-0.015579;0.759775;0.037325;-0.037325;0.010782
0.233352;-0.471112;0.82477;-0.776728;0.066515;-0.044724;0.780853;0.002044;9.774505e-04;2.972551e-04;-0.424419;-2.090844;-0.478276;-2.35616;0.002121;9.001796e-04;6.10394e-04;92.156288;47.156288;8.138586e-04;0.001229;0.002044;0.003562;-0.002967;9.774505e-04;-0.006529;0.780047;0.003021;-0.003021;0.022334
0.300517;-0.471112;0.828954;-0.776868;0.0663;-0.048687;0.781211;-0.018984;0.001465;-0.001451;12.175026;12.956546;0.077181;0.082135;0.001568;-0.019086;0.010327;47.39893;2.398929;0.013769;0.013278;-0.018984;-9.491439e-04;-0.001953;0.001465;-0.001004;0.780267;-0.017519;0.017519;0.028434
0.367682;-0.471112;0.893643;-0.776713;0.066227;-0.051578;0.781236;-0.024801;0.002657;-0.00529;7.081234;9.33304;0.107146;0.141218;0.003641;-0.025785;0.014713;64.810463;19.810459;0.019618;0.018524;-0.024801;-0.009005;-0.001575;0.002657;0.00743;0.842065;-0.022144;0.022144;0.048369
0.434848;-0.471112;0.913155;-0.776676;0.06613;-0.060266;0.781813;-0.004711;9.000198e-04;3.099762e-04;5.155686;5.234513;0.19104;0.193961;9.170917e-04;-0.004728;0.002823;45.139614;0.139613;0.003764;0.003498;-0.004711;9.003362e-05;5.299188e-04;9.000198e-04;4.398852e-04;0.852889;-0.003811;0.003811;0.054856
0.502013;-0.471112;0.889731;-0.777277;0.066326;-0.054266;0.781987;-0.017062;0.005859;0.003617;2.745871;2.911921;0.343416;0.364183;0.006417;-0.017619;0.012018;17.298227;152.298233;0.016024;0.014371;-0.017062;0.007976;-7.412045e-04;0.005859;-0.008717;0.835466;-0.011202;0.011202;0.047972
0.569178;-0.471112;0.862955;-0.777589;0.066308;-0.048951;0.781945;7.518885e-04;0.01138;0.003857;0.039594;-0.06607;-15.135539;25.256428;0.012632;-5.001613e-04;0.006566;137.105499;92.105492;0.008755;0.008593;7.518885e-04;0.00898;-0.001266;0.01138;-0.010246;0.814004;0.012132;-0.012132;0.04679
0.636344;-0.471112;0.904435;-0.777425;0.066224;-0.052892;0.782031;-0.005616;0.009286;6.63622e-04;0.606031;0.60478;1.653494;1.650079;0.009316;-0.005645;0.007481;146.563568;101.563568;0.009974;0.008724;-0.005616;0.001648;-3.209917e-04;0.009286;-0.001969;0.851543;0.00367;-0.00367;0.073572
0.703509;-0.471112;0.923809;-0.777304;0.066123;-0.0524;0.78187;-0.00149;-0.004806;0.001214;-4.759669;-0.310045;-3.225338;-0.210099;-0.001093;-0.005203;0.002055;147.905014;102.905022;0.00274;0.003168;-0.00149;0.001792;6.361516e-04;-0.004806;-0.001156;0.871408;-0.006297;0.006297;0.054021
0.770674;-0.471112;0.907821;-0.777499;0.065903;-0.050226;0.781901;0.021244;-0.008804;-0.004731;0.433806;2.412989;0.414424;2.30518;0.021971;-0.009531;0.015751;29.837107;164.837112;0.021002;0.018655;0.021244;-0.006149;-0.003312;-0.008804;0.002837;0.857595;0.01244;-0.01244;0.044266
0.83784;-0.471112;0.891568;-0.777451;0.065942;-0.063584;0.782829;0.008038;-1.61304e-04;-0.004731;0.227661;49.830803;0.020068;4.392491;0.010198;-0.002322;0.00626;19.663479;154.663483;0.008347;0.007691;0.008038;-0.00484;-0.004622;-1.61304e-04;2.177663e-04;0.827984;0.007877;-0.007877;0.030771
0.905005;-0.471112;0.892895;-0.777306;0.065731;-0.063746;0.78268;-0.004143;0.003851;0.001865;1.068481;1.075838;0.929508;0.935908;0.004264;-0.004556;0.00441;169.291672;124.291672;0.00588;0.005093;-0.004143;0.004187;-4.570108e-04;0.003851;-0.004644;0.829149;-2.920202e-04;2.920202e-04;0.03301
0.97217;-0.471112;0.873852;-0.777196;0.065876;-0.05859;0.78218;-0.004554;0.010939;-0.004245;0.469073;0.416311;2.402053;2.131866;0.012026;-0.005641;0.008833;119.377167;74.377167;0.011778;0.01042;-0.004554;-0.009768;0.001278;0.010939;0.011046;0.815262;0.006385;-0.006385;0.034955
1.039336;-0.471112;0.849503;-0.777252;0.065509;-0.059005;0.782237;0.00412;0.00407;-0.00658;0.232742;-1.012208;-0.987939;4.296601;0.010675;-0.002484;0.00658;156.199768;111.199768;0.008773;0.008073;0.00412;-0.011099;-0.002061;0.00407;0.009038;0.790499;0.00819;-0.00819;0.027347
1.106501;-0.471112;0.820065;-0.777404;0.065493;-0.060111;0.78247;0.009093;0.00174;0.002225;-0.11517;-5.227419;-0.191299;-8.682837;0.009714;0.001119;0.004298;59.455723;14.455723;0.00573;0.006137;0.009093;0.00201;0.002439;0.00174;4.289161e-04;0.759954;0.010833;-0.010833;0.045695
1.173667;-0.471112;0.816585;-0.777718;0.065972;-0.063933;0.783125;-0.02602;0.001846;-0.007894;7.155118;14.091991;0.070962;0.13976;0.003927;-0.028101;0.016014;78.9543;33.954304;0.021352;0.020171;-0.02602;-0.017465;0.001677;0.001846;0.019141;0.752651;-0.024173;0.024173;0.067611
1.240832;-0.471112;0.699886;-0.777816;0.066121;-0.05313;0.782427;-0.030728;0.00292;-0.026827;2.565544;10.522357;0.095036;0.389781;0.017762;-0.04557;0.031666;104.362717;59.362717;0.042222;0.037722;-0.030728;-0.051724;-0.00193;0.00292;0.049794;0.646756;-0.027808;0.027808;0.005902
1.307997;-0.471112;0.635888;-0.777758;0.065628;-0.052962;0.782316;-0.004733;0.005945;-0.022838;0.949648;0.796214;1.255944;1.053021;0.024059;-0.022848;0.023454;129.309555;84.309547;0.031271;0.027085;-0.004733;-0.042362;-0.003314;0.005945;0.039048;0.582926;0.001211;-0.001211;0.032379
1.375163;-0.471112;0.573762;-0.777996;0.065338;-0.053749;0.782583;-0.013915;0.005454;-0.003618;2.38513;2.551146;0.391981;0.419264;0.006108;-0.014568;0.010338;73.286201;28.2862;0.013784;0.012266;-0.013915;-0.006701;-5.345996e-04;0.005454;0.006167;0.520013;-0.00846;0.00846;0.024373
1.442328;-0.471112;0.460751;-0.778334;0.065459;-0.050607;0.78272;0.048754;0.004408;0.018338;0.039618;-11.060613;-0.090411;25.241257;0.055355;-0.002193;0.028774;83.847336;38.84734;0.038365;0.037655;0.048754;0.039182;-0.002505;0.004408;-0.041687;0.410144;0.053161;-0.053161;0.057867
1.509493;-0.471112;0.373761;-0.777416;0.064894;-0.066502;0.782949;0.117799;-0.002073;0.040291;0.110364;56.83139;0.017596;9.060953;0.130082;-0.014356;0.072219;81.850029;36.850033;0.096293;0.091882;0.117799;0.088483;-0.007902;-0.002073;-0.096385;0.307259;0.115726;-0.115726;9.010587e-04
-0.303971;-0.538278;0.349151;-0.776261;0.067209;-0.062882;0.781699;0.029626;0.005243;-0.016484;0.08089;-5.650936;-0.176962;12.362417;0.037937;-0.003069;0.020503;176.710281;131.710281;0.027337;0.026374;0.029626;-0.032779;-1.895644e-04;0.005243;0.03259;0.28627;0.034868;-0.034868;0.060777
-0.236806;-0.538278;0.451123;-0.776232;0.067225;-0.057435;0.781252;0.017972;6.65268e-04;0.005092;0.037296;-27.014309;-0.037017;26.812733;0.019359;-7.220089e-04;0.010041;78.00856;33.00856;0.013387;0.013153;0.017972;0.011749;-0.001564;6.65268e-04;-0.013313;0.393688;0.018637;-0.018637;0.082983
-0.169641;-0.538278;0.536527;-0.77645;0.066972;-0.054162;0.781213;0.006708;-0.002701;0.019048;0.814706;2.483376;0.402678;1.227437;0.021624;-0.017617;0.01962;125.154419;80.154419;0.026161;0.022695;0.006708;0.03871;-6.139767e-04;-0.002701;-0.039324;0.482365;0.004007;-0.004007;0.034312
-0.102475;-0.538278;0.622595;-0.77641;0.067027;-0.054037;0.781169;0.012018;0.001117;0.012441;0.348172;-10.763895;-0.092903;2.872142;0.02015;-0.007016;0.013583;109.784203;64.784203;0.018111;0.016284;0.012018;0.025458;-5.749968e-04;0.001117;-0.026033;0.568558;0.013135;-0.013135;0.010506
-0.03531;-0.538278;0.699108;-0.776438;0.066671;-0.051874;0.78102;0.003666;0.003014;-0.001354;-0.411484;-1.21633;-0.822146;-2.430228;0.004733;0.001948;0.001393;21.381838;156.381836;0.001857;0.002747;0.003666;5.147112e-04;-0.003223;0.003014;-0.003737;0.647234;0.00668;-0.00668;0.026791
0.031855;-0.538278;0.721935;-0.776433;0.066368;-0.055254;0.781221;-0.012028;0.006682;-0.008755;1.527277;1.800156;0.555507;0.65476;0.010139;-0.015486;0.012813;103.303917;58.303917;0.017083;0.014902;-0.012028;-0.017782;2.716713e-04;0.006682;0.018054;0.666681;-0.005346;0.005346;0.030718
0.099021;-0.538278;0.770047;-0.77642;0.066397;-0.05653;0.781301;-0.006315;0.005329;-0.003741;1.153485;1.185118;0.843798;0.866938;0.006427;-0.007414;0.00692;102.56424;57.564243;0.009227;0.007998;-0.006315;-0.007441;-4.128207e-05;0.005329;0.007399;0.713517;-9.864593e-04;9.864593e-04;0.020644
0.166186;-0.538278;0.797509;-0.776477;0.066437;-0.055514;0.781289;0.021023;-0.002103;0.008099;0.197528;9.998048;0.10002;5.062565;0.023577;-0.004657;0.014117;85.155853;40.155849;0.018823;0.017479;0.021023;0.01766;-0.001461;-0.002103;-0.019121;0.741995;0.01892;-0.01892;0.011351
0.233352;-0.538278;0.828886;-0.776993;0.066463;-0.044591;0.781105;0.00414;-0.007797;0.009772;1.380103;0.530949;1.883419;0.724584;0.009621;-0.013279;0.01145;126.530441;81.530441;0.015267;0.013277;0.00414;0.016854;0.002689;-0.007797;-0.014165;0.784295;-0.003657;0.003657;0.024195
0.300517;-0.538278;0.847818;-0.777009;0.066364;-0.050916;0.781498;-0.009504;-0.003776;0.015591;2.441742;-2.516878;-0.397318;0.409544;0.009211;-0.022492;0.015852;151.578644;106.578644;0.021136;0.018832;-0.009504;0.031427;-2.458766e-04;-0.003776;-0.031673;0.796902;-0.01328;0.01328;0.013268
0.367682;-0.538278;0.893136;-0.776822;0.066299;-0.049359;0.781207;-0.009216;0.00263;0.005784;2.321099;3.504703;0.285331;0.43083;0.004986;-0.011572;0.008279;169.778778;124.778786;0.011039;0.009809;-0.009216;0.013223;-0.001654;0.00263;-0.014878;0.843778;-0.006587;0.006587;0.040616
0.434848;-0.538278;0.894168;-0.7768;0.06613;-0.054928;0.781543;-0.003926;0.001335;-3.009672e-04;2.915583;2.940197;0.340113;0.342985;0.001353;-0.003944;0.002648;33.801777;168.801773;0.003531;0.003177;-0.003926;4.148432e-04;-0.001017;0.001335;-0.001432;0.83924;-0.002591;0.002591;0.052037
0.502013;-0.538278;0.898733;-0.777262;0.066223;-0.054018;0.781946;-0.003358;0.002651;-0.001784;1.225019;1.266593;0.78952;0.816314;0.003141;-0.003847;0.003494;100.068703;55.068707;0.004659;0.004041;-0.003358;-0.003678;1.104429e-04;0.002651;0.003789;0.844716;-7.066921e-04;7.066921e-04;0.033883
0.569178;-0.538278;0.893533;-0.777191;0.06598;-0.054379;0.78188;2.576424e-04;-0.00818;0.001609;15.295359;0.031498;31.748365;0.065379;5.541717e-04;-0.008476;0.004515;122.282707;77.282707;0.00602;0.005844;2.576424e-04;0.005756;-0.002538;-0.00818;-0.008294;0.839154;-0.007922;0.007922;0.003555
0.636344;-0.538278;0.913749;-0.777062;0.065942;-0.053322;0.781676;0.001274;-0.001496;-8.033142e-04;1.149087;0.851512;1.174382;0.870256;0.00149;-0.001712;0.001601;83.698608;38.698612;0.002135;0.00185;0.001274;-4.513504e-04;-0.001155;-0.001496;-7.039276e-04;0.860426;-2.221305e-04;2.221305e-04;0.04567
0.703509;-0.538278;0.896297;-0.777172;0.06591;-0.049368;0.781522;-0.005738;0.007529;-0.001667;0.768413;0.76207;1.312216;1.301384;0.007736;-0.005944;0.00684;161.303009;116.303001;0.00912;0.00792;-0.005738;-9.544291e-04;-0.002379;0.007529;-0.001425;0.846929;0.001791;-0.001791;0.03659
0.770674;-0.538278;0.881532;-0.777366;0.065844;-0.05121;0.781829;0.00368;0.002352;-0.004815;0.23414;-1.56488;-0.639027;4.270956;0.007877;-0.001844;0.00486;161.898438;116.898445;0.00648;0.005962;0.00368;-0.007733;-0.001896;0.002352;0.005837;0.830323;0.006032;-0.006032;0.0424
0.83784;-0.538278;0.882401;-0.777434;0.06584;-0.05876;0.782426;-5.396362e-04;0.005321;5.321602e-04;0.109428;0.101407;9.861251;9.138467;0.005369;-5.875617e-04;0.002978;153.916504;108.916512;0.003971;0.003791;-5.396362e-04;0.003199;-0.002135;0.005321;-0.005334;0.823641;0.004782;-0.004782;0.048924
0.905005;-0.538278;0.891471;-0.777313;0.065769;-0.057506;0.782207;-0.003709;0.005763;0.009626;0.825245;0.643572;1.553828;1.211761;0.011755;-0.009701;0.010728;144.820511;99.820511;0.014304;0.012406;-0.003709;0.01856;6.914575e-04;0.005763;-0.017868;0.833965;0.002054;-0.002054;0.060289
0.97217;-0.538278;0.847661;-0.777453;0.065815;-0.056483;0.782275;0.001087;0.001239;0.008675;0.763604;-0.877154;-1.140051;1.30958;0.009838;-0.007513;0.008676;131.300079;86.300072;0.011567;0.010048;0.001087;0.017053;2.974032e-04;0.001239;-0.016756;0.791177;0.002326;-0.002326;0.042952
1.039336;-0.538278;0.838271;-0.777337;0.065731;-0.058437;0.782297;-0.005348;-2.860937e-04;0.004349;3.544497;-18.69488;-0.053491;0.282127;0.002214;-0.007849;0.005032;160.433167;115.433167;0.006709;0.006106;-0.005348;0.011818;-0.003121;-2.860937e-04;-0.01494;0.779834;-0.005635;0.005635;0.015279
1.106501;-0.538278;0.812205;-0.777799;0.065279;-0.053447;0.782362;0.006496;-0.005038;0.005398;0.830981;1.289472;0.775511;1.203396;0.008629;-0.00717;0.007899;107.638359;62.638359;0.010532;0.009134;0.006496;0.010701;9.465717e-05;-0.005038;-0.010607;0.758758;0.001458;-0.001458;0.038691
1.173667;-0.538278;0.793318;-0.777472;0.065682;-0.062482;0.78274;0.002461;2.781349e-04;0.011076;0.78086;-8.848297;-0.113016;1.28064;0.0125;-0.00976;0.01113;126.990433;81.990433;0.01484;0.012884;0.002461;0.018545;0.003608;2.781349e-04;-0.014937;0.730835;0.002739;-0.002739;0.032298
1.240832;-0.538278;0.716038;-0.77787;0.066022;-0.060714;0.783024;-0.006577;-1.623885e-04;-0.007118;2.518938;-40.502724;-0.02469;0.396993;0.004437;-0.011177;0.007807;109.836311;64.836311;0.010409;0.00929;-0.006577;-0.014005;-2.296112e-04;-1.623885e-04;0.013776;0.655325;-0.00674;0.00674;0.01188
1.307997;-0.538278;0.637174;-0.777902;0.065587;-0.062512;0.783161;-0.018489;-0.003262;-0.017691;3.594146;-5.668402;-0.176417;0.27823;0.008385;-0.030136;0.01926;103.429489;58.429489;0.02568;0.023392;-0.018489;-0.030719;-0.004664;-0.003262;0.026055;0.574662;-0.021751;0.021751;0.062767
1.375163;-0.538278;0.561318;-0.778091;0.065194;-0.052335;0.782569;-0.032813;-5.871355e-04;-0.007674;30.114805;-55.885937;-0.017894;0.033206;0.001147;-0.034547;0.017847;67.748009;22.748013;0.023796;0.023423;-0.032813;-0.013762;-0.001587;-5.871355e-04;0.012175;0.508983;-0.0334;0.0334;0.05811
1.442328;-0.538278;0.466091;-0.778317;0.065294;-0.050449;0.782678;0.025166;0.002189;0.003238;-0.06798;-11.497088;-0.086979;-14.710171;0.025613;0.001741;0.011936;66.925591;21.925591;0.015915;0.016526;0.025166;0.010544;-0.004068;0.002189;-0.014612;0.415641;0.027355;-0.027355;0.051841
1.509493;-0.538278;0.344313;-0.777617;0.064162;-0.062199;0.782735;0.053545;0.002037;0.034088;0.211756;-26.281384;-0.03805;4.722427;0.070514;-0.014932;0.042723;99.794601;54.794601;0.056964;0.052697;0.053545;0.076333;-0.008157;0.002037;-0.084489;0.282114;0.055582;-0.055582;0.059619
-0.303971;-0.605443;0.378085;-0.776266;0.066999;-0.053109;0.78096;0.007884;0.006841;-0.020928;0.479611;-1.152436;-0.867727;2.085024;0.028297;-0.013571;0.020934;145.314804;100.314804;0.027912;0.024666;0.007884;-0.042067;2.123097e-04;0.006841;0.04228;0.324976;0.014725;-0.014725;0.043081
-0.236806;-0.605443;0.470757;-0.776286;0.067011;-0.057713;0.781307;-0.008579;0.003757;-0.023937;1.216179;2.283647;0.437896;0.822248;0.022308;-0.02713;0.024719;124.89473;79.89473;0.032959;0.028588;-0.008579;-0.047837;-3.704672e-05;0.003757;0.0478;0.413044;-0.004822;0.004822;0.066043
-0.169641;-0.605443;0.561921;-0.776506;0.06699;-0.061949;0.781848;-0.004851;0.003912;-0.017726;1.05275;1.239872;0.806535;0.949893;0.01779;-0.018729;0.01826;127.314507;82.314507;0.024346;0.021087;-0.004851;-0.0358;3.481875e-04;0.003912;0.036149;0.499972;-9.384413e-04;9.384413e-04;0.039755
-0.102475;-0.605443;0.616224;-0.776602;0.066978;-0.057271;0.781586;0.013853;0.003511;-0.007528;0.025308;-3.945725;-0.253439;39.512787;0.017815;-4.508632e-04;0.009133;1.724975;136.724976;0.012177;0.01203;0.013853;-0.012752;-0.002304;0.003511;0.010448;0.558952;0.017364;-0.017364;0.022277
-0.03531;-0.605443;0.667982;-0.776506;0.066403;-0.05319;0.781154;0.007648;0.0024;0.004043;-0.020755;-3.186215;-0.313852;-48.180725;0.009844;2.043058e-04;0.00482;101.498154;56.498154;0.006426;0.006495;0.007648;0.011485;-0.003399;0.0024;-0.014885;0.614791;0.010048;-0.010048;0.023854
0.031855;-0.605443;0.73549;-0.776562;0.066358;-0.049615;0.780969;-3.804656e-04;0.001118;0.004165;0.83963;0.340197;2.939469;1.191001;0.004601;-0.003863;0.004232;137.553986;92.553993;0.005643;0.004893;-3.804656e-04;0.008307;2.424584e-05;0.001118;-0.008282;0.685875;7.379013e-04;-7.379013e-04;0.044322
0.099021;-0.605443;0.785403;-0.77636;0.066478;-0.053557;0.781039;-0.018735;0.003727;-0.001922;4.857556;5.026574;0.198943;0.205865;0.003891;-0.018899;0.011395;63.433647;18.433647;0.015193;0.014076;-0.018735;-0.005771;0.001927;0.003727;0.007698;0.731846;-0.015008;0.015008;0.043982
0.166186;-0.605443;0.835029;-0.776705;0.066205;-0.060483;0.781865;-0.01054;-0.002144;0.005142;43.82605;-4.916664;-0.20339;0.022817;2.961756e-04;-0.01298;0.006638;3.817834;138.817841;0.008851;0.008754;-0.01054;0.009043;0.001241;-0.002144;-0.007802;0.774546;-0.012684;0.012684;0.072685
0.233352;-0.605443;0.84733;-0.77714;0.066318;-0.057671;0.782094;-0.00226;0.005343;0.006876;0.672025;0.423096;2.363532;1.488039;0.009398;-0.006315;0.007857;144.219437;99.219437;0.010475;0.00913;-0.00226;0.015191;-0.00144;0.005343;-0.016631;0.789659;0.003082;-0.003082;0.023772
0.300517;-0.605443;0.849942;-0.777226;0.066204;-0.058563;0.782235;0.004524;0.012106;0.011473;0.184728;-0.373706;-2.675902;5.413374;0.020399;-0.003768;0.012084;129.905319;84.905312;0.016111;0.015014;0.004524;0.026805;-0.003858;0.012106;-0.030663;0.791378;0.016631;-0.016631;0.011587
0.367682;-0.605443;0.886315;-0.776918;0.066091;-0.057172;0.781817;0.001951;0.007174;0.005167;0.118461;-0.271994;-3.676553;8.441568;0.010352;-0.001226;0.005789;132.131668;87.131676;0.007719;0.007344;0.001951;0.012315;-0.001982;0.007174;-0.014297;0.829143;0.009126;-0.009126;0.057464
0.434848;-0.605443;0.886838;-0.776963;0.065966;-0.056649;0.781814;-0.002104;0.003527;0.001867;0.652092;0.5966;1.676166;1.533526;0.00409;-0.002667;0.003378;158.464401;113.464401;0.004505;0.00393;-0.002104;0.006106;-0.002372;0.003527;-0.008478;0.830188;0.001423;-0.001423;0.067309
0.502013;-0.605443;0.901299;-0.777263;0.065867;-0.053263;0.781865;-4.632949e-04;0.001097;7.904432e-04;0.556152;0.422411;2.36736;1.79807;0.001427;-7.937785e-04;0.001111;149.052719;104.052719;0.001481;0.0013;-4.632949e-04;0.001859;-2.77842e-04;0.001097;-0.002137;0.848036;6.334909e-04;-6.334909e-04;0.059609
0.569178;-0.605443;0.92087;-0.776885;0.065586;-0.058965;0.781875;4.408965e-04;0.001946;0.001323;0.121089;-0.22655;-4.414037;8.258389;0.002716;-3.28865e-04;0.001522;89.238632;44.238628;0.00203;0.00193;4.408965e-04;6.019092e-04;0.002045;0.001946;0.001443;0.861904;0.002387;-0.002387;0.019384
0.636344;-0.605443;0.925204;-0.777069;0.065816;-0.059105;0.782088;-0.006792;0.002308;-1.969157e-04;2.939494;2.943074;0.339781;0.340195;0.002312;-0.006796;0.004554;56.624813;11.624814;0.006072;0.005467;-0.006792;-0.001047;6.534836e-04;0.002308;0.001701;0.866099;-0.004484;0.004484;0.056883
0.703509;-0.605443;0.881783;-0.777326;0.06588;-0.055002;0.782049;-0.003357;-1.483457e-04;-0.00399;2.376154;-22.631628;-0.044186;0.420848;0.002547;-0.006053;0.0043;60.894009;15.894009;0.005734;0.005101;-0.003357;-0.002702;-0.005277;-1.483457e-04;-0.002576;0.826781;-0.003506;0.003506;0.063186
0.770674;-0.605443;0.885107;-0.777324;0.065651;-0.05475;0.782011;-0.002186;-0.005985;0.001256;-3.519069;-0.365166;-2.738483;-0.284166;-0.001808;-0.006363;0.002277;124.520058;79.520058;0.003036;0.003786;-0.002186;0.006967;-0.004456;-0.005985;-0.011423;0.830357;-0.008171;0.008171;0.040185
0.83784;-0.605443;0.904197;-0.777393;0.065376;-0.051554;0.781839;-0.002726;0.002727;7.853948e-06;0.999576;0.999576;1.000424;1.000424;0.002727;-0.002726;0.002727;179.900803;134.900803;0.003636;0.003149;-0.002726;0.001;-9.843026e-04;0.002727;-0.001984;0.852643;1.155992e-06;-1.155992e-06;0.028728
0.905005;-0.605443;0.893571;-0.777755;0.06533;-0.053658;0.782337;-0.001971;0.00434;0.003624;0.604515;0.454216;2.201594;1.65422;0.00599;-0.003621;0.004805;143.799301;98.799309;0.006407;0.005605;-0.001971;0.006354;8.936747e-04;0.00434;-0.00546;0.839913;0.002369;-0.002369;0.038384
0.97217;-0.605443;0.860965;-0.77782;0.065415;-0.053707;0.782411;0.008615;0.005343;0.003531;-0.284029;-1.61232;-0.620224;-3.52077;0.01087;0.003087;0.003891;90.936317;45.936317;0.005188;0.006468;0.008615;0.007045;1.620202e-05;0.005343;-0.007029;0.807258;0.013958;-0.013958;0.039334
1.039336;-0.605443;0.842954;-0.777667;0.065386;-0.058157;0.782574;0.003733;0.004148;-0.003851;-0.010792;-0.899993;-1.11112;-92.664803;0.007797;8.414099e-05;0.003856;166.266602;121.266609;0.005142;0.00517;0.003733;-0.005637;-0.002065;0.004148;0.003572;0.784797;0.007881;-0.007881;0.034824
1.106501;-0.605443;0.777323;-0.777968;0.065293;-0.054662;0.782614;0.003477;0.008808;-0.009794;0.245953;-0.394785;-2.533025;4.065817;0.016293;-0.004007;0.01015;141.272537;96.272545;0.013533;0.012415;0.003477;-0.02146;0.001872;0.008808;0.023332;0.722662;0.012286;-0.012286;0.050925
1.173667;-0.605443;0.778554;-0.77772;0.065503;-0.058552;0.782667;0.00136;0.006874;-9.491524e-06;-0.197841;-0.197844;-5.054484;-5.054557;0.006874;0.00136;0.002757;111.073868;66.073868;0.003676;0.004203;0.00136;-0.00459;0.004571;0.006874;0.009161;0.720002;0.008234;-0.008234;0.045929
1.240832;-0.605443;0.744272;-0.777868;0.065967;-0.055719;0.782646;0.006364;0.003071;0.009942;0.362315;-2.072467;-0.482517;2.760031;0.014795;-0.00536;0.010078;117.348412;72.348412;0.013437;0.012054;0.006364;0.019657;2.272062e-04;0.003071;-0.01943;0.688553;0.009434;-0.009434;0.01886
1.307997;-0.605443;0.662749;-0.777752;0.065846;-0.063192;0.783088;-0.019486;0.004696;0.012966;2.43133;4.149694;0.240982;0.411298;0.010333;-0.025124;0.017728;169.284958;124.284958;0.023638;0.021056;-0.019486;0.028422;-0.002491;0.004696;-0.030913;0.599558;-0.01479;0.01479;0.025498
1.375163;-0.605443;0.58174;-0.777845;0.065321;-0.052565;0.782351;-0.024747;0.001764;0.002936;12.022434;14.030666;0.071272;0.083178;0.002085;-0.025069;0.013577;28.276911;163.276917;0.018103;0.017449;-0.024747;0.007337;-0.001465;0.001764;-0.008802;0.529175;-0.022984;0.022984;0.051162
1.442328;-0.605443;0.48526;-0.777687;0.065446;-0.054337;0.782326;0.005062;-6.402826e-04;-0.00864;0.609017;7.905978;0.126487;1.641989;0.011309;-0.006888;0.009099;158.8517;113.851692;0.012131;0.010609;0.005062;-0.012557;-0.004723;-6.402826e-04;0.007834;0.430923;0.004422;-0.004422;0.03841
1.509493;-0.605443;0.332043;-0.778568;0.063996;-0.050576;0.782829;-0.004275;-5.462817e-04;0.005447;2.440572;-7.825148;-0.127793;0.40974;0.003347;-0.008168;0.005757;149.315826;104.315834;0.007676;0.006839;-0.004275;0.019493;-0.008599;-5.462817e-04;-0.028092;0.281467;-0.004821;0.004821;0.03718
-0.303971;-0.672608;0.370839;-0.776532;0.066497;-0.057101;0.781463;0.026703;0.004975;-0.002841;-0.170318;-5.366904;-0.186327;-5.871387;0.027068;0.00461;0.011229;28.762758;163.762756;0.014972;0.016722;0.026703;-0.007932;0.002251;0.004975;0.010183;0.313738;0.031678;-0.031678;0.0655
-0.236806;-0.672608;0.421892;-0.776564;0.066623;-0.046929;0.780828;-0.00109;0.003825;-0.012475;0.805784;0.28504;3.508285;1.241027;0.014082;-0.011347;0.012714;132.60672;87.606712;0.016952;0.01471;-0.00109;-0.024744;-2.049558e-04;0.003825;0.024539;0.374963;0.002735;-0.002735;0.070135
-0.169641;-0.672608;0.546506;-0.776343;0.066591;-0.049401;0.780758;-0.008302;0.005602;-0.020223;1.134777;1.482035;0.674748;0.88123;0.020034;-0.022734;0.021384;123.473366;78.473366;0.028512;0.024709;-0.008302;-0.039137;-0.001308;0.005602;0.037829;0.497106;-0.0027;0.0027;0.055729
-0.102475;-0.672608;0.631637;-0.776422;0.066537;-0.049593;0.780845;-0.008953;0.007613;-0.011662;1.098321;1.176085;0.850279;0.91048;0.013634;-0.014974;0.014304;115.469513;70.469513;0.019072;0.016523;-0.008953;-0.022094;-0.001229;0.007613;0.020865;0.582044;-0.00134;0.00134;0.027313
-0.03531;-0.672608;0.687341;-0.776554;0.066299;-0.056719;0.78144;-0.013683;0.003135;0.001811;4.169777;4.364655;0.229113;0.239821;0.003328;-0.013876;0.008602;24.581429;159.581421;0.011469;0.010537;-0.013683;0.004696;-0.001075;0.003135;-0.005771;0.630622;-0.010548;0.010548;0.042463
0.031855;-0.672608;0.745331;-0.776547;0.066171;-0.058048;0.78152;0.008879;0.004015;0.007149;0.078935;-2.211527;-0.452176;12.668656;0.013998;-0.001105;0.007552;105.996384;60.99638;0.010069;0.009721;0.008879;0.015048;-7.492899e-04;0.004015;-0.015797;0.687283;0.012893;-0.012893;0.024273
0.099021;-0.672608;0.786491;-0.776556;0.066148;-0.052646;0.781145;0.001261;0.002289;-0.004598;0.445505;-0.550966;-1.814994;2.244645;0.006402;-0.002852;0.004627;141.158173;96.158173;0.006169;0.005472;0.001261;-0.009844;6.475712e-04;0.002289;0.010492;0.733845;0.00355;-0.00355;0.028045
0.166186;-0.672608;0.836324;-0.776637;0.066249;-0.054516;0.781362;-0.02624;-5.862407e-04;-0.01055;9.39591;-44.759087;-0.022342;0.106429;0.003195;-0.030021;0.016608;83.783516;38.783516;0.022144;0.02116;-0.02624;-0.021078;-2.177568e-05;-5.862407e-04;0.021056;0.781809;-0.026826;0.026826;0.039309
0.233352;-0.672608;0.820763;-0.776986;0.066063;-0.064224;0.78243;-0.004282;0.003156;-0.001984;1.308221;1.356683;0.737092;0.764397;0.003653;-0.004779;0.004216;93.753769;48.753765;0.005621;0.004882;-0.004282;-0.003484;-4.848295e-04;0.003156;0.002999;0.756539;-0.001126;0.001126;0.025238
0.300517;-0.672608;0.830118;-0.777181;0.065815;-0.05694;0.782038;0.022607;0.003641;-0.007121;-0.050617;-6.209668;-0.161039;-19.756268;0.024983;0.001265;0.011859;17.621016;152.621017;0.015812;0.01625;0.022607;-0.011348;-0.002894;0.003641;0.008455;0.773178;0.026248;-0.026248;0.038459
0.367682;-0.672608;0.875293;-0.777085;0.065676;-0.053213;0.781669;0.002589;0.004456;-0.011446;0.530574;-0.580998;-1.721175;1.88475;0.015006;-0.007962;0.011484;143.372375;98.372375;0.015312;0.013467;0.002589;-0.020431;-0.002462;0.004456;0.017969;0.82208;0.007044;-0.007044;0.063737
0.434848;-0.672608;0.902563;-0.777024;0.065592;-0.05759;0.781911;-0.008154;0.005852;-0.0032;1.351508;1.393338;0.717701;0.739914;0.006548;-0.00885;0.007699;63.614544;18.614542;0.010266;0.008923;-0.008154;-0.003458;-0.002941;0.005852;5.175701e-04;0.844973;-0.002302;0.002302;0.07585
0.502013;-0.672608;0.927811;-0.777132;0.065428;-0.058594;0.78208;0.002261;0.002984;-0.002007;-0.125069;-0.757641;-1.319887;-7.995565;0.004662;5.830359e-04;0.002039;2.783739;137.783737;0.002719;0.002933;0.002261;-0.001266;-0.002748;0.002984;-0.001482;0.869217;0.005245;-0.005245;0.076314
0.569178;-0.672608;0.928544;-0.777044;0.065425;-0.053459;0.781624;-0.001843;0.003678;0.002751;0.618831;0.501023;1.995915;1.615951;0.004815;-0.002979;0.003897;78.032501;33.032505;0.005196;0.004541;-0.001843;3.564269e-04;0.005145;0.003678;0.004789;0.875084;0.001835;-0.001835;0.05286
0.636344;-0.672608;0.88965;-0.77736;0.065832;-0.056144;0.78216;-0.002633;0.007853;0.007144;0.544997;0.335344;2.982016;1.834871;0.011471;-0.006252;0.008861;132.771225;87.771225;0.011815;0.010379;-0.002633;0.010174;0.004113;0.007853;-0.006061;0.833506;0.005219;-0.005219;0.061055
0.703509;-0.672608;0.902126;-0.777331;0.065733;-0.054615;0.782015;-0.00231;0.010478;1.458966e-05;0.220507;0.220506;4.535021;4.534995;0.010478;-0.00231;0.006394;156.60849;111.60849;0.008526;0.007869;-0.00231;0.003869;-0.00384;0.010478;-0.007709;0.847512;0.008167;-0.008167;0.053064
0.770674;-0.672608;0.929375;-0.77742;0.065265;-0.060463;0.782494;-9.286549e-04;0.001231;8.198655e-04;0.799331;0.754347;1.32565;1.251046;0.001507;-0.001205;0.001356;160.300568;115.300568;0.001808;0.001569;-9.286549e-04;0.00477;-0.003131;0.001231;-0.007901;0.868912;3.024161e-04;-3.024161e-04;0.045157
0.83784;-0.672608;0.909524;-0.777472;0.065267;-0.057256;0.782305;-0.00632;0.004325;-0.00538;1.303618;1.461233;0.684353;0.767096;0.00657;-0.008565;0.007568;106.299881;61.299877;0.01009;0.008764;-0.00632;-0.009803;-9.561862e-04;0.004325;0.008847;0.852268;-0.001995;0.001995;0.034072
0.905005;-0.672608;0.879102;-0.777936;0.06526;-0.056109;0.782682;-0.002475;0.009686;-0.006698;0.430065;0.255551;3.913108;2.325231;0.012652;-0.005441;0.009047;127.299301;82.299301;0.012063;0.010719;-0.002475;-0.013826;4.293653e-04;0.009686;0.014256;0.822993;0.007211;-0.007211;0.012279
0.97217;-0.672608;0.867823;-0.777754;0.065232;-0.05419;0.782363;0.005005;0.003042;-0.004972;0.114876;-1.645371;-0.607766;8.705017;0.009091;-0.001044;0.005068;165.973602;120.973595;0.006757;0.006437;0.005005;-0.008256;-0.001688;0.003042;0.006568;0.813633;0.008047;-0.008047;0.002931
1.039336;-0.672608;0.857401;-0.777418;0.064916;-0.059022;0.782354;0.016301;6.002783e-04;-0.005084;0.050661;-27.156073;-0.036824;19.738947;0.017803;-9.019439e-04;0.009353;18.08481;153.084808;0.01247;0.012181;0.016301;-0.008311;-0.001856;6.002783e-04;0.006456;0.798378;0.016901;-0.016901;0.023051
1.106501;-0.672608;0.780635;-0.777663;0.064963;-0.062491;0.78287;0.012845;0.001269;-0.008212;0.174764;-10.118938;-0.098825;5.721989;0.017104;-0.002989;0.010047;172.952316;127.952309;0.013396;0.012519;0.012845;-0.016409;-1.458041e-05;0.001269;0.016394;0.718144;0.014115;-0.014115;0.060467
1.173667;-0.672608;0.744459;-0.777928;0.065216;-0.063366;0.783224;-0.009558;0.009442;-0.008757;1.009029;1.012299;0.98785;0.991052;0.012863;-0.012979;0.012921;111.176476;66.176476;0.017228;0.01492;-0.009558;-0.019267;0.001752;0.009442;0.021019;0.681093;-1.161326e-04;1.161326e-04;0.056562
1.240832;-0.672608;0.696299;-0.778011;0.065153;-0.056422;0.78277;-0.01708;0.012775;-0.005011;1.316699;1.336991;0.747948;0.759475;0.013593;-0.017898;0.015746;91.522217;46.522213;0.020995;0.018238;-0.01708;-0.012767;0.002745;0.012775;0.015512;0.639877;-0.004305;0.004305;0.015888
1.307997;-0.672608;0.65573;-0.777816;0.065351;-0.055423;0.782522;-0.026677;0.006236;0.008649;3.442265;4.278217;0.233742;0.290506;0.00837;-0.028811;0.018591;8.904757;143.904755;0.024787;0.022522;-0.026677;0.018681;-0.001383;0.006236;-0.020064;0.600308;-0.020441;0.020441;0.020379
1.375163;-0.672608;0.584883;-0.778081;0.065039;-0.050468;0.782423;0.001669;0.00499;0.007518;0.396219;-0.334473;-2.989781;2.523857;0.011029;-0.00437;0.0077;128.901901;83.901894;0.010266;0.009164;0.001669;0.014774;2.62905e-04;0.00499;-0.014511;0.534415;0.006659;-0.006659;0.038177
1.442328;-0.672608;0.485493;-0.777783;0.065448;-0.05729;0.782631;0.014903;0.001256;-0.01907;0.429694;-11.866646;-0.08427;2.327237;0.028333;-0.012175;0.020254;158.390991;113.390984;0.027005;0.023999;0.014903;-0.034862;-0.003278;0.001256;0.031584;0.428203;0.016158;-0.016158;0.033699
1.509493;-0.672608;0.348849;-0.779165;0.064311;-0.055983;0.783817;-0.007542;-0.003594;-0.040819;1.315476;-2.098461;-0.47654;0.760181;0.035299;-0.046434;0.040866;128.906219;83.906212;0.054489;0.047334;-0.007542;-0.074383;-0.007255;-0.003594;0.067128;0.292866;-0.011136;0.011136;0.001042
-0.303971;-0.739774;0.386675;-0.776533;0.066281;-0.052309;0.78111;0.003074;0.00731;-0.020479;0.597217;-0.420529;-2.377958;1.674434;0.02578;-0.015396;0.020588;138.434036;93.434036;0.02745;0.024023;0.003074;-0.043381;0.002424;0.00731;0.045805;0.334366;0.010384;-0.010384;0.050335
-0.236806;-0.739774;0.457687;-0.776422;0.066574;-0.053952;0.781136;-7.879086e-05;0.004042;-0.006394;0.544442;0.019494;51.297123;1.836742;0.008699;-0.004736;0.006718;134.726273;89.72628;0.008957;0.007869;-7.879086e-05;-0.012751;-3.708966e-05;0.004042;0.012714;0.403735;0.003963;-0.003963;0.062801
-0.169641;-0.739774;0.554698;-0.776293;0.066237;-0.0535;0.780948;-0.001496;0.003266;-0.002156;0.568167;0.458253;2.182199;1.760046;0.004097;-0.002328;0.003212;147.13739;102.137398;0.004283;0.003756;-0.001496;-0.002442;-0.001871;0.003266;5.709977e-04;0.501199;0.001769;-0.001769;0.048271
-0.102475;-0.739774;0.640779;-0.776574;0.066073;-0.052896;0.781173;-0.010419;0.003381;-0.007424;2.063759;3.081661;0.3245;0.484553;0.006616;-0.013655;0.010136;98.524467;53.524467;0.013514;0.011936;-0.010419;-0.013508;-0.00134;0.003381;0.012168;0.587883;-0.007038;0.007038;0.044478
-0.03531;-0.739774;0.69216;-0.776795;0.06607;-0.054025;0.781469;-0.022565;0.003083;-0.010038;3.976812;7.319283;0.136625;0.251458;0.006545;-0.026027;0.016286;85.441185;40.441189;0.021714;0.019895;-0.022565;-0.019068;-0.001009;0.003083;0.018059;0.638136;-0.019482;0.019482;0.044143
0.031855;-0.739774;0.737832;-0.776814;0.065865;-0.056009;0.78161;0.003074;0.003858;-0.002345;-0.186341;-0.796952;-1.254781;-5.366499;0.005843;0.001089;0.002377;168.617706;123.617706;0.00317;0.003588;0.003074;-0.003163;-0.001527;0.003858;0.001636;0.681823;0.006932;-0.006932;0.047721
0.099021;-0.739774;0.756172;-0.776972;0.065701;-0.0503;0.781366;0.01435;0.0056;0.004736;-0.214831;-2.562264;-0.39028;-4.654825;0.016422;0.003528;0.006447;80.445984;35.445988;0.008596;0.009982;0.01435;0.009098;3.731198e-04;0.0056;-0.008725;0.705872;0.01995;-0.01995;0.063902
0.166186;-0.739774;0.813804;-0.776745;0.065883;-0.049783;0.781122;-0.022094;0.003625;-0.004108;5.32947;6.09407;0.164094;0.187636;0.004266;-0.022734;0.0135;63.981514;18.981512;0.018;0.01676;-0.022094;-0.007514;-7.022134e-04;0.003625;0.006812;0.76402;-0.018468;0.018468;0.066707
0.233352;-0.739774;0.844499;-0.776791;0.065761;-0.061423;0.781986;-0.003384;0.009658;-0.007133;0.50988;0.350343;2.854345;1.961246;0.012802;-0.006527;0.009665;130.411789;85.411797;0.012886;0.011354;-0.003384;-0.011917;-0.002349;0.009658;0.009568;0.783076;0.006274;-0.006274;0.070677
0.300517;-0.739774;0.854155;-0.776944;0.06572;-0.052922;0.781512;0.012667;0.004923;-0.009385;0.071613;-2.573095;-0.388637;13.963899;0.018947;-0.001357;0.010152;171.046036;126.046036;0.013536;0.013107;0.012667;-0.016851;-0.001918;0.004923;0.014933;0.801233;0.01759;-0.01759;0.074065
0.367682;-0.739774;0.87273;-0.777273;0.065667;-0.048799;0.781567;4.079733e-05;2.209677e-04;-0.001113;0.790183;-0.18463;-5.416229;1.265529;0.001248;-9.858251e-04;0.001117;176.161499;131.161499;0.001489;0.001292;4.079733e-05;-0.00112;-0.001106;2.209677e-04;1.394711e-05;0.823932;2.61765e-04;-2.61765e-04;0.044314
0.434848;-0.739774;0.914328;-0.777182;0.065618;-0.050746;0.781596;-0.010473;0.001614;-0.002278;5.366167;6.489615;0.154092;0.186353;0.002029;-0.010888;0.006459;50.508846;5.508844;0.008611;0.008021;-0.010473;-0.001526;-0.003031;0.001614;-0.001505;0.863582;-0.008859;0.008859;0.049431
0.502013;-0.739774;0.900167;-0.777059;0.065289;-0.057491;0.781914;-1.031805e-04;0.002081;-5.756847e-04;0.110443;0.049573;20.172167;9.05445;0.002224;-2.456026e-04;0.001235;177.864594;132.864594;0.001646;0.001571;-1.031805e-04;0.001003;-0.002155;0.002081;-0.003158;0.842676;0.001978;-0.001978;0.025082
0.569178;-0.739774;0.92758;-0.777206;0.065356;-0.050862;0.781605;-7.667879e-04;0.003939;0.002826;0.397318;0.19466;5.137159;2.516878;0.005264;-0.002091;0.003678;120.265923;75.265923;0.004903;0.004376;-7.667879e-04;0.003427;0.002225;0.003939;-0.001202;0.876718;0.003172;-0.003172;0.024385
0.636344;-0.739774;0.921345;-0.777451;0.065613;-0.050948;0.781877;-0.001172;0.005247;7.980861e-04;0.237611;0.22341;4.476076;4.208556;0.005345;-0.00127;0.003307;129.06395;84.063942;0.00441;0.004053;-0.001172;8.72496e-04;7.236762e-04;0.005247;-1.488198e-04;0.870397;0.004075;-0.004075;0.03089
0.703509;-0.739774;0.9268;-0.777298;0.065447;-0.050521;0.781683;-0.00289;0.006463;-7.458136e-04;0.452111;0.447101;2.23663;2.211844;0.006522;-0.002949;0.004735;166.554352;121.554352;0.006314;0.005596;-0.00289;0.001718;-0.003209;0.006463;-0.004927;0.876279;0.003573;-0.003573;0.033319
0.770674;-0.739774;0.9342;-0.777507;0.065153;-0.05579;0.782224;0.002407;0.002587;0.001123;-0.378014;-0.930404;-1.074802;-2.645407;0.003624;0.00137;0.001127;109.700722;64.700722;0.001503;0.002113;0.002407;0.00286;-6.133144e-04;0.002587;-0.003474;0.87841;0.004994;-0.004994;0.064714
0.83784;-0.739774;0.886176;-0.777555;0.065134;-0.057056;0.782362;5.793957e-04;0.001355;0.007746;0.778265;-0.427716;-2.338;1.28491;0.008722;-0.006788;0.007755;132.18428;87.18428;0.01034;0.008978;5.793957e-04;0.014219;0.001272;0.001355;-0.012946;0.82912;0.001934;-0.001934;0.022821
0.905005;-0.739774;0.860245;-0.777623;0.065074;-0.060153;0.782656;0.005024;0.00249;0.00117;-0.370766;-2.017201;-0.495736;-2.697116;0.005482;0.002032;0.001725;78.350204;33.350204;0.002299;0.0032;0.005024;0.00284;-4.991327e-04;0.00249;-0.003339;0.800092;0.007514;-0.007514;0.001687
0.97217;-0.739774;0.864224;-0.777287;0.065034;-0.059688;0.782284;9.357559e-05;0.001964;-0.00117;0.185474;-0.047634;-20.99324;5.391598;0.002527;-4.686291e-04;0.001498;4.761248;139.761246;0.001997;0.00186;9.357559e-05;-1.96529e-05;-0.002319;0.001964;-0.0023;0.804536;0.002058;-0.002058;0.014282
1.039336;-0.739774;0.874009;-0.777442;0.064917;-0.057721;0.78228;0.002866;0.0018;0.006574;0.477444;-1.592441;-0.627967;2.094484;0.008928;-0.004263;0.006596;126.240791;81.240791;0.008794;0.007773;0.002866;0.016774;-0.003626;0.0018;-0.0204;0.816288;0.004666;-0.004666;0.004139
1.106501;-0.739774;0.826184;-0.777578;0.064564;-0.060328;0.782583;0.00694;0.011804;0.02202;0.405437;-0.58797;-1.700766;2.466477;0.031526;-0.012782;0.022154;126.243332;81.243332;0.029538;0.026333;0.00694;0.043254;7.859133e-04;0.011804;-0.042468;0.765856;0.018744;-0.018744;0.045994
1.173667;-0.739774;0.762187;-0.778098;0.064575;-0.062337;0.783258;0.004488;0.011316;0.01956;0.43066;-0.396595;-2.521466;2.322017;0.027758;-0.011954;0.019856;128.358154;83.358162;0.026475;0.023525;0.004488;0.038011;0.00111;0.011316;-0.036901;0.69985;0.015804;-0.015804;0.059403
1.240832;-0.739774;0.70377;-0.778279;0.06464;-0.062992;0.783495;-0.013574;0.004758;-0.001263;2.819477;2.852606;0.350557;0.354676;0.004845;-0.01366;0.009253;61.008369;16.008369;0.012337;0.011081;-0.013574;-0.003241;7.14851e-04;0.004758;0.003956;0.640778;-0.008815;0.008815;0.040485
1.307997;-0.739774;0.640954;-0.778175;0.06475;-0.055792;0.782855;-0.041547;0.007377;-0.007127;5.070663;5.631794;0.177563;0.197213;0.008394;-0.042564;0.025479;63.953201;18.953201;0.033972;0.031549;-0.041547;-0.013913;-3.399733e-04;0.007377;0.013573;0.585163;-0.03417;0.03417;0.040944
1.375163;-0.739774;0.570081;-0.778278;0.064595;-0.049304;0.782509;0.006447;0.005925;9.087219e-04;-0.734849;-1.088073;-0.919056;-1.360825;0.007131;0.00524;9.454372e-04;82.731491;37.731491;0.001261;0.004266;0.006447;0.001069;7.485862e-04;0.005925;-3.202714e-04;0.520778;0.012372;-0.012372;0.002133
1.442328;-0.739774;0.489528;-0.77819;0.06514;-0.059952;0.783209;0.028266;0.006204;0.011296;-0.043805;-4.555954;-0.219493;-22.82831;0.033024;0.001447;0.015789;86.420776;41.420773;0.021052;0.02155;0.028266;0.02436;-0.001768;0.006204;-0.026128;0.429575;0.034471;-0.034471;0.004933
1.509493;-0.739774;0.371708;-0.778953;0.064506;-0.064665;0.78429;0.002787;0.004876;0.013118;0.548984;-0.571564;-1.749585;1.821548;0.016992;-0.009328;0.01316;131.307114;86.307121;0.017547;0.015409;0.002787;0.031241;-0.005004;0.004876;-0.036245;0.307043;0.007664;-0.007664;0.045795
-0.303971;-0.806939;0.380441;-0.776486;0.066342;-0.045932;0.780667;-0.004281;-0.002612;-0.017467;1.490923;-1.638674;-0.610249;0.670725;0.014041;-0.020933;0.017487;127.875092;82.875092;0.023316;0.020323;-0.004281;-0.034383;-5.50952e-04;-0.002612;0.033832;0.334509;-0.006893;0.006893;0.04259
-0.236806;-0.806939;0.485229;-0.776383;0.066316;-0.04766;0.780666;-0.008798;7.373802e-04;-0.016731;1.60308;11.932003;0.083808;0.623799;0.013366;-0.021427;0.017397;119.752464;74.752464;0.023196;0.020267;-0.008798;-0.032217;-0.001245;7.373802e-04;0.030972;0.43757;-0.008061;0.008061;0.040344
-0.169641;-0.806939;0.554043;-0.776325;0.06616;-0.049179;0.780689;-0.002373;0.00174;-0.009122;1.07007;1.363739;0.733278;0.934518;0.009034;-0.009667;0.009351;127.414017;82.414017;0.012468;0.010799;-0.002373;-0.016474;-0.001769;0.00174;0.014705;0.504864;-6.330268e-04;6.330268e-04;0.017231
-0.102475;-0.806939;0.615366;-0.77669;0.065923;-0.047342;0.780919;-0.003764;0.001397;-0.006492;1.407961;2.694691;0.3711;0.710247;0.005803;-0.00817;0.006987;118.07341;73.07341;0.009315;0.008106;-0.003764;-0.011978;-0.001007;0.001397;0.010971;0.568024;-0.002367;0.002367;0.01423
-0.03531;-0.806939;0.680925;-0.776763;0.06588;-0.050177;0.781165;-0.0298;9.069892e-04;-0.005424;16.728912;32.856358;0.030436;0.059777;0.001837;-0.03073;0.016284;61.604023;16.604023;0.021712;0.021126;-0.0298;-0.008959;-0.001889;9.069892e-04;0.00707;0.630748;-0.028893;0.028893;0.022238
0.031855;-0.806939;0.748532;-0.776702;0.065614;-0.057472;0.781584;-0.014222;0.003792;0.001608;3.651256;3.750827;0.266608;0.273878;0.003934;-0.014364;0.009149;20.199942;155.199936;0.012199;0.011122;-0.014222;0.005904;-0.002688;0.003792;-0.008591;0.69106;-0.01043;0.01043;0.035299
0.099021;-0.806939;0.763004;-0.77679;0.065529;-0.056043;0.781561;0.009968;0.005271;0.011678;0.219769;-1.891239;-0.528754;4.550238;0.019531;-0.004292;0.011912;114.036438;69.036438;0.015882;0.014662;0.009968;0.024585;-0.001229;0.005271;-0.025813;0.706961;0.015239;-0.015239;0.062548
0.166186;-0.806939;0.81279;-0.776789;0.06547;-0.054657;0.781457;0.002561;0.002704;0.008958;0.545743;-0.947256;-1.055681;1.832363;0.011591;-0.006326;0.008959;126.322289;81.322289;0.011945;0.010492;0.002561;0.017153;7.640271e-04;0.002704;-0.016389;0.758133;0.005266;-0.005266;0.01775
0.233352;-0.806939;0.846221;-0.776695;0.065694;-0.051559;0.781171;0.003982;0.001562;-9.407055e-04;-0.287942;-2.548944;-0.392319;-3.472918;0.004304;0.001239;0.001533;13.429282;148.429276;0.002043;0.002559;0.003982;-0.002249;3.68078e-04;0.001562;0.002618;0.794663;0.005544;-0.005544;0.010932
0.300517;-0.806939;0.844518;-0.776831;0.065672;-0.050171;0.781214;-0.005218;0.003192;6.870577e-04;1.624015;1.634916;0.611652;0.615758;0.003247;-0.005274;0.004261;6.122265;141.122269;0.005681;0.004966;-0.005218;0.003256;-0.001882;0.003192;-0.005138;0.794347;-0.002026;0.002026;0.044602
0.367682;-0.806939;0.855403;-0.77732;0.065582;-0.056351;0.782114;-0.009047;0.00865;0.013314;1.025147;1.045896;0.956118;0.97547;0.015788;-0.016185;0.015987;152.222626;107.222626;0.021315;0.01846;-0.009047;0.026918;-2.89259e-04;0.00865;-0.027207;0.799052;-3.97019e-04;3.97019e-04;0.048858
0.434848;-0.806939;0.928487;-0.777149;0.065398;-0.054881;0.781824;8.440585e-04;0.006556;0.006058;0.288266;-0.128741;-7.76755;3.469018;0.010398;-0.002997;0.006697;135.433853;90.433853;0.00893;0.008117;8.440585e-04;0.014225;-0.002109;0.006556;-0.016333;0.873605;0.0074;-0.0074;0.041156
0.502013;-0.806939;0.900763;-0.777203;0.064963;-0.055693;0.781899;-9.764647e-04;0.00217;-4.498698e-04;0.465576;0.450043;2.222009;2.147877;0.002233;-0.00104;0.001636;2.337886;137.337891;0.002182;0.001931;-9.764647e-04;0.00254;-0.00344;0.00217;-0.005981;0.84507;0.001193;-0.001193;0.064673
0.569178;-0.806939;0.911901;-0.777359;0.065034;-0.056238;0.782099;-5.244275e-04;0.005199;0.002918;0.272382;0.100866;9.914114;3.671309;0.006425;-0.00175;0.004087;134.762894;89.762894;0.00545;0.00497;-5.244275e-04;0.005263;5.739203e-04;0.005199;-0.004689;0.855663;0.004675;-0.004675;0.032887
0.636344;-0.806939;0.917605;-0.777481;0.064998;-0.055575;0.78217;9.435388e-04;0.004685;0.001654;-0.059785;-0.201401;-4.965213;-16.726553;0.005311;3.17513e-04;0.002497;138.559464;93.559456;0.003329;0.00344;9.435388e-04;0.004845;-0.001538;0.004685;-0.006383;0.862031;0.005628;-0.005628;0.044586
0.703509;-0.806939;0.914641;-0.777471;0.06488;-0.053976;0.782039;8.464276e-04;0.001081;-5.267711e-04;-0.282034;-0.783129;-1.276929;-3.545668;0.001503;4.239763e-04;5.396515e-04;28.196556;163.196548;7.195353e-04;8.94986e-04;8.464276e-04;0.001975;-0.003029;0.001081;-0.005004;0.860664;0.001927;-0.001927;0.038673
0.770674;-0.806939;0.908791;-0.777333;0.06468;-0.057562;0.78214;-0.004581;0.002049;-0.002358;1.903529;2.23559;0.447309;0.52534;0.002802;-0.005334;0.004068;54.122456;9.122458;0.005424;0.004773;-0.004581;-0.001967;-0.002749;0.002049;-7.827161e-04;0.85123;-0.002532;0.002532;0.060426
0.83784;-0.806939;0.897835;-0.777747;0.064792;-0.04988;0.782034;-0.006593;0.008127;0.004589;0.837493;0.811233;1.232692;1.19404;0.00944;-0.007906;0.008673;160.111221;115.111214;0.011564;0.010028;-0.006593;0.010163;-9.853316e-04;0.008127;-0.011148;0.847955;0.001534;-0.001534;0.040938
0.905005;-0.806939;0.881475;-0.777662;0.065004;-0.054111;0.782247;0.008813;0.014065;0.009418;-0.078328;-0.626621;-1.595861;-12.766751;0.021216;0.001662;0.009777;114.007675;69.007675;0.013036;0.013624;0.008813;0.016688;0.002148;0.014065;-0.014539;0.827365;0.022878;-0.022878;0.051433
0.97217;-0.806939;0.872164;-0.777472;0.064906;-0.056391;0.782212;-0.003251;0.00515;0.007199;0.795471;0.631306;1.584019;1.257116;0.009284;-0.007385;0.008335;146.091476;101.091484;0.011113;0.009645;-0.003251;0.013884;5.134458e-04;0.00515;-0.013371;0.815773;0.001899;-0.001899;0.041713
1.039336;-0.806939;0.833535;-0.778059;0.064865;-0.053575;0.782594;-0.007434;-0.006362;0.007878;14.818091;-1.168576;-0.855742;0.067485;9.983962e-04;-0.014794;0.007896;153.216888;108.216896;0.010528;0.010212;-0.007434;0.018689;-0.002933;-0.006362;-0.021622;0.77996;-0.013796;0.013796;0.005626
1.106501;-0.806939;0.825199;-0.777789;0.06451;-0.053416;0.782286;-0.001753;-0.006722;0.011817;2.081199;-0.260774;-3.834734;0.480492;0.007838;-0.016312;0.012075;137.824493;92.824493;0.0161;0.014226;-0.001753;0.025237;-0.001604;-0.006722;-0.026841;0.771783;-0.008474;0.008474;0.028076
1.173667;-0.806939;0.764509;-0.778023;0.064415;-0.050672;0.782328;0.027709;-1.076031e-05;0.01346;0.164946;2575.114014;3.883323e-04;6.062588;0.033169;-0.005471;0.01932;87.835815;42.835815;0.02576;0.024144;0.027709;0.025717;0.001203;-1.076031e-05;-0.024514;0.713836;0.027698;-0.027698;0.032017
1.240832;-0.806939;0.708029;-0.778092;0.06466;-0.061998;0.783231;0.008682;0.001171;0.001801;-0.083695;-7.417441;-0.134817;-11.948133;0.009092;7.609446e-04;0.004165;64.02343;19.023426;0.005554;0.005824;0.008682;0.002887;7.157722e-04;0.001171;-0.002171;0.646031;0.009853;-0.009853;0.05235
1.307997;-0.806939;0.629227;-0.778266;0.064509;-0.058526;0.783125;-0.040464;0.001734;-0.005257;17.282171;23.339579;0.042846;0.057863;0.002379;-0.041109;0.021744;58.454605;13.454605;0.028991;0.028232;-0.040464;-0.009699;-8.147227e-04;0.001734;0.008884;0.570701;-0.03873;0.03873;0.058276
1.375163;-0.806939;0.563725;-0.778143;0.064456;-0.051322;0.782493;-0.010544;0.003249;-0.004786;2.537149;3.245876;0.308083;0.394143;0.004746;-0.012042;0.008394;86.498741;41.498741;0.011192;0.009993;-0.010544;-0.008871;-6.999732e-04;0.003249;0.008171;0.512403;-0.007296;0.007296;0.011295
1.442328;-0.806939;0.484063;-0.778292;0.064266;-0.052324;0.782691;-0.001883;0.004763;0.02193;0.878091;0.395409;2.529027;1.138834;0.02362;-0.020741;0.02218;137.510666;92.510658;0.029574;0.02563;-0.001883;0.044846;-9.863708e-04;0.004763;-0.045833;0.431739;0.00288;-0.00288;8.202342e-04
1.509493;-0.806939;0.357296;-0.778894;0.06399;-0.051306;0.7832;-0.017231;5.242809e-04;0.055884;1.346378;32.865097;0.030427;0.742733;0.048231;-0.064938;0.056584;143.676651;98.676651;0.075446;0.065575;-0.017231;0.112954;-0.001187;5.242809e-04;-0.114141;0.30599;-0.016706;0.016706;0.058353
-0.303971;-0.874105;0.354024;-0.776477;0.066555;-0.047354;0.780761;0.001284;0.004328;0.027607;0.815745;-0.29662;-3.371322;1.225874;0.030455;-0.024843;0.027649;133.781982;88.78199;0.036866;0.031981;0.001284;0.056265;-0.001051;0.004328;-0.057316;0.30667;0.005611;-0.005611;0.040945
-0.236806;-0.874105;0.467987;-0.776496;0.066316;-0.046553;0.780712;-0.010048;0.004608;0.019201;1.305056;2.180368;0.458638;0.766251;0.017832;-0.023271;0.020551;149.130615;104.130623;0.027402;0.0238;-0.010048;0.040226;-0.001825;0.004608;-0.04205;0.421434;-0.00544;0.00544;0.030194
-0.169641;-0.874105;0.542216;-0.776564;0.065958;-0.051832;0.781082;-0.014095;0.003407;0.01854;1.705079;4.136606;0.241744;0.586483;0.015158;-0.025846;0.020502;154.927826;109.927834;0.027336;0.02394;-0.014095;0.039073;-0.001993;0.003407;-0.041066;0.490384;-0.010688;0.010688;0.036678
-0.102475;-0.874105;0.628113;-0.776772;0.065726;-0.050665;0.781193;-6.259014e-04;-9.970862e-05;0.024395;1.030192;-6.277305;-0.159304;0.970693;0.024033;-0.024759;0.024396;135.733017;90.733009;0.032528;0.028171;-6.259014e-04;0.048903;-1.134397e-04;-9.970862e-05;-0.049016;0.577448;-7.256101e-04;7.256101e-04;0.041282
-0.03531;-0.874105;0.68533;-0.776787;0.065956;-0.050245;0.7812;-0.021593;0.00147;0.01189;4.094672;14.684552;0.068099;0.24422;0.006502;-0.026625;0.016564;174.94899;129.94899;0.022085;0.020268;-0.021593;0.025854;-0.002074;0.00147;-0.027927;0.635085;-0.020123;0.020123;0.048306
0.031855;-0.874105;0.712894;-0.776795;0.06556;-0.059012;0.781787;-0.013644;0.001633;-0.001472;7.772432;8.355199;0.119686;0.12866;0.001774;-0.013785;0.007779;42.522949;177.522949;0.010372;0.009834;-0.013644;2.343997e-04;-0.003178;0.001633;-0.003413;0.653882;-0.012011;0.012011;0.040003
0.099021;-0.874105;0.748411;-0.776921;0.065495;-0.056974;0.781756;0.004558;0.001032;-0.002128;-0.005711;-4.416802;-0.226408;-175.102463;0.005558;3.173965e-05;0.002763;3.441019;138.441025;0.003684;0.003695;0.004558;-0.003926;-3.290432e-04;0.001032;0.003597;0.691437;0.005589;-0.005589;0.063099
0.166186;-0.874105;0.808278;-0.777089;0.065567;-0.056901;0.781923;0.00455;0.001057;0.006022;0.382006;-4.303174;-0.232387;2.617763;0.009074;-0.003466;0.00627;112.833672;67.833672;0.00836;0.007478;0.00455;0.01126;7.84175e-04;0.001057;-0.010476;0.751377;0.005608;-0.005608;0.006807
0.233352;-0.874105;0.848744;-0.77702;0.065538;-0.054358;0.781671;0.005444;0.003821;0.005899;0.124882;-1.424809;-0.701849;8.007587;0.010588;-0.001322;0.005955;113.790749;68.790749;0.00794;0.007538;0.005444;0.012619;-8.199109e-04;0.003821;-0.013439;0.794386;0.009266;-0.009266;0.015766
0.300517;-0.874105;0.842215;-0.777115;0.065312;-0.053974;0.781721;-0.006664;0.003352;0.00256;1.834453;1.987829;0.503061;0.545122;0.003969;-0.00728;0.005625;178.196396;133.196396;0.007499;0.006588;-0.006664;0.006374;-0.001255;0.003352;-0.00763;0.788241;-0.003312;0.003312;0.049497
0.367682;-0.874105;0.861198;-0.777438;0.065428;-0.060007;0.782491;-0.002318;0.004887;-0.0035;0.592686;0.474283;2.108445;1.687234;0.006308;-0.003738;0.005023;128.915588;83.915581;0.006697;0.005863;-0.002318;-0.00543;-0.001571;0.004887;0.003859;0.801191;0.002569;-0.002569;0.069838
0.434848;-0.874105;0.896539;-0.777383;0.065081;-0.057122;0.782191;0.011244;0.006344;-0.010651;0.108286;-1.772409;-0.564204;9.234842;0.019723;-0.002136;0.010929;167.969452;122.96946;0.014572;0.013915;0.011244;-0.017281;-0.004021;0.006344;0.01326;0.839418;0.017587;-0.017587;0.056713
0.502013;-0.874105;0.91354;-0.777488;0.064956;-0.054005;0.782064;-0.001627;0.008282;0.001247;0.211117;0.196405;5.09152;4.73672;0.008436;-0.001781;0.005109;154.281097;109.281097;0.006812;0.006302;-0.001627;0.005613;-0.003119;0.008282;-0.008732;0.859535;0.006655;-0.006655;0.067312
0.569178;-0.874105;0.906745;-0.77743;0.06491;-0.05631;0.782164;5.921954e-04;0.002778;0.002416;0.222958;-0.213177;-4.690936;4.485151;0.004337;-9.670013e-04;0.002652;134.895523;89.895523;0.003536;0.003262;5.921954e-04;0.006106;-0.001273;0.002778;-0.00738;0.850435;0.00337;-0.00337;0.035707
0.636344;-0.874105;0.921998;-0.77725;0.064915;-0.056972;0.782034;0.002099;-0.002101;0.001658;1.000617;0.999214;1.000786;0.999383;0.002675;-0.002677;0.002676;109.161057;64.161057;0.003568;0.00309;0.002099;0.003712;-3.95191e-04;-0.002101;-0.004107;0.865026;-1.650863e-06;1.650863e-06;0.035681
0.703509;-0.874105;0.952814;-0.777407;0.064956;-0.053218;0.781929;-3.890358e-04;-0.005239;-2.43518e-04;-13.934301;-0.074261;-13.466084;-0.071765;-3.768388e-04;-0.005251;0.002437;147.929672;102.929672;0.003249;0.003382;-3.890358e-04;-0.001974;0.001487;-0.005239;0.003461;0.899595;-0.005628;0.005628;0.031842
0.770674;-0.874105;0.926736;-0.777273;0.064887;-0.058982;0.782203;-0.009883;-9.09902e-04;-0.004536;11.975017;-10.861536;-0.092068;0.083507;9.834004e-04;-0.011776;0.00638;82.421646;37.421646;0.008506;0.008198;-0.009883;-0.007593;-0.001479;-9.09902e-04;0.006114;0.867754;-0.010793;0.010793;0.035717
0.83784;-0.874105;0.91063;-0.777756;0.064586;-0.050598;0.782072;-0.012164;0.003185;-0.0025;3.506312;3.818648;0.261873;0.2852;0.003582;-0.012561;0.008072;65.900665;20.900661;0.010762;0.009789;-0.012164;-0.004476;-5.241193e-04;0.003185;0.003952;0.860031;-0.008979;0.008979;0.064424
0.905005;-0.874105;0.892594;-0.777504;0.06476;-0.052085;0.781933;0.007142;0.0064;-0.001859;-0.562495;-1.115937;-0.896108;-1.777792;0.008667;0.004875;0.001896;173.505417;128.505417;0.002528;0.005017;0.007142;-0.004913;0.001194;0.0064;0.006107;0.840509;0.013542;-0.013542;0.036588
0.97217;-0.874105;0.89052;-0.777558;0.064788;-0.054216;0.782133;-0.002105;0.004586;0.001168;0.481351;0.458944;2.178916;2.077485;0.004784;-0.002303;0.003544;144.929291;99.929298;0.004725;0.004175;-0.002105;0.002177;1.597202e-04;0.004586;-0.002017;0.836304;0.002481;-0.002481;0.023663
1.039336;-0.874105;0.817695;-0.778079;0.064923;-0.054245;0.782665;-0.007072;0.002604;-5.807468e-05;2.715258;2.715488;0.368258;0.368289;0.002605;-0.007072;0.004839;26.733784;161.73378;0.006451;0.005782;-0.007072;0.001639;-0.001755;0.002604;-0.003394;0.76345;-0.004468;0.004468;0.025544
1.106501;-0.874105;0.79395;-0.778111;0.064464;-0.053271;0.782592;0.004808;0.005368;-0.007156;0.169248;-0.895822;-1.116293;5.908507;0.012249;-0.002073;0.007161;156.779678;111.779678;0.009548;0.008938;0.004808;-0.012104;-0.002207;0.005368;0.009897;0.74068;0.010176;-0.010176;0.005127
1.173667;-0.874105;0.757348;-0.778226;0.06447;-0.05508;0.782832;0.037451;0.005543;-0.018126;0.058061;-6.756407;-0.148008;17.223209;0.045644;-0.00265;0.024147;179.136703;134.136703;0.032196;0.03135;0.037451;-0.038229;0.001976;0.005543;0.040205;0.702268;0.042994;-0.042994;0.013423
1.240832;-0.874105;0.721096;-0.778033;0.064632;-0.06431;0.783357;-0.001627;0.001517;-0.011215;1.009759;1.072495;0.932405;0.990335;0.01127;-0.01138;0.011325;130.862106;85.862099;0.0151;0.013077;-0.001627;-0.021857;-5.737552e-04;0.001517;0.021283;0.656786;-1.099869e-04;1.099869e-04;0.066871
1.307997;-0.874105;0.645015;-0.778285;0.064339;-0.056566;0.782986;-0.038493;0.002334;0.00335;14.86784;16.490036;0.060643;0.067259;0.002607;-0.038766;0.020687;34.37611;169.376114;0.027582;0.026756;-0.038493;0.007169;-4.691608e-04;0.002334;-0.007638;0.58845;-0.036159;0.036159;0.084824
1.375163;-0.874105;0.564698;-0.778176;0.064476;-0.054281;0.782727;-0.006597;-2.842833e-04;-0.004314;4.611796;-23.204632;-0.043095;0.216835;0.001905;-0.008786;0.005346;92.769478;47.769474;0.007128;0.006585;-0.006597;-0.007383;-0.001246;-2.842833e-04;0.006136;0.510417;-0.006881;0.006881;0.019912
1.442328;-0.874105;0.489895;-0.778528;0.063914;-0.054267;0.78303;-0.034796;-0.003687;-0.004342;-11.446352;-9.438483;-0.105949;-0.087364;-0.003092;-0.035391;0.01615;60.131092;15.131091;0.021533;0.022634;-0.034796;-0.009377;6.928286e-04;-0.003687;0.01007;0.435627;-0.038483;0.038483;0.030245
1.509493;-0.874105;0.343754;-0.77921;0.064496;-0.04266;0.783038;-0.058864;-0.007735;0.013991;-15.019902;-7.609653;-0.131412;-0.066578;-0.004157;-0.062442;0.029142;21.370575;156.370575;0.038857;0.040314;-0.058864;0.025177;0.002805;-0.007735;-0.022371;0.301094;-0.066599;0.066599;0.049621
-0.303971;-0.94127;0.371463;-0.776415;0.066095;-0.056365;0.781259;0.0136;0.006852;0.017198;0.263041;-1.984762;-0.503839;3.801691;0.027752;-0.0073;0.017526;114.709061;69.709061;0.023368;0.021354;0.0136;0.035285;-8.890477e-04;0.006852;-0.036174;0.315097;0.020452;-0.020452;0.066543
-0.236806;-0.94127;0.467908;-0.776562;0.065986;-0.053087;0.781166;4.833944e-04;0.005044;0.00989;0.571961;-0.095835;-10.434583;1.748372;0.012913;-0.007386;0.01015;134.800797;89.800804;0.013533;0.011864;4.833944e-04;0.021507;-0.001727;0.005044;-0.023234;0.41482;0.005527;-0.005527;0.068853
-0.169641;-0.94127;0.548781;-0.776745;0.065755;-0.054519;0.781428;-0.01997;0.002936;0.005219;5.185858;6.801417;0.147028;0.192832;0.004069;-0.021104;0.012587;13.360329;148.360321;0.016782;0.015603;-0.01997;0.012062;-0.001623;0.002936;-0.013686;0.494263;-0.017034;0.017034;0.052447
-0.102475;-0.94127;0.636142;-0.776647;0.065743;-0.059011;0.781655;-0.008643;0.001803;0.011843;1.718266;4.794869;0.208556;0.581982;0.009524;-0.016364;0.012944;154.952316;109.952316;0.017259;0.015119;-0.008643;0.023687;-3.964508e-07;0.001803;-0.023688;0.577131;-0.006841;0.006841;0.040283
-0.03531;-0.94127;0.690643;-0.776675;0.06569;-0.056881;0.781521;-0.001055;0.003352;0.006785;0.722692;0.314737;3.17726;1.383716;0.008282;-0.005985;0.007134;139.841827;94.841835;0.009512;0.008273;-0.001055;0.014651;-0.001081;0.003352;-0.015732;0.633762;0.002297;-0.002297;0.042086
0.031855;-0.94127;0.713628;-0.776958;0.065496;-0.055806;0.781709;0.006191;0.003751;-0.005703;0.079635;-1.650475;-0.605886;12.557328;0.010803;-8.602981e-04;0.005832;172.937149;127.937149;0.007776;0.007505;0.006191;-0.008149;-0.003256;0.003751;0.004893;0.657822;0.009943;-0.009943;0.054699
0.099021;-0.94127;0.77072;-0.77711;0.065277;-0.053029;0.781648;-0.006153;0.006363;-0.010257;0.982695;0.967037;1.034087;1.017609;0.012121;-0.011911;0.012016;119.605713;74.605713;0.016021;0.013875;-0.006153;-0.020284;-2.30178e-04;0.006363;0.020054;0.71769;2.097437e-04;-2.097437e-04;0.076686
0.166186;-0.94127;0.817223;-0.777034;0.065422;-0.057502;0.781901;-0.015394;0.003954;0.003075;3.582052;3.893595;0.256832;0.27917;0.004431;-0.015871;0.010151;25.987362;160.987366;0.013534;0.012326;-0.015394;0.005201;9.490292e-04;0.003954;-0.004252;0.759721;-0.01144;0.01144;0.029552
0.233352;-0.94127;0.841152;-0.777026;0.065339;-0.058131;0.781932;0.00487;-5.635288e-04;9.147448e-04;0.142116;8.641851;0.115716;7.036483;0.00502;-7.133961e-04;0.002867;81.124153;36.124153;0.003822;0.003608;0.00487;0.003839;-0.00201;-5.635288e-04;-0.00585;0.783021;0.004306;-0.004306;0.01141
0.300517;-0.94127;0.843589;-0.777122;0.065062;-0.055382;0.781805;0.001887;0.004701;-0.003633;0.083653;-0.401536;-2.490435;11.954203;0.00719;-6.014211e-04;0.003895;156.677582;111.677582;0.005194;0.005006;0.001887;-0.005202;-0.002063;0.004701;0.003139;0.788207;0.006588;-0.006588;0.041506
0.367682;-0.94127;0.880093;-0.777424;0.065103;-0.054643;0.782056;0.018117;0.016357;-0.01824;0.028848;-1.107647;-0.902815;34.664738;0.035498;-0.001024;0.018261;162.362228;117.362228;0.024348;0.024014;0.018117;-0.031726;-0.004754;0.016357;0.026972;0.82545;0.034474;-0.034474;0.061591
0.434848;-0.94127;0.901307;-0.777446;0.064689;-0.045703;0.781471;0.00268;0.017067;-0.020483;0.374757;-0.157045;-6.367616;2.668398;0.031583;-0.011836;0.021709;139.944275;94.944275;0.028946;0.025918;0.00268;-0.038121;-0.002845;0.017067;0.035277;0.855605;0.019747;-0.019747;0.033166
0.502013;-0.94127;0.947195;-0.777556;0.064798;-0.053489;0.782083;-0.014691;0.012141;0.002942;1.204658;1.21003;0.826426;0.830111;0.01246;-0.01501;0.013735;1.86689;136.866898;0.018313;0.015883;-0.014691;0.007359;-0.001476;0.012141;-0.008834;0.893706;-0.00255;0.00255;0.014287
0.569178;-0.94127;0.934319;-0.777469;0.064653;-0.054599;0.782061;0.006131;0.003328;0.005357;0.078654;-1.842342;-0.542787;12.71392;0.010267;-8.075469e-04;0.005537;108.897575;63.897575;0.007383;0.007129;0.006131;0.011512;-7.976993e-04;0.003328;-0.012309;0.879721;0.00946;-0.00946;0.01101
0.636344;-0.94127;0.935166;-0.777017;0.064421;-0.061915;0.782137;-0.002695;0.003029;0.002327;0.913341;0.8897;1.123974;1.094881;0.003856;-0.003522;0.003689;158.326981;113.326981;0.004918;0.004261;-0.002695;0.004581;7.23616e-05;0.003029;-0.004509;0.873251;3.341521e-04;-3.341521e-04;0.030989
0.703509;-0.94127;0.963793;-0.777326;0.06453;-0.059044;0.782231;-0.002117;0.009989;3.482819e-04;0.21272;0.211931;4.718518;4.701016;0.009999;-0.002127;0.006063;118.814896;73.814896;0.008084;0.007477;-0.002117;-0.00184;0.002537;0.009989;0.004378;0.904749;0.007872;-0.007872;0.046688
0.770674;-0.94127;0.931237;-0.777399;0.064833;-0.057329;0.782202;-0.015252;0.010123;-0.005458;1.456022;1.506657;0.663721;0.686803;0.011247;-0.016376;0.013812;79.713737;34.713737;0.018416;0.01604;-0.015252;-0.008127;-0.002788;0.010123;0.00534;0.873908;-0.005129;0.005129;0.018213
0.83784;-0.94127;0.899017;-0.777755;0.064283;-0.053156;0.782215;-0.013243;0.010108;-0.005749;1.273955;1.310238;0.76322;0.784957;0.011446;-0.014582;0.013014;74.19828;29.198282;0.017352;0.015064;-0.013243;-0.006736;-0.004762;0.010108;0.001973;0.845861;-0.003136;0.003136;0.062166
0.905005;-0.94127;0.855354;-0.777847;0.064281;-0.055812;0.782492;8.254367e-04;0.008647;-0.001728;-0.051143;-0.09546;-10.475577;-19.553068;0.009011;4.608734e-04;0.004275;143.336655;98.336655;0.0057;0.00586;8.254367e-04;-0.002322;-0.001133;0.008647;0.00119;0.799542;0.009472;-0.009472;0.051014
0.97217;-0.94127;0.867626;-0.777999;0.064205;-0.056097;0.782657;-0.005574;0.004597;0.004397;1.156665;1.212461;0.824768;0.864555;0.006235;-0.007211;0.006723;165.293732;120.293732;0.008964;0.00777;-0.005574;0.006812;0.001983;0.004597;-0.004829;0.811528;-9.767551e-04;9.767551e-04;0.039384
1.039336;-0.94127;0.820636;-0.777944;0.064605;-0.052789;0.782405;-0.002294;0.006121;0.003;0.459582;0.374813;2.667994;2.175892;0.007081;-0.003255;0.005168;147.834335;102.834335;0.006891;0.006102;-0.002294;0.006475;-4.743882e-04;0.006121;-0.00695;0.767847;0.003827;-0.003827;0.031904
1.106501;-0.94127;0.796824;-0.778214;0.064214;-0.055401;0.782822;0.018549;0.002327;0.003874;-0.074629;-7.970134;-0.125468;-13.399706;0.019427;0.00145;0.008989;67.826569;22.826565;0.011985;0.012496;0.018549;0.007699;4.879163e-05;0.002327;-0.00765;0.741423;0.020877;-0.020877;0.004919
1.173667;-0.94127;0.762121;-0.778514;0.064276;-0.063349;0.783727;0.042117;2.638708e-04;7.151992e-04;-0.005973;-159.613922;-0.006265;-167.411789;0.04213;2.516529e-04;0.020939;45.710808;0.710809;0.027919;0.028003;0.042117;5.17039e-04;9.133595e-04;2.638708e-04;3.963204e-04;0.698772;0.042381;-0.042381;0.018384
1.240832;-0.94127;0.708902;-0.77829;0.064274;-0.067609;0.783861;-0.022161;0.003074;0.00293;6.597489;7.208607;0.138723;0.151573;0.00341;-0.022497;0.012954;26.031345;161.031342;0.017271;0.016254;-0.022161;0.007353;-0.001493;0.003074;-0.008846;0.641293;-0.019087;0.019087;0.043645
1.307997;-0.94127;0.660943;-0.778307;0.064212;-0.052924;0.782742;-0.034404;0.002652;0.003858;11.413391;12.974371;0.077075;0.087616;0.003049;-0.034801;0.018925;32.568172;167.568176;0.025233;0.024281;-0.034404;0.007553;1.639137e-04;0.002652;-0.007389;0.60802;-0.031752;0.031752;0.047113
1.375163;-0.94127;0.566682;-0.778311;0.064428;-0.054412;0.782867;0.00761;0.002082;-0.003889;-0.007734;-3.655542;-0.273557;-129.294464;0.009617;7.438398e-05;0.004772;177.165451;132.165451;0.006362;0.006387;0.00761;-0.008112;3.335649e-04;0.002082;0.008446;0.51227;0.009692;-0.009692;0.026285
1.442328;-0.94127;0.5055;-0.778634;0.064483;-0.057286;0.783397;-0.038992;1.679767e-04;-0.008479;21.168629;232.12468;0.004308;0.04724;0.001925;-0.040749;0.021337;71.478188;26.478189;0.028449;0.02783;-0.038992;-0.01948;0.002523;1.679767e-04;0.022003;0.448214;-0.038824;0.038824;0.049226
1.509493;-0.94127;0.366975;-0.779141;0.065424;-0.044942;0.783174;-0.061758;1.469311e-04;-0.016722;15.081372;420.320557;0.002379;0.066307;0.004375;-0.065987;0.035181;75.894493;30.894493;0.046908;0.04552;-0.061758;-0.037041;0.003596;1.469311e-04;0.040638;0.322032;-0.061611;0.061611;0.060343
-0.303971;-1.008435;0.347534;-0.776618;0.06568;-0.05387;0.78125;0.021483;0.001572;-0.009994;0.100598;-13.663066;-0.07319;9.940585;0.025634;-0.002579;0.014106;2.168959;137.168961;0.018808;0.01801;0.021483;-0.019857;-1.308589e-04;0.001572;0.019726;0.293664;0.023055;-0.023055;0.041091
-0.236806;-1.008435;0.451938;-0.776772;0.065747;-0.049865;0.781142;0.005883;0.002892;-0.008209;0.310736;-2.0345;-0.491521;3.218162;0.012731;-0.003956;0.008344;157.011688;112.011696;0.011125;0.010069;0.005883;-0.014789;-0.001629;0.002892;0.01316;0.402073;0.008775;-0.008775;0.044968
-0.169641;-1.008435;0.56601;-0.776782;0.065451;-0.052062;0.781271;-0.016132;0.002991;-0.011502;2.566767;5.392707;0.185436;0.389595;0.008387;-0.021527;0.014957;97.545929;52.545933;0.019943;0.017818;-0.016132;-0.020826;-0.002178;0.002991;0.018648;0.513948;-0.01314;0.01314;0.026769
-0.102475;-1.008435;0.639507;-0.776634;0.065394;-0.055928;0.781387;-0.014255;0.001551;-0.015072;2.191157;9.193095;0.108777;0.45638;0.010666;-0.023371;0.017018;109.695335;64.695335;0.022691;0.020102;-0.014255;-0.030082;-6.215223e-05;0.001551;0.030019;0.583579;-0.012705;0.012705;0.032325
-0.03531;-1.008435;0.691247;-0.776764;0.0654;-0.057231;0.78161;0.00273;0.00303;-0.009979;0.552054;-0.900945;-1.109946;1.811418;0.01286;-0.0071;0.00998;142.341202;97.341209;0.013307;0.011683;0.00273;-0.020334;3.764584e-04;0.00303;0.02071;0.634016;0.005761;-0.005761;0.030569
0.031855;-1.008435;0.699635;-0.777051;0.06518;-0.054456;0.781679;0.019024;0.004642;-0.010844;0.047425;-4.098252;-0.244006;21.086121;0.024845;-0.001178;0.013012;2.358346;137.358353;0.017349;0.01697;0.019024;-0.017358;-0.004329;0.004642;0.013029;0.645179;0.023667;-0.023667;0.043047
0.099021;-1.008435;0.764353;-0.777112;0.064812;-0.049737;0.781395;-0.018643;0.005047;-0.011124;2.438412;3.693732;0.270729;0.410103;0.009452;-0.023048;0.01625;94.568962;49.568962;0.021667;0.019303;-0.018643;-0.021178;-0.001071;0.005047;0.020108;0.714616;-0.013596;0.013596;0.075282
0.166186;-1.008435;0.834316;-0.77714;0.065021;-0.059057;0.782088;-0.033173;0.006683;-0.002035;4.902934;4.963439;0.201473;0.203959;0.006787;-0.033276;0.020032;55.915829;10.915828;0.026709;0.024758;-0.033173;-0.005833;0.001764;0.006683;0.007597;0.775259;-0.026489;0.026489;0.063951
0.233352;-1.008435;0.864646;-0.777068;0.06503;-0.059567;0.782056;0.007101;0.005634;-0.005634;-0.056915;-1.260351;-0.79343;-17.570185;0.012049;6.857434e-04;0.005681;168.597931;123.597931;0.007575;0.007814;0.007101;-0.009343;-0.001925;0.005634;0.007418;0.805079;0.012734;-0.012734;0.027539
0.300517;-1.008435;0.880028;-0.777094;0.064799;-0.054684;0.781706;0.004664;0.005565;-0.005777;0.062385;-0.837987;-1.193336;16.029488;0.010909;-6.805713e-04;0.005795;168.284134;123.284134;0.007727;0.00751;0.004664;-0.007535;-0.004019;0.005565;0.003516;0.825345;0.010229;-0.010229;0.042532
0.367682;-1.008435;0.891071;-0.77739;0.064763;-0.050298;0.781703;0.021065;0.004171;1.14618e-05;-0.197987;-5.050815;-0.197988;-5.050826;0.021065;0.004171;0.008447;50.621601;5.621599;0.011263;0.01288;0.021065;0.002502;-0.002479;0.004171;-0.004981;0.840773;0.025236;-0.025236;0.056492
0.434848;-1.008435;0.902285;-0.777292;0.064509;-0.039715;0.780974;-0.003376;0.005687;0.00442;0.691235;0.593563;1.684742;1.446685;0.007486;-0.005174;0.00633;152.682388;107.682388;0.00844;0.00735;-0.003376;0.010751;-0.001911;0.005687;-0.012662;0.862571;0.002311;-0.002311;0.010273
0.502013;-1.008435;0.945847;-0.777316;0.064554;-0.051726;0.781705;-0.023847;0.010924;-0.006608;2.064718;2.182971;0.458091;0.484328;0.012137;-0.02506;0.018599;78.521706;33.521709;0.024799;0.021904;-0.023847;-0.013353;1.383492e-04;0.010924;0.013492;0.894121;-0.012923;0.012923;0.022591
0.569178;-1.008435;0.953509;-0.777487;0.064483;-0.056824;0.782223;0.004307;0.010508;-0.007157;0.025777;-0.40992;-2.439497;38.793743;0.015207;-3.919987e-04;0.0078;147.868835;102.868828;0.010399;0.010271;0.004307;-0.01356;-7.535888e-04;0.010508;0.012807;0.896685;0.014815;-0.014815;0.003783
0.636344;-1.008435;0.935491;-0.777366;0.064282;-0.057446;0.782132;-8.461557e-04;0.006502;-0.001743;0.179642;0.130133;7.684436;5.566627;0.006895;-0.001239;0.004067;171.086411;126.086403;0.005422;0.00506;-8.461557e-04;0.001268;-0.004754;0.006502;-0.006022;0.878045;0.005656;-0.005656;0.051662
0.703509;-1.008435;0.931688;-0.777569;0.064114;-0.062164;0.78268;-8.439168e-04;0.006927;-7.197387e-05;0.121906;0.121822;8.208704;8.203015;0.006928;-8.445834e-04;0.003886;159.217163;114.217171;0.005182;0.004924;-8.439168e-04;0.003233;-0.003377;0.006927;-0.00661;0.869524;0.006084;-0.006084;0.056145
0.770674;-1.008435;0.915114;-0.777391;0.064103;-0.061759;0.782471;-0.018095;0.005066;-8.589441e-04;3.555935;3.571985;0.279956;0.28122;0.005098;-0.018127;0.011612;41.609734;176.609726;0.015483;0.014095;-0.018095;4.100308e-04;-0.002128;0.005066;-0.002538;0.853355;-0.013029;0.013029;0.036927
0.83784;-1.008435;0.885718;-0.777698;0.063942;-0.05613;0.782338;-0.018522;0.004267;0.00197;4.213617;4.340919;0.230366;0.237326;0.004436;-0.018691;0.011563;30.205362;165.205368;0.015418;0.014173;-0.018522;0.004533;-5.935228e-04;0.004267;-0.005127;0.829588;-0.014255;0.014255;0.058596
0.905005;-1.008435;0.866028;-0.777971;0.064159;-0.055323;0.78257;-0.00713;0.011306;0.007654;0.703234;0.630699;1.585542;1.422002;0.014069;-0.009894;0.011981;153.811249;108.811241;0.015975;0.013905;-0.00713;0.016936;-0.001629;0.011306;-0.018565;0.810704;0.004175;-0.004175;0.064352
0.97217;-1.008435;0.857921;-0.778308;0.064082;-0.051746;0.782654;-0.001231;0.003401;0.006691;0.734299;0.362086;2.761778;1.361843;0.008165;-0.005996;0.00708;141.182541;96.182533;0.00944;0.008208;-0.001231;0.015884;-0.002503;0.003401;-0.018387;0.806175;0.002169;-0.002169;0.066345
1.039336;-1.008435;0.844954;-0.778044;0.064181;-0.052291;0.782436;0.004216;0.002394;0.00141;-0.326262;-1.76095;-0.567875;-3.06502;0.004984;0.001626;0.001679;89.227318;44.227318;0.002239;0.002935;0.004216;0.003421;-6.001028e-04;0.002394;-0.004021;0.792662;0.006611;-0.006611;0.044309
1.106501;-1.008435;0.830249;-0.778149;0.063974;-0.053435;0.782601;0.009409;0.006777;0.006572;-0.093992;-1.388381;-0.720263;-10.63923;0.014796;0.001391;0.006702;104.539612;59.539612;0.008937;0.009434;0.009409;0.01346;-3.165219e-04;0.006777;-0.013777;0.776814;0.016186;-0.016186;0.043917
1.173667;-1.008435;0.800096;-0.778308;0.064213;-0.057771;0.783086;0.030485;0.010146;0.025304;0.146166;-3.004688;-0.332813;6.841537;0.047586;-0.006955;0.027271;104.001106;59.00111;0.036361;0.034279;0.030485;0.049427;0.001181;0.010146;-0.048246;0.742325;0.040631;-0.040631;0.058162
1.240832;-1.008435;0.712994;-0.778298;0.064179;-0.062213;0.783414;-0.012287;0.006271;0.02187;1.289928;1.959277;0.510392;0.775237;0.020749;-0.026764;0.023757;150.487717;105.487724;0.031675;0.027505;-0.012287;0.043312;4.265739e-04;0.006271;-0.042886;0.650781;-0.006016;0.006016;0.039919
1.307997;-1.008435;0.648092;-0.778414;0.064058;-0.053631;0.782885;-0.012978;0.004292;0.001295;2.979113;3.023606;0.330731;0.33567;0.004389;-0.013075;0.008732;30.375502;165.375504;0.011642;0.01049;-0.012978;0.002938;-3.485059e-04;0.004292;-0.003286;0.594461;-0.008686;0.008686;0.032207
1.375163;-1.008435;0.559914;-0.77825;0.063992;-0.057811;0.783013;0.007567;0.004928;-0.011047;0.28075;-1.535462;-0.65127;3.561887;0.017373;-0.004878;0.011125;152.058746;107.058746;0.014834;0.013505;0.007567;-0.023149;0.001055;0.004928;0.024204;0.502103;0.012496;-0.012496;0.024622
1.442328;-1.008435;0.482512;-0.778562;0.064219;-0.055231;0.783156;-0.036364;0.007191;-0.005316;4.725655;5.057018;0.197745;0.211611;0.00783;-0.037003;0.022417;64.399857;19.399858;0.029889;0.027651;-0.036364;-0.012143;0.00151;0.007191;0.013654;0.427282;-0.029173;0.029173;0.043945
1.509493;-1.008435;0.349416;-0.778819;0.064346;-0.050074;0.783075;-0.04842;0.010487;-0.00566;4.440403;4.617224;0.21658;0.225205;0.011026;-0.048959;0.029993;60.47456;15.474561;0.03999;0.036868;-0.04842;-0.01259;0.001269;0.010487;0.01386;0.299342;-0.037933;0.037933;0.054817
-0.303971;-1.075601;0.337993;-0.776838;0.065652;-0.052835;0.781396;0.013276;0.002201;-1.708992e-04;-0.16558;-6.030928;-0.165812;-6.039359;0.013279;0.002199;0.00554;47.347118;2.34712;0.007387;0.008218;0.013276;7.056327e-04;-0.001047;0.002201;-0.001753;0.285158;0.015478;-0.015478;0.013205
-0.236806;-1.075601;0.444461;-0.776867;0.065435;-0.051276;0.781303;0.004578;0.002721;0.002266;-0.196809;-1.682509;-0.594351;-5.081059;0.006099;0.0012;0.002449;102.607414;57.60741;0.003266;0.003731;0.004578;0.006248;-0.001716;0.002721;-0.007964;0.393185;0.007299;-0.007299;0.025239
-0.169641;-1.075601;0.523614;-0.776843;0.065136;-0.051137;0.781244;-0.010305;0.004029;0.001921;2.465465;2.557457;0.391013;0.405603;0.004282;-0.010558;0.00742;12.841451;147.841446;0.009894;0.00882;-0.010305;0.005571;-0.001729;0.004029;-0.0073;0.472477;-0.006276;0.006276;0.008833
-0.102475;-1.075601;0.601639;-0.776855;0.064986;-0.05153;0.78127;-0.009952;0.004184;-5.420297e-04;2.372;2.378806;0.420379;0.421585;0.004204;-0.009973;0.007089;49.919704;4.919704;0.009452;0.008408;-0.009952;-8.174214e-04;-2.66638e-04;0.004184;5.507833e-04;0.550109;-0.005769;0.005769;0.016455
-0.03531;-1.075601;0.684967;-0.776926;0.065159;-0.052449;0.781415;0.007956;0.002775;-0.006247;0.115264;-2.867183;-0.348774;8.675764;0.012128;-0.001398;0.006763;170.897217;125.897209;0.009017;0.008589;0.007956;-0.010866;-0.001628;0.002775;0.009238;0.632519;0.01073;-0.01073;0.033899
0.031855;-1.075601;0.723216;-0.777056;0.064936;-0.051054;0.781434;0.017605;0.002571;-0.008693;0.065046;-6.846731;-0.146055;15.373765;0.02158;-0.001404;0.011492;9.415208;144.415207;0.015323;0.014877;0.017605;-0.012773;-0.004612;0.002571;0.008161;0.672162;0.020177;-0.020177;0.047011
0.099021;-1.075601;0.743088;-0.777094;0.064444;-0.047117;0.781183;-0.024364;-2.351303e-04;-0.011864;6.323833;-103.621216;-0.009651;0.158132;0.004621;-0.02922;0.01692;87.447754;42.447754;0.022561;0.021189;-0.024364;-0.022323;-0.001404;-2.351303e-04;0.020919;0.695971;-0.0246;0.0246;0.048827
0.166186;-1.075601;0.843473;-0.776988;0.064754;-0.057596;0.781806;-0.031821;-5.089699e-04;-0.017359;5.483178;-62.520096;-0.015995;0.182376;0.007211;-0.039541;0.023376;93.325081;48.325085;0.031168;0.029064;-0.031821;-0.035757;0.001039;-5.089699e-04;0.036796;0.785877;-0.03233;0.03233;0.018071
0.233352;-1.075601;0.890964;-0.776976;0.064876;-0.056013;0.78169;0.003412;0.003291;-0.008248;0.422152;-1.037025;-0.964297;2.368817;0.0116;-0.004897;0.008248;146.108398;101.108398;0.010998;0.009783;0.003412;-0.01663;1.338347e-04;0.003291;0.016764;0.834951;0.006703;-0.006703;0.019063
0.300517;-1.075601;0.870849;-0.777407;0.064635;-0.053313;0.781909;-0.002307;0.003244;-0.001439;0.739473;0.711291;1.405894;1.352314;0.003595;-0.002658;0.003127;8.974048;143.974045;0.004169;0.003624;-0.002307;0.001372;-0.00425;0.003244;-0.005622;0.817537;9.365907e-04;-9.365907e-04;0.033139
0.367682;-1.075601;0.86859;-0.777321;0.064374;-0.05483;0.781906;0.006194;9.036973e-04;0.007409;0.378249;-6.854252;-0.145895;2.64376;0.011416;-0.004318;0.007867;113.374519;68.374519;0.010489;0.009387;0.006194;0.015531;-7.131922e-04;9.036973e-04;-0.016244;0.81376;0.007098;-0.007098;0.029684
0.434848;-1.075601;0.898941;-0.777288;0.06452;-0.051967;0.78169;-0.001845;0.009328;0.012298;0.566204;0.19784;5.05458;1.766147;0.017249;-0.009767;0.013508;137.337219;92.337219;0.018011;0.015796;-0.001845;0.022715;0.001882;0.009328;-0.020834;0.846974;0.007483;-0.007483;0.047467
0.502013;-1.075601;0.908788;-0.777624;0.064415;-0.056354;0.78232;-0.007102;0.020078;-0.009451;0.436837;0.353716;2.827125;2.289185;0.023042;-0.010065;0.016554;125.53183;80.53183;0.022071;0.019598;-0.007102;-0.018301;-6.016046e-04;0.020078;0.0177;0.852433;0.012976;-0.012976;0.069144
0.569178;-1.075601;0.903068;-0.7778;0.06427;-0.06084;0.782819;-0.005409;0.016659;-0.006477;0.389238;0.324689;3.079867;2.569124;0.018419;-0.007169;0.012794;125.624908;80.624908;0.017059;0.015242;-0.005409;-0.012985;3.117633e-05;0.016659;0.013016;0.842229;0.01125;-0.01125;0.018864
0.636344;-1.075601;0.919179;-0.777703;0.064325;-0.064218;0.782997;-0.005362;0.003512;0.005504;1.301017;1.526679;0.655017;0.76863;0.006145;-0.007995;0.00707;161.359619;116.359619;0.009426;0.008187;-0.005362;0.009256;0.001752;0.003512;-0.007504;0.854961;-0.00185;0.00185;0.028256
0.703509;-1.075601;0.943899;-0.77784;0.064401;-0.065098;0.783211;-0.001958;-0.001759;-0.00157;-12.02425;-1.11337;-0.898174;-0.083165;-2.854328e-04;-0.003432;0.001573;97.461685;52.461685;0.002098;0.002199;-0.001958;-0.002194;-9.461851e-04;-0.001759;0.001248;0.878801;-0.003718;0.003718;0.052746
0.770674;-1.075601;0.916039;-0.777651;0.064143;-0.059958;0.782592;-0.018545;0.002029;-0.003387;7.421973;9.141552;0.109391;0.134735;0.002572;-0.019088;0.01083;55.944569;10.944567;0.01444;0.013664;-0.018545;-0.003916;-0.002858;0.002029;0.001058;0.856081;-0.016516;0.016516;0.057816
0.83784;-1.075601;0.907932;-0.777874;0.064043;-0.051273;0.782188;-0.013811;0.009573;-0.009028;1.334964;1.442722;0.693134;0.749084;0.012653;-0.016891;0.014772;100.229095;55.229095;0.019696;0.017115;-0.013811;-0.015867;-0.002188;0.009573;0.013679;0.856659;-0.004238;0.004238;0.064158
0.905005;-1.075601;0.898993;-0.777932;0.064167;-0.045226;0.781883;-0.004961;0.006675;0.005263;0.802971;0.743133;1.345654;1.245375;0.008702;-0.006988;0.007845;154.720154;109.720154;0.01046;0.009077;-0.004961;0.01105;-5.241606e-04;0.006675;-0.011574;0.853767;0.001715;-0.001715;0.058857
0.97217;-1.075601;0.850876;-0.778212;0.06406;-0.048771;0.782365;0.021978;-0.002266;-0.003166;0.119406;9.697989;0.103114;8.374754;0.022384;-0.002673;0.012529;31.499678;166.49968;0.016705;0.015889;0.021978;-0.005326;-0.001006;-0.002266;0.004321;0.802105;0.019712;-0.019712;0.077228
1.039336;-1.075601;0.82854;-0.778189;0.06419;-0.055248;0.782784;0.005268;-0.001607;-0.004587;0.515897;3.278386;0.305028;1.93837;0.007563;-0.003902;0.005732;164.302231;119.302231;0.007643;0.006731;0.005268;-0.009174;-4.599594e-07;-0.001607;0.009173;0.773293;0.003661;-0.003661;0.052724
1.106501;-1.075601;0.838746;-0.778061;0.06407;-0.053871;0.782551;-0.011581;9.173718e-04;-0.006456;3.918991;12.624533;0.079211;0.255168;0.003653;-0.014317;0.008985;90.975487;45.975491;0.01198;0.010967;-0.011581;-0.011981;-9.310356e-04;9.173718e-04;0.01105;0.784874;-0.010664;0.010664;0.04706
1.173667;-1.075601;0.788106;-0.778029;0.064009;-0.049993;0.782257;0.01012;0.004498;0.012317;0.267004;-2.249845;-0.444475;3.745264;0.019943;-0.005325;0.012634;113.554039;68.554039;0.016845;0.015381;0.01012;0.024958;-3.238757e-04;0.004498;-0.025282;0.738112;0.014618;-0.014618;0.047108
1.240832;-1.075601;0.707306;-0.778314;0.063827;-0.057263;0.783024;0.009622;0.007237;0.013043;0.216837;-1.32961;-0.7521;4.611754;0.021528;-0.004668;0.013098;116.715324;71.715324;0.017464;0.016134;0.009622;0.026884;-7.969134e-04;0.007237;-0.02768;0.650043;0.01686;-0.01686;0.040873
1.307997;-1.075601;0.670335;-0.778325;0.06368;-0.053313;0.782744;0.015373;0.001497;-0.003656;-0.036384;-10.272449;-0.097348;-27.484875;0.016277;5.922291e-04;0.007843;20.540947;155.540955;0.010457;0.01066;0.015373;-0.006916;-3.958946e-04;0.001497;0.00652;0.617022;0.01687;-0.01687;0.013766
1.375163;-1.075601;0.584583;-0.778142;0.063723;-0.061613;0.783174;0.006305;8.27933e-05;-0.014006;0.635871;-76.147705;-0.013132;1.572646;0.017541;-0.011154;0.014348;147.294815;102.294807;0.01913;0.016704;0.006305;-0.028945;9.32267e-04;8.27933e-05;0.029877;0.52297;0.006387;-0.006387;0.017096
1.442328;-1.075601;0.458849;-0.778525;0.063952;-0.056087;0.783158;-0.04561;5.009719e-04;-0.007778;26.374956;91.043343;0.010984;0.037915;0.001778;-0.046887;0.024332;65.272369;20.272367;0.032443;0.031867;-0.04561;-0.016846;0.001289;5.009719e-04;0.018135;0.402762;-0.045109;0.045109;0.070939
1.509493;-1.075601;0.324468;-0.778747;0.063862;-0.045769;0.782701;-0.058719;-0.001579;0.002187;-39.321545;-37.187988;-0.02689;-0.025431;-0.001495;-0.058803;0.028654;41.094433;176.094437;0.038205;0.038713;-0.058719;0.003996;3.770725e-04;-0.001579;-0.003619;0.278699;-0.060298;0.060298;0.043857
-0.236806;-1.142766;0.474902;-0.776715;0.065291;-0.051662;0.781164;-0.004781;0.001026;-0.008452;1.531827;4.657903;0.214689;0.652815;0.00706;-0.010814;0.008937;117.994637;72.994637;0.011916;0.010395;-0.004781;-0.015434;-0.001471;0.001026;0.013963;0.42324;-0.003755;0.003755;0.037743
-0.169641;-1.142766;0.546378;-0.776722;0.065053;-0.053078;0.781247;-0.01554;-0.001036;-0.001672;-18.602858;-15.002754;-0.066654;-0.053755;-8.455579e-04;-0.01573;0.007442;48.490299;3.490299;0.009923;0.010216;-0.01554;-8.005537e-04;-0.002543;-0.001036;-0.001743;0.4933;-0.016575;0.016575;0.009781
-0.102475;-1.142766;0.597705;-0.776958;0.06476;-0.056015;0.781661;-0.006361;-3.504604e-04;0.005666;3.195055;-18.151039;-0.055093;0.312984;0.003058;-0.009769;0.006413;160.486313;115.486313;0.008551;0.007736;-0.006361;0.013561;-0.002229;-3.504604e-04;-0.01579;0.54169;-0.006712;0.006712;0.00951
-0.03531;-1.142766;0.664244;-0.777069;0.064654;-0.054604;0.781663;0.021132;0.003627;0.003604;-0.133383;-5.827016;-0.171614;-7.497231;0.021845;0.002914;0.009466;65.860352;20.860352;0.012621;0.013696;0.021132;0.007949;-7.418173e-04;0.003627;-0.008691;0.60964;0.024759;-0.024759;0.052229
0.031855;-1.142766;0.717089;-0.777188;0.064683;-0.047653;0.781329;0.008323;0.00515;0.003738;-0.247785;-1.616147;-0.618756;-4.035753;0.010798;0.002676;0.004061;98.331657;53.331654;0.005415;0.006493;0.008323;0.009323;-0.001847;0.00515;-0.01117;0.669436;0.013473;-0.013473;0.077737
0.099021;-1.142766;0.714731;-0.777303;0.064297;-0.047964;0.781431;-0.01799;0.009243;0.012785;1.611483;1.946337;0.513786;0.620546;0.014304;-0.023051;0.018678;168.620255;123.620247;0.024903;0.021763;-0.01799;0.024521;0.001048;0.009243;-0.023473;0.666767;-0.008747;0.008747;0.072556
0.166186;-1.142766;0.806724;-0.77709;0.064557;-0.050572;0.781405;-0.015503;0.004112;0.005855;2.988931;3.769973;0.265254;0.334568;0.005727;-0.017118;0.011423;11.812992;146.812988;0.01523;0.013726;-0.015503;0.009923;0.001787;0.004112;-0.008136;0.756151;-0.011391;0.011391;0.036594
0.233352;-1.142766;0.874495;-0.777028;0.064693;-0.051772;0.781433;-0.008311;0.003995;5.636131e-04;2.073233;2.080153;0.480734;0.482338;0.004021;-0.008336;0.006179;22.785742;157.785736;0.008238;0.007278;-0.008311;0.002323;-0.001196;0.003995;-0.003519;0.822723;-0.004315;0.004315;0.046069
0.300517;-1.142766;0.881782;-0.777429;0.064396;-0.055278;0.782048;-0.003045;0.00311;-0.001258;0.9806;0.979059;1.021389;1.019784;0.003357;-0.003292;0.003325;10.671962;145.671967;0.004433;0.003839;-0.003045;8.579371e-04;-0.003373;0.00311;-0.004231;0.826504;6.513306e-05;-6.513306e-05;0.028825
0.367682;-1.142766;0.903099;-0.777309;0.063995;-0.059956;0.78224;-9.521182e-04;0.003216;0.001107;0.351657;0.296063;3.377665;2.843683;0.003492;-0.001228;0.00236;144.636139;99.636131;0.003146;0.002827;-9.521182e-04;0.002331;-1.174394e-04;0.003216;-0.002449;0.843143;0.002264;-0.002264;0.03733
0.434848;-1.142766;0.918496;-0.777192;0.064235;-0.058926;0.782065;4.326536e-04;0.003255;0.001459;0.048033;-0.132909;-7.523925;20.819229;0.003874;-1.860772e-04;0.00203;110.714584;65.714584;0.002707;0.002647;4.326536e-04;0.001375;0.001543;0.003255;1.684258e-04;0.85957;0.003688;-0.003688;0.046185
0.502013;-1.142766;0.892736;-0.777603;0.064218;-0.055665;0.782234;-0.004722;0.003992;0.002126;1.162858;1.182894;0.845384;0.85995;0.004483;-0.005213;0.004848;169.314865;124.314865;0.006464;0.005603;-0.004722;0.006622;-0.002369;0.003992;-0.008991;0.83707;-7.300691e-04;7.300691e-04;0.056622
0.569178;-1.142766;0.90559;-0.777772;0.064058;-0.062943;0.78294;-0.013457;0.004811;0.006402;2.265816;2.797434;0.35747;0.441342;0.006831;-0.015478;0.011154;177.389618;132.389618;0.014873;0.013199;-0.013457;0.013949;-0.001145;0.004811;-0.015094;0.842647;-0.008647;0.008647;0.042779
0.636344;-1.142766;0.938516;-0.77774;0.06421;-0.066281;0.783196;1.136448e-04;0.004562;-0.003085;0.238602;-0.024914;-40.138699;4.191075;0.00614;-0.001465;0.003803;149.308044;104.308037;0.00507;0.004659;1.136448e-04;-0.004204;-0.001965;0.004562;0.002239;0.872235;0.004675;-0.004675;0.049025
0.703509;-1.142766;0.9568;-0.777632;0.064177;-0.063269;0.782836;-0.007978;-0.003718;0.005901;28.45719;-2.145915;-0.466002;0.035141;4.259733e-04;-0.012122;0.006274;166.157043;121.157036;0.008365;0.008227;-0.007978;0.012291;-4.882523e-04;-0.003718;-0.012779;0.893531;-0.011696;0.011696;0.084452
0.770674;-1.142766;0.912367;-0.777725;0.064082;-0.059049;0.782592;-0.00937;0.003331;0.006719;1.970108;2.813148;0.355474;0.507586;0.006226;-0.012265;0.009245;168.559601;123.559601;0.012327;0.010864;-0.00937;0.013587;-1.492894e-04;0.003331;-0.013736;0.853318;-0.006039;0.006039;0.058047
0.83784;-1.142766;0.937095;-0.777786;0.064123;-0.052096;0.782162;-0.005568;0.00967;0.005589;0.643278;0.575776;1.736787;1.554537;0.0115;-0.007398;0.009449;151.53299;106.53299;0.012598;0.010996;-0.005568;0.011024;1.528161e-04;0.00967;-0.010871;0.884999;0.004102;-0.004102;0.026859
0.905005;-1.142766;0.904486;-0.778008;0.064133;-0.048234;0.782136;-4.442097e-04;0.005612;-0.011441;0.641627;0.079159;12.632737;1.558539;0.014419;-0.009252;0.011835;135.798508;90.7985;0.01578;0.013774;-4.442097e-04;-0.020209;-0.002674;0.005612;0.017534;0.856253;0.005167;-0.005167;0.022332
0.97217;-1.142766;0.867292;-0.778073;0.064156;-0.056109;0.782728;0.033367;0.002038;-0.010283;0.028425;-16.37326;-0.061075;35.180763;0.03644;-0.001036;0.018738;14.519812;149.519806;0.024984;0.024646;0.033367;-0.019568;-9.982779e-04;0.002038;0.01857;0.811183;0.035404;-0.035404;0.058025
1.039336;-1.142766;0.850541;-0.778004;0.064007;-0.062527;0.783133;0.005254;0.004789;-0.004755;-0.026649;-1.097;-0.911577;-37.524231;0.009782;2.606798e-04;0.004761;169.404114;124.404106;0.006347;0.006436;0.005254;-0.006989;-0.002521;0.004789;0.004469;0.788014;0.010042;-0.010042;0.026588
1.106501;-1.142766;0.84877;-0.777984;0.063727;-0.059475;0.782852;-0.025678;0.006416;-0.002036;3.943146;4.002163;0.249865;0.253605;0.006545;-0.025807;0.016176;48.220818;3.220819;0.021568;0.019751;-0.025678;-0.001903;-0.002169;0.006416;-2.654401e-04;0.789295;-0.019262;0.019262;0.027623
1.173667;-1.142766;0.791613;-0.778088;0.063719;-0.049331;0.78225;-0.012862;0.004629;4.288238e-04;2.774518;2.778545;0.359901;0.360423;0.00464;-0.012873;0.008756;38.559597;173.559601;0.011675;0.010477;-0.012862;0.00116;-3.025038e-04;0.004629;-0.001463;0.742282;-0.008233;0.008233;0.029343
1.240832;-1.142766;0.732538;-0.778636;0.063683;-0.05487;0.783161;0.022426;0.003139;0.006299;-0.052018;-7.144606;-0.139966;-19.224249;0.024301;0.001264;0.011518;76.054268;31.05427;0.015358;0.015796;0.022426;0.013372;-7.743261e-04;0.003139;-0.014146;0.677667;0.025565;-0.025565;0.039264
1.307997;-1.142766;0.705309;-0.778288;0.063629;-0.057023;0.782964;0.025562;0.002291;0.001926;-0.082932;-11.155849;-0.089639;-12.058113;0.025721;0.002133;0.011794;54.280037;9.280035;0.015725;0.016482;0.025562;0.004172;-3.20001e-04;0.002291;-0.004492;0.648287;0.027854;-0.027854;0.008192
1.375163;-1.142766;0.596097;-0.77848;0.063489;-0.062977;0.7836;0.004976;0.002757;0.006225;0.241119;-1.804918;-0.554042;4.147333;0.010189;-0.002457;0.006323;110.818474;65.818474;0.008431;0.007743;0.004976;0.011128;0.001322;0.002757;-0.009806;0.53312;0.007733;-0.007733;4.797071e-04
1.442328;-1.142766;0.487595;-0.778665;0.064051;-0.059719;0.783573;-0.04508;6.13075e-04;0.003605;50.638916;73.531357;0.0136;0.019748;8.958126e-04;-0.045363;0.023129;39.988319;174.988327;0.030839;0.030545;-0.04508;0.004015;0.003196;6.13075e-04;-8.192366e-04;0.427875;-0.044467;0.044467;0.046516
1.509493;-1.142766;0.340398;-0.778908;0.06472;-0.04713;0.783012;-0.06255;-0.00322;-0.002715;-20.242481;-19.424585;-0.051481;-0.049401;-0.003096;-0.062674;0.029789;52.698273;7.698272;0.039719;0.04079;-0.06255;-0.008613;0.003183;-0.00322;0.011795;0.293269;-0.06577;0.06577;0.011903
-0.236806;-1.209931;0.470619;-0.776871;0.065419;-0.048693;0.78114;-0.008353;0.001206;0.005113;3.085998;6.92398;0.144426;0.324044;0.003426;-0.010573;0.007;173.064774;128.064774;0.009333;0.008426;-0.008353;0.010604;-3.765884e-04;0.001206;-0.01098;0.421926;-0.007147;0.007147;0.048367
-0.169641;-1.209931;0.564149;-0.776914;0.065478;-0.050063;0.781274;-0.019864;0.001494;0.001576;12.414737;13.298182;0.075198;0.080549;0.001609;-0.01998;0.010795;28.157969;163.157974;0.014393;0.013887;-0.019864;0.005916;-0.002764;0.001494;-0.00868;0.514086;-0.01837;0.01837;0.044435
-0.102475;-1.209931;0.620666;-0.776967;0.064808;-0.05636;0.781699;-0.004434;0.002963;-0.003409;1.342409;1.496266;0.66833;0.744929;0.004295;-0.005765;0.00503;75.961815;30.961815;0.006707;0.005829;-0.004434;-0.003666;-0.003152;0.002963;5.137014e-04;0.564307;-0.001471;0.001471;0.045303
-0.03531;-1.209931;0.691412;-0.777074;0.064506;-0.05313;0.781555;0.015803;0.001521;-7.52887e-05;-0.096226;-10.389265;-0.096253;-10.392238;0.015804;0.001521;0.007142;51.087997;6.087996;0.009522;0.010067;0.015803;0.00189;-0.00204;0.001521;-0.00393;0.638281;0.017324;-0.017324;0.054156
0.031855;-1.209931;0.72019;-0.777211;0.064333;-0.051006;0.781536;-0.009098;-0.006111;0.008378;17.783489;-1.488752;-0.671704;0.056232;9.061623e-04;-0.016115;0.00851;155.831512;110.831505;0.011347;0.011058;-0.009098;0.02076;-0.004003;-0.006111;-0.024763;0.669184;-0.015209;0.015209;0.0596
0.099021;-1.209931;0.71307;-0.777454;0.064087;-0.058258;0.782263;-0.007596;-0.004292;0.03426;1.419241;-1.769605;-0.565098;0.704602;0.028356;-0.040244;0.0343;141.953262;96.953262;0.045734;0.039804;-0.007596;0.064428;0.004093;-0.004292;-0.060335;0.654812;-0.011888;0.011888;0.08657
0.166186;-1.209931;0.806452;-0.777152;0.064325;-0.055959;0.781815;0.008228;0.002085;0.03444;0.740446;-3.947096;-0.253351;1.350537;0.039733;-0.02942;0.034577;127.834877;82.834877;0.046102;0.040073;0.008228;0.06616;0.00272;0.002085;-0.06344;0.750494;0.010313;-0.010313;0.070542
0.233352;-1.209931;0.881442;-0.777176;0.064382;-0.05601;0.781847;-0.004908;0.006412;0.013137;0.900083;0.765374;1.30655;1.111008;0.015057;-0.013552;0.014304;144.961212;99.961212;0.019073;0.016525;-0.004908;0.025854;4.197649e-04;0.006412;-0.025435;0.825433;0.001504;-0.001504;0.067451
0.300517;-1.209931;0.886395;-0.77728;0.064073;-0.057393;0.782026;-0.002175;0.005323;-0.001373;0.434452;0.408564;2.447594;2.30175;0.005566;-0.002418;0.003992;171.924515;126.924515;0.005323;0.004728;-0.002175;7.716875e-04;-0.003518;0.005323;-0.00429;0.829002;0.003148;-0.003148;0.006977
0.367682;-1.209931;0.879742;-0.777404;0.063877;-0.054479;0.781924;-1.806846e-04;-0.002549;-2.879324e-05;-14.1387;-0.070875;-14.10938;-0.070728;-1.803346e-04;-0.00255;0.001185;139.005478;94.005478;0.00158;0.001643;-1.806846e-04;-2.548594e-04;1.97273e-04;-0.002549;4.521324e-04;0.825263;-0.00273;0.00273;0.022701
0.434848;-1.209931;0.891774;-0.777455;0.063956;-0.054716;0.781998;0.003085;-1.401117e-04;2.303151e-04;0.050458;22.016434;0.045421;19.818365;0.003101;-1.564774e-04;0.001629;36.334621;171.334625;0.002172;0.002122;0.003085;-4.706773e-04;9.313076e-04;-1.401117e-04;0.001402;0.837057;0.002945;-0.002945;0.009984
0.502013;-1.209931;0.923673;-0.777686;0.064143;-0.051868;0.782049;-0.013396;0.005513;0.001109;2.413329;2.429957;0.41153;0.414365;0.005578;-0.013461;0.009519;31.872894;166.872894;0.012693;0.011302;-0.013396;0.00251;-2.9125e-04;0.005513;-0.002801;0.871806;-0.007883;0.007883;0.001328
0.569178;-1.209931;0.949673;-0.777587;0.063988;-0.06237;0.782704;-0.005508;0.009511;0.0029;0.601718;0.579088;1.726853;1.661908;0.010051;-0.006048;0.00805;144.552277;99.552277;0.010733;0.00939;-0.005508;0.004592;0.001207;0.009511;-0.003385;0.887304;0.004003;-0.004003;0.03189
0.636344;-1.209931;0.934692;-0.777489;0.064034;-0.060057;0.78243;-0.006157;0.005186;0.005699;1.128433;1.187091;0.842396;0.886185;0.007555;-0.008525;0.00804;64.658737;19.658735;0.01072;0.009289;-0.006157;7.004944e-04;0.010697;0.005186;0.009997;0.874635;-9.702979e-04;9.702979e-04;0.051239
0.703509;-1.209931;0.893415;-0.777402;0.063734;-0.058387;0.782192;-0.003845;0.004719;0.008508;0.912306;0.814872;1.227186;1.096124;0.009962;-0.009088;0.009525;144.841278;99.84127;0.0127;0.011002;-0.003845;0.012049;0.004968;0.004719;-0.007081;0.835027;8.735842e-04;-8.735842e-04;0.080077
0.770674;-1.209931;0.892063;-0.777751;0.063615;-0.05818;0.782514;-9.134469e-04;0.005688;0.003814;0.35747;0.160587;6.227164;2.797435;0.007431;-0.002656;0.005044;139.341553;94.341545;0.006725;0.006038;-9.134469e-04;0.007606;2.16815e-05;0.005688;-0.007584;0.833882;0.004775;-0.004775;0.050426
0.83784;-1.209931;0.893441;-0.77773;0.063859;-0.060597;0.782697;-0.01054;0.002373;-0.00436;3.203164;4.44232;0.225108;0.312191;0.003707;-0.011875;0.007791;93.112663;48.112663;0.010388;0.009399;-0.01054;-0.012104;0.003383;0.002373;0.015486;0.832844;-0.008168;0.008168;0.024327
0.905005;-1.209931;0.884919;-0.778032;0.063974;-0.052164;0.782399;-0.013594;0.006633;-0.004177;1.932979;2.049536;0.487915;0.517336;0.007462;-0.014423;0.010942;85.926376;40.926376;0.01459;0.012846;-0.013594;-0.010065;0.001711;0.006633;0.011777;0.832755;-0.006961;0.006961;0.024102
0.97217;-1.209931;0.862321;-0.778199;0.063941;-0.054816;0.782743;0.015413;0.003114;0.005522;-0.056993;-4.949373;-0.202046;-17.545954;0.017528;9.989798e-04;0.008265;83.34948;38.349483;0.011019;0.011367;0.015413;0.011955;-9.115721e-04;0.003114;-0.012866;0.807505;0.018527;-0.018527;0.05623
1.039336;-1.209931;0.822778;-0.778012;0.063647;-0.058313;0.782786;0.007031;4.132506e-04;0.0093;0.452355;-17.014153;-0.058775;2.210651;0.013593;-0.006149;0.009871;116.90519;71.90519;0.013162;0.011665;0.007031;0.021782;-0.003182;4.132506e-04;-0.024965;0.764465;0.007444;-0.007444;0.0176
1.106501;-1.209931;0.825999;-0.778063;0.063328;-0.057289;0.782735;-0.017732;-0.002746;0.010258;9.310345;-6.458096;-0.154844;0.107407;0.002464;-0.022942;0.012703;172.62352;127.623512;0.016938;0.016179;-0.017732;0.022858;-0.002342;-0.002746;-0.025199;0.768709;-0.020478;0.020478;0.02804
1.173667;-1.209931;0.788798;-0.778219;0.063364;-0.051104;0.782465;-0.024912;0.002125;0.005256;8.32444;11.721513;0.085313;0.120128;0.003111;-0.025898;0.014504;22.937431;157.937424;0.019339;0.01839;-0.024912;0.010064;4.476763e-04;0.002125;-0.009616;0.737694;-0.022787;0.022787;0.030214
1.240832;-1.209931;0.7054;-0.778696;0.063399;-0.050882;0.782927;0.022539;-0.002939;0.008821;0.225142;7.668336;0.130406;4.441632;0.025295;-0.005695;0.015495;81.705658;36.705658;0.02066;0.019047;0.022539;0.016675;9.659593e-04;-0.002939;-0.015709;0.654518;0.0196;-0.0196;0.019467
1.307997;-1.209931;0.665649;-0.778479;0.063419;-0.057159;0.783146;0.023303;-0.002394;0.007823;0.179937;9.735822;0.102713;5.557504;0.025497;-0.004588;0.015043;79.287712;34.287712;0.020057;0.018716;0.023303;0.01577;-1.233323e-04;-0.002394;-0.015893;0.60849;0.02091;-0.02091;0.029321
1.375163;-1.209931;0.586312;-0.77886;0.063341;-0.056649;0.783482;0.001071;0.001273;0.016191;0.86498;-0.841591;-1.188226;1.156096;0.017364;-0.015019;0.016192;133.008835;88.008842;0.021589;0.018713;0.001071;0.03164;7.422772e-04;0.001273;-0.030898;0.529663;0.002344;-0.002344;0.016641
1.442328;-1.209931;0.510433;-0.778912;0.06358;-0.057577;0.783621;-0.028185;0.00438;0.011681;3.92575;6.435354;0.155392;0.254728;0.008136;-0.031942;0.020039;10.527816;145.527817;0.026719;0.024462;-0.028185;0.019496;0.003866;0.00438;-0.01563;0.452855;-0.023805;0.023805;0.004325
1.509493;-1.209931;0.375338;-0.778748;0.064319;-0.050585;0.783035;-0.049552;0.004885;0.001659;10.049516;10.143032;0.09859;0.099507;0.004936;-0.049603;0.027269;46.970623;1.970623;0.036359;0.03483;-0.049552;-0.001253;0.00457;0.004885;0.005824;0.324753;-0.044667;0.044667;0.020447
-0.236806;-1.277097;0.475412;-0.777;0.06512;-0.053561;0.781561;-0.003202;0.006574;0.009303;0.723498;0.487081;2.053047;1.382174;0.012194;-0.008823;0.010508;144.556702;99.556709;0.014011;0.012186;-0.003202;0.020443;-0.001838;0.006574;-0.022281;0.421851;0.003372;-0.003372;0.05836
-0.169641;-1.277097;0.548493;-0.777126;0.064907;-0.053946;0.781696;-0.011518;0.007329;0.002564;1.546112;1.57164;0.636278;0.646784;0.007671;-0.01186;0.009766;1.791475;136.791473;0.013021;0.011363;-0.011518;0.008716;-0.003588;0.007329;-0.012303;0.494547;-0.004189;0.004189;0.078517
-0.102475;-1.277097;0.621353;-0.777195;0.064283;-0.055743;0.781839;0.002441;0.005425;-0.002903;-0.092863;-0.449876;-2.222835;-10.768505;0.007197;6.683402e-04;0.003264;166.053879;121.053879;0.004352;0.004591;0.002441;-0.002951;-0.002856;0.005425;9.490587e-05;0.565611;0.007865;-0.007865;0.066471
-0.03531;-1.277097;0.708016;-0.777358;0.064334;-0.05097;0.781679;2.996031e-04;0.002765;0.001677;0.151975;-0.108342;-9.230062;6.58001;0.003614;-5.492747e-04;0.002082;137.3069;92.3069;0.002776;0.002612;2.996031e-04;0.004159;-8.037285e-04;0.002765;-0.004962;0.657046;0.003065;-0.003065;0.046789
0.031855;-1.277097;0.732404;-0.777193;0.06407;-0.058888;0.782049;-0.023634;-2.622848e-04;0.004643;39.159794;-90.108109;-0.011098;0.025536;6.262159e-04;-0.024522;0.012574;25.830748;160.83075;0.016766;0.016561;-0.023634;0.008221;0.001065;-2.622848e-04;-0.007156;0.673516;-0.023896;0.023896;0.014199
0.099021;-1.277097;0.737825;-0.777412;0.063885;-0.066755;0.782884;-0.003723;0.002498;-0.002335;1.374114;1.490804;0.670779;0.727742;0.003276;-0.004502;0.003889;102.362373;57.36237;0.005186;0.00451;-0.003723;-0.005176;5.062119e-04;0.002498;0.005683;0.67107;-0.001226;0.001226;0.057987
0.166186;-1.277097;0.816829;-0.777084;0.064263;-0.061014;0.78212;0.014713;0.001487;0.002369;-0.071111;-9.893379;-0.101078;-14.062494;0.015125;0.001076;0.007025;59.620201;14.620203;0.009366;0.009745;0.014713;0.003729;0.00101;0.001487;-0.002719;0.755816;0.0162;-0.0162;0.060027
0.233352;-1.277097;0.863722;-0.777111;0.064204;-0.059462;0.782023;-2.754155e-04;0.004909;0.005314;0.436934;0.056105;17.823751;2.288674;0.008229;-0.003596;0.005912;139.008575;94.008575;0.007883;0.007;-2.754155e-04;0.01245;-0.001822;0.004909;-0.014272;0.804261;0.004634;-0.004634;0.044198
0.300517;-1.277097;0.871584;-0.777286;0.063921;-0.058463;0.782098;-5.590115e-04;0.002061;7.625611e-04;0.337324;0.27118;3.687583;2.964507;0.002267;-7.647669e-04;0.001516;160.786469;115.786461;0.002021;0.001821;-5.590115e-04;0.005958;-0.004433;0.002061;-0.010391;0.813121;0.001502;-0.001502;0.002936
0.367682;-1.277097;0.86185;-0.777663;0.063738;-0.054011;0.782138;-0.001598;-0.00244;7.112449e-04;-2.386588;-0.654845;-1.527079;-0.419008;-0.001192;-0.002845;8.265281e-04;138.022644;93.022652;0.001102;0.00165;-0.001598;0.003422;-0.002;-0.00244;-0.005422;0.80784;-0.004037;0.004037;0.00134
0.434848;-1.277097;0.880068;-0.777776;0.063595;-0.056411;0.782408;0.003602;6.013458e-04;0.005947;0.489625;-5.989425;-0.166961;2.042381;0.008235;-0.004032;0.006134;112.844582;67.844582;0.008178;0.00722;0.003602;0.009565;0.00233;6.013458e-04;-0.007235;0.823656;0.004203;-0.004203;0.017122
0.502013;-1.277097;0.927914;-0.777771;0.063782;-0.054197;0.782261;-0.007956;0.005122;0.002234;1.515854;1.553217;0.643825;0.659694;0.005493;-0.008327;0.00691;33.311855;168.311859;0.009214;0.008035;-0.007956;0.002346;0.002122;0.005122;-2.238316e-04;0.873717;-0.002834;0.002834;0.016749
0.569178;-1.277097;0.937718;-0.777684;0.063864;-0.060196;0.78262;-4.086643e-04;6.450486e-04;-0.001586;0.867871;0.63354;1.578431;1.152245;0.001789;-0.001553;0.001671;126.73233;81.73233;0.002228;0.001931;-4.086643e-04;-0.005255;0.002084;6.450486e-04;0.007339;0.877522;2.363843e-04;-2.363843e-04;0.00439
0.636344;-1.277097;0.934086;-0.77778;0.063827;-0.052945;0.782188;0.00263;0.003007;-2.004489e-04;-0.822265;-0.874854;-1.143048;-1.216153;0.003094;0.002544;2.749116e-04;154.327744;109.327751;3.665488e-04;0.001906;0.00263;-6.045457e-04;2.036479e-04;0.003007;8.081936e-04;0.881141;0.005637;-0.005637;0.051553
0.703509;-1.277097;0.926371;-0.777739;0.06364;-0.04619;0.781704;-0.00265;0.014892;0.002402;0.195402;0.177946;5.619678;5.117667;0.015215;-0.002973;0.009094;135.544083;90.544083;0.012125;0.011266;-0.00265;0.004205;6.002001e-04;0.014892;-0.003604;0.880181;0.012242;-0.012242;0.069172
0.770674;-1.277097;0.961593;-0.778164;0.063662;-0.058001;0.782916;0.013007;0.009154;0.018813;0.261112;-1.420953;-0.703753;3.829772;0.029992;-0.007831;0.018911;110.417336;65.417336;0.025215;0.023053;0.013007;0.030564;0.007062;0.009154;-0.023501;0.903592;0.02216;-0.02216;0.069137
0.83784;-1.277097;0.930174;-0.777925;0.063825;-0.063884;0.783148;-0.014983;0.006025;0.00438;2.297826;2.486664;0.402145;0.435194;0.006902;-0.015859;0.011381;18.358393;153.358398;0.015174;0.013476;-0.014983;0.007034;0.001726;0.006025;-0.005307;0.86629;-0.008957;0.008957;0.049141
0.905005;-1.277097;0.880198;-0.777813;0.063765;-0.053174;0.782232;-0.020036;0.003966;9.20452e-05;5.051793;5.052154;0.197935;0.19795;0.003966;-0.020036;0.012001;41.124451;176.124451;0.016001;0.014857;-0.020036;0.001123;-9.389103e-04;0.003966;-0.002062;0.827024;-0.01607;0.01607;0.016137
0.97217;-1.277097;0.869141;-0.778086;0.063601;-0.051499;0.782378;-0.005201;0.0066;3.826636e-04;0.78847;0.788073;1.268918;1.268279;0.006613;-0.005214;0.005913;173.386581;128.386581;0.007884;0.006844;-0.005201;0.004555;-0.003789;0.0066;-0.008344;0.817643;0.001399;-0.001399;0.023949
1.039336;-1.277097;0.847967;-0.778264;0.063481;-0.048677;0.782364;0.009794;0.006026;0.008154;0.028208;-1.625247;-0.615291;35.45137;0.016279;-4.591812e-04;0.008369;109.624626;64.624626;0.011159;0.011009;0.009794;0.018373;-0.002064;0.006026;-0.020437;0.799291;0.015819;-0.015819;0.02083
1.106501;-1.277097;0.809079;-0.778539;0.063303;-0.055245;0.783059;0.008414;0.002589;-0.003088;-0.128949;-3.250368;-0.307658;-7.755025;0.009746;0.001257;0.004245;11.635881;146.63588;0.00566;0.006122;0.008414;-0.005096;-0.001079;0.002589;0.004018;0.753834;0.011003;-0.011003;0.044978
1.173667;-1.277097;0.762343;-0.778605;0.063357;-0.051594;0.78288;-0.026609;0.006153;-0.017469;2.49101;4.324575;0.231237;0.401444;0.01372;-0.034176;0.023948;98.229362;53.229362;0.031931;0.028481;-0.026609;-0.034915;-2.243451e-05;0.006153;0.034893;0.710749;-0.020456;0.020456;0.044873
1.240832;-1.277097;0.700576;-0.778634;0.063422;-0.046533;0.782598;0.014379;-0.002001;-0.01867;0.534238;7.186711;0.139146;1.871824;0.026576;-0.014198;0.020387;155.827393;110.8274;0.027183;0.0239;0.014379;-0.037753;4.131522e-04;-0.002001;0.038166;0.654044;0.012378;-0.012378;0.02143
1.307997;-1.277097;0.658146;-0.778558;0.06342;-0.058683;0.783338;0.0168;-0.00326;-0.013606;0.428018;5.154268;0.194014;2.336351;0.023674;-0.010133;0.016903;166.198669;121.198662;0.022538;0.020033;0.0168;-0.027487;2.754836e-04;-0.00326;0.027763;0.599462;0.013541;-0.013541;0.022034
1.375163;-1.277097;0.59717;-0.778843;0.063331;-0.054178;0.78329;-0.005773;1.743341e-04;-0.008814;1.860886;33.112862;0.0302;0.537379;0.006503;-0.012101;0.009302;117.312355;72.312355;0.012403;0.010902;-0.005773;-0.018125;4.964544e-04;1.743341e-04;0.018621;0.542992;-0.005598;0.005598;0.037733
1.442328;-1.277097;0.498549;-0.778913;0.063511;-0.056976;0.783572;-0.017032;0.002715;-0.005886;4.302087;6.274524;0.159375;0.232445;0.004336;-0.018654;0.011495;85.118713;40.118713;0.015326;0.014105;-0.017032;-0.014249;0.002477;0.002715;0.016726;0.441573;-0.014318;0.014318;0.009175
1.509493;-1.277097;0.392746;-0.778927;0.06382;-0.050541;0.78317;-0.045115;0.004075;-0.003056;10.625556;11.072436;0.090314;0.094113;0.004264;-0.045304;0.024784;57.28022;12.280219;0.033045;0.03172;-0.045115;-0.009517;0.003405;0.004075;0.012922;0.342205;-0.041041;0.041041;0.040395
-0.236806;-1.344262;0.473984;-0.777052;0.064638;-0.05261;0.781509;-0.00599;0.006055;-0.013142;0.995502;0.989236;1.010881;1.004519;0.014489;-0.014424;0.014457;122.780098;77.780098;0.019276;0.016693;-0.00599;-0.02345;-0.002834;0.006055;0.020616;0.421374;6.517953e-05;-6.517953e-05;0.03566
-0.169641;-1.344262;0.560486;-0.777258;0.06435;-0.051938;0.781645;-0.00894;0.00466;-0.008163;1.504553;1.918595;0.521215;0.664649;0.008484;-0.012764;0.010624;103.201363;58.201359;0.014165;0.01235;-0.00894;-0.013015;-0.00331;0.00466;0.009705;0.508548;-0.00428;0.00428;0.053204
-0.102475;-1.344262;0.616017;-0.777338;0.064034;-0.053657;0.781814;-0.004307;0.002641;-0.002024;1.522697;1.630835;0.613183;0.65673;0.003188;-0.004854;0.004021;64.663353;19.663353;0.005361;0.004676;-0.004307;-0.002157;-0.00189;0.002641;2.670702e-04;0.562359;-0.001666;0.001666;0.043525
-0.03531;-1.344262;0.668891;-0.77746;0.064157;-0.053649;0.781946;-6.441231e-04;0.001365;0.001954;0.718038;0.471765;2.1197;1.392684;0.002558;-0.001837;0.002197;139.052078;94.052071;0.00293;0.002549;-6.441231e-04;0.002995;9.131019e-04;0.001365;-0.002082;0.615241;7.212246e-04;-7.212246e-04;0.027712
0.031855;-1.344262;0.73872;-0.777302;0.06436;-0.054318;0.781851;-0.005638;0.003274;-0.01499;1.163541;1.72213;0.580676;0.859445;0.014456;-0.01682;0.015638;124.032661;79.032661;0.020851;0.018075;-0.005638;-0.027544;-0.002436;0.003274;0.025107;0.684401;-0.002364;0.002364;0.011192
0.099021;-1.344262;0.778623;-0.77729;0.06413;-0.054804;0.781854;-0.005807;0.014714;-0.024777;0.715158;0.394636;2.53398;1.398291;0.031271;-0.022363;0.026817;129.07312;84.07312;0.035756;0.031108;-0.005807;-0.04848;-0.001073;0.014714;0.047408;0.723819;0.008907;-0.008907;0.007361
0.166186;-1.344262;0.815241;-0.777193;0.064064;-0.0567;0.781888;-0.011244;0.004687;-0.015817;1.454448;2.399242;0.416798;0.687546;0.01443;-0.020988;0.017709;116.555412;71.555412;0.023612;0.020565;-0.011244;-0.034116;0.002483;0.004687;0.036599;0.758541;-0.006558;0.006558;0.030841
0.233352;-1.344262;0.852172;-0.777208;0.063924;-0.060906;0.782207;-0.010524;0.002669;-0.002673;3.462252;3.942722;0.253632;0.288829;0.00319;-0.011045;0.007117;62.980061;17.980061;0.00949;0.008625;-0.010524;-0.003645;-0.0017;0.002669;0.001944;0.791266;-0.007855;0.007855;0.061998
0.300517;-1.344262;0.888981;-0.777511;0.063858;-0.060333;0.782458;0.001372;-3.800495e-04;7.127275e-04;0.389605;3.610808;0.276946;2.5667;0.001626;-6.333287e-04;0.001129;102.840706;57.840706;0.001506;0.001345;0.001372;0.002788;-0.001362;-3.800495e-04;-0.00415;0.828648;9.922361e-04;-9.922361e-04;0.029613
0.367682;-1.344262;0.908052;-0.777846;0.063676;-0.058978;0.782673;-0.001157;-0.005978;-7.13818e-04;-5.770418;-0.193607;-5.165109;-0.173298;-0.001054;-0.006082;0.002514;112.445175;67.445175;0.003352;0.003753;-0.001157;0.001232;-0.00266;-0.005978;-0.003892;0.849073;-0.007135;0.007135;0.004336
0.434848;-1.344262;0.909681;-0.778007;0.063521;-0.058104;0.782756;0.005167;-0.003965;-3.488711e-04;0.767858;1.303339;0.76726;1.302325;0.005181;-0.003978;0.004579;81.928246;36.928246;0.006106;0.005303;0.005167;0.002536;-0.003234;-0.003965;-0.00577;0.851577;0.001203;-0.001203;0.039973
0.502013;-1.344262;0.926276;-0.77786;0.063439;-0.054306;0.78233;0.001897;0.003052;0.001438;-0.229886;-0.621378;-1.609326;-4.349977;0.004024;9.250731e-04;0.001549;106.187134;61.18713;0.002066;0.002434;0.001897;0.001895;9.800714e-04;0.003052;-9.152642e-04;0.871971;0.004949;-0.004949;0.033014
0.569178;-1.344262;0.891193;-0.777717;0.063569;-0.059307;0.782562;-7.72869e-04;0.004353;7.016051e-04;0.195005;0.177564;5.631767;5.128066;0.004447;-8.671735e-04;0.002657;127.01458;82.01458;0.003543;0.003292;-7.72869e-04;6.809842e-04;7.222261e-04;0.004353;4.124197e-05;0.831887;0.00358;-0.00358;0.017696
0.636344;-1.344262;0.925828;-0.777904;0.063558;-0.057187;0.782588;0.020871;0.003018;6.995951e-04;-0.14309;-6.916148;-0.144589;-6.988609;0.020898;0.00299;0.008954;46.730095;1.730096;0.011939;0.01305;0.020871;4.867211e-04;9.124691e-04;0.003018;4.25748e-04;0.868641;0.023889;-0.023889;0.033798
0.703509;-1.344262;0.970454;-0.777787;0.063522;-0.051502;0.782075;-8.886931e-04;0.003844;6.686836e-04;0.249296;0.231198;4.325301;4.011303;0.003937;-9.813597e-04;0.002459;146.270966;101.270973;0.003279;0.003005;-8.886931e-04;0.001837;-4.991496e-04;0.003844;-0.002336;0.918952;0.002955;-0.002955;0.040348
0.770674;-1.344262;0.945339;-0.778097;0.063492;-0.055315;0.78264;0.008713;-0.002643;0.006355;0.474796;3.296124;0.303387;2.106168;0.011557;-0.005487;0.008522;80.210411;35.210415;0.011363;0.010046;0.008713;0.007593;0.005116;-0.002643;-0.002477;0.890024;0.00607;-0.00607;0.056574
0.83784;-1.344262;0.905127;-0.777754;0.063477;-0.054608;0.782249;-0.005811;0.007666;0.020667;0.918156;0.758021;1.319225;1.08914;0.022666;-0.020811;0.021738;142.579056;97.579056;0.028984;0.025109;-0.005811;0.038974;0.002361;0.007666;-0.036612;0.850518;0.001855;-0.001855;0.046442
0.905005;-1.344262;0.869849;-0.777622;0.063379;-0.052237;0.781947;-0.004425;0.012209;0.005132;0.430349;0.362419;2.759234;2.323696;0.013665;-0.005881;0.009773;151.884766;106.884758;0.01303;0.011579;-0.004425;0.013651;-0.003387;0.012209;-0.017038;0.817611;0.007784;-0.007784;0.042026
0.97217;-1.344262;0.882468;-0.778144;0.063224;-0.053992;0.782573;-0.003294;0.003083;-0.001319;1.063116;1.06848;0.935909;0.940631;0.003345;-0.003556;0.00345;96.901443;51.90144;0.0046;0.003985;-0.003294;-0.002011;-6.266693e-04;0.003083;0.001384;0.828476;-2.111104e-04;2.111104e-04;0.050634
1.039336;-1.344262;0.864923;-0.778491;0.063212;-0.051492;0.782749;0.01403;6.624641e-04;-0.014823;0.377605;-21.17874;-0.047217;2.648268;0.023607;-0.008914;0.01626;161.042084;116.042091;0.02168;0.019404;0.01403;-0.028749;-8.972917e-04;6.624641e-04;0.027852;0.813431;0.014693;-0.014693;0.027647
1.106501;-1.344262;0.79537;-0.778595;0.063279;-0.058069;0.783317;0.030351;-3.976912e-04;-0.017509;0.217476;76.316841;0.013103;4.598213;0.038277;-0.008324;0.023301;176.770447;131.770447;0.031068;0.028698;0.030351;-0.033994;-0.001024;-3.976912e-04;0.032969;0.737301;0.029953;-0.029953;0.03683
1.173667;-1.344262;0.772236;-0.778829;0.063143;-0.064374;0.784032;-0.008344;-0.009702;-0.023127;2.27854;-0.859977;-1.162822;0.438877;0.014114;-0.03216;0.023137;125.938744;80.938744;0.03085;0.027386;-0.008344;-0.048183;0.001928;-0.009702;0.050111;0.707862;-0.018046;0.018046;0.036154
1.240832;-1.344262;0.732239;-0.778746;0.063179;-0.057537;0.783421;-6.435323e-04;-0.008706;-0.026218;1.427869;-0.073919;-13.528301;0.700344;0.021851;-0.031201;0.026526;134.642548;89.642548;0.035368;0.030788;-6.435323e-04;-0.054285;0.001849;-0.008706;0.056134;0.674702;-0.009349;0.009349;0.033035
1.307997;-1.344262;0.684098;-0.778619;0.063336;-0.063822;0.783793;-0.005416;0.001246;-0.010535;1.465155;4.346162;0.230088;0.682522;0.008964;-0.013134;0.011049;120.890083;75.890083;0.014732;0.012834;-0.005416;-0.021597;5.266581e-04;0.001246;0.022124;0.620276;-0.00417;0.00417;0.019507
1.375163;-1.344262;0.620601;-0.778718;0.063148;-0.058492;0.78346;-0.012387;0.003056;0.001151;3.971121;4.054093;0.246664;0.251818;0.003141;-0.012473;0.007807;31.518013;166.518021;0.010409;0.009536;-0.012387;0.002711;-4.087436e-04;0.003056;-0.00312;0.562109;-0.009332;0.009332;0.056794
1.442328;-1.344262;0.492804;-0.778797;0.063265;-0.060358;0.783691;-0.01662;0.005017;0.001878;3.240548;3.312814;0.301858;0.30859;0.005179;-0.016782;0.010981;39.032757;174.032761;0.014641;0.013256;-0.01662;0.002089;0.001667;0.005017;-4.226223e-04;0.432446;-0.011603;0.011603;0.058553
1.509493;-1.344262;0.391721;-0.779303;0.06361;-0.052146;0.783632;-0.049532;0.005122;3.57627e-04;9.666599;9.670559;0.103407;0.103449;0.005124;-0.049534;0.027329;48.358971;3.358972;0.036439;0.034857;-0.049532;-0.002553;0.003268;0.005122;0.005821;0.339575;-0.04441;0.04441;0.082138
-0.236806;-1.411427;0.487413;-0.777014;0.064468;-0.048185;0.781171;-0.021493;0.002444;0.002313;8.146162;8.793354;0.113722;0.122757;0.002666;-0.021714;0.01219;27.638559;162.638565;0.016253;0.015442;-0.021493;0.006511;-0.001886;0.002444;-0.008396;0.439229;-0.019049;0.019049;0.040314
-0.169641;-1.411427;0.565768;-0.77712;0.064313;-0.05274;0.781559;-0.013609;0.00115;0.006368;4.5417;11.829582;0.084534;0.220182;0.003518;-0.015977;0.009747;177.593948;132.593948;0.012996;0.011997;-0.013609;0.014949;-0.002214;0.00115;-0.017163;0.513028;-0.012459;0.012459;0.021272
-0.102475;-1.411427;0.629325;-0.777023;0.064037;-0.053512;0.781492;-0.007238;-6.997985e-04;0.003218;13.834984;-10.343473;-0.096679;0.072281;6.184773e-04;-0.008557;0.004588;177.259842;132.259842;0.006117;0.005921;-0.007238;0.008108;-0.001671;-6.997985e-04;-0.009779;0.575814;-0.007938;0.007938;0.018157
-0.03531;-1.411427;0.683541;-0.777296;0.0639;-0.056311;0.781948;0.007258;0.001745;5.986532e-05;-0.240267;-4.160106;-0.240378;-4.162029;0.007258;0.001744;0.002757;39.707821;174.707825;0.003676;0.004375;0.007258;-8.82817e-04;0.001003;0.001745;0.001885;0.62723;0.009002;-0.009002;0.041702
0.031855;-1.411427;0.743342;-0.777443;0.064279;-0.050743;0.781744;0.01633;0.003865;-0.004898;-0.1204;-4.225385;-0.236665;-8.30564;0.018024;0.00217;0.007927;12.741763;147.74176;0.010569;0.011362;0.01633;-0.0099;1.032276e-04;0.003865;0.010003;0.692599;0.020194;-0.020194;0.018112
0.099021;-1.411427;0.774494;-0.777284;0.064137;-0.048745;0.781447;-0.011345;0.003208;-0.00421;2.875847;3.53675;0.282745;0.347724;0.004338;-0.012475;0.008406;73.601074;28.601076;0.011209;0.010079;-0.011345;-0.006296;-0.002124;0.003208;0.004173;0.725749;-0.008137;0.008137;0.004466
0.166186;-1.411427;0.815423;-0.777479;0.063979;-0.05387;0.781965;-0.025197;0.00288;-0.002309;8.272265;8.748381;0.114307;0.120886;0.003069;-0.025385;0.014227;51.071873;6.071874;0.018969;0.018034;-0.025197;-0.002855;-0.001762;0.00288;0.001093;0.761554;-0.022317;0.022317;0.050683
0.233352;-1.411427;0.858646;-0.777214;0.063787;-0.058636;0.782029;-0.014097;0.001954;-0.004776;4.716693;7.215808;0.138585;0.212013;0.003267;-0.01541;0.009339;73.279922;28.279921;0.012452;0.011518;-0.014097;-0.007711;-0.00184;0.001954;0.005871;0.80001;-0.012143;0.012143;0.041979
0.300517;-1.411427;0.893462;-0.777625;0.063708;-0.060588;0.78258;0.001535;6.039228e-04;-0.006893;0.731929;-2.54152;-0.393465;1.366253;0.007978;-0.00584;0.006909;144.027084;99.027092;0.009212;0.00801;0.001535;-0.011122;-0.002664;6.039228e-04;0.008458;0.832874;0.002139;-0.002139;0.034474
0.367682;-1.411427;0.915177;-0.777754;0.063474;-0.057801;0.782478;5.662578e-05;0.002183;-0.006829;0.72109;-0.025937;-38.555302;1.38679;0.008031;-0.005791;0.006911;137.735336;92.735344;0.009214;0.008015;5.662578e-05;-0.011215;-0.002442;0.002183;0.008774;0.857376;0.00224;-0.00224;0.003101
0.434848;-1.411427;0.933252;-0.778182;0.063392;-0.058972;0.782983;0.004309;0.00574;-0.005825;0.077546;-0.750708;-1.332076;12.895611;0.010893;-8.447438e-04;0.005869;154.9702;109.970207;0.007825;0.00756;0.004309;-0.01052;-0.001131;0.00574;0.00939;0.87428;0.010049;-0.010049;0.021313
0.502013;-1.411427;0.94299;-0.777901;0.063321;-0.055209;0.782424;0.002618;0.011932;-0.00262;-0.153062;-0.219377;-4.55837;-6.533305;0.012618;0.001931;0.005343;138.135025;93.135017;0.007124;0.007848;0.002618;-0.005721;4.814333e-04;0.011932;0.006202;0.887781;0.014549;-0.014549;0.024021
0.569178;-1.411427;0.927086;-0.77774;0.06339;-0.055587;0.782297;-0.001777;0.026861;-0.002256;0.072266;0.066168;15.113061;13.837757;0.027038;-0.001954;0.014496;133.973434;88.973427;0.019328;0.018711;-0.001777;-0.004695;1.834242e-04;0.026861;0.004878;0.871499;0.025084;-0.025084;0.048417
0.636344;-1.411427;0.948588;-0.778106;0.063222;-0.054838;0.782594;0.00235;0.015014;-0.00805;0.08246;-0.156513;-6.38926;12.127064;0.018924;-0.00156;0.010242;137.556839;92.556831;0.013656;0.013167;0.00235;-0.017263;0.001162;0.015014;0.018426;0.89375;0.017364;-0.017364;0.052924
0.703509;-1.411427;0.948153;-0.777969;0.063269;-0.052836;0.782324;-2.370456e-04;9.843919e-05;0.00258;1.05508;2.408041;0.415275;0.947796;0.002516;-0.002655;0.002586;32.620789;167.620789;0.003448;0.002986;-2.370456e-04;0.002453;0.002708;9.843919e-05;2.555162e-04;0.895317;-1.386064e-04;1.386064e-04;0.042805
0.770674;-1.411427;0.913456;-0.778084;0.063205;-0.049586;0.78222;-0.002819;0.005974;-1.542752e-04;0.472207;0.471968;2.118789;2.117716;0.005976;-0.002822;0.004399;109.543549;64.543549;0.005866;0.005187;-0.002819;-0.002241;0.001933;0.005974;0.004174;0.86387;0.003154;-0.003154;0.047314
0.83784;-1.411427;0.939722;-0.778014;0.063118;-0.045443;0.781892;-0.0017;0.004534;-0.001868;0.438926;0.374944;2.667063;2.278289;0.005051;-0.002217;0.003634;152.426544;107.426537;0.004845;0.004301;-0.0017;-0.001771;-0.001965;0.004534;-1.939448e-04;0.894279;0.002834;-0.002834;0.047884
0.905005;-1.411427;0.900998;-0.778187;0.062776;-0.049869;0.782306;0.010746;0.004945;0.00118;-0.429488;-2.172871;-0.460221;-2.328352;0.010977;0.004714;0.003131;64.982269;19.982267;0.004175;0.006358;0.010746;0.003702;-0.001341;0.004945;-0.005043;0.85113;0.015691;-0.015691;0.068861
0.97217;-1.411427;0.886117;-0.778286;0.06268;-0.054743;0.782722;0.009953;0.00475;-0.001824;-0.396443;-2.095384;-0.477239;-2.522429;0.010529;0.004174;0.003177;20.756624;155.756622;0.004237;0.006122;0.009953;-0.003582;-6.640728e-05;0.00475;0.003516;0.831373;0.014703;-0.014703;0.077287
1.039336;-1.411427;0.869679;-0.777922;0.062852;-0.059576;0.782728;0.009779;0.002216;-0.004913;0.016565;-4.412398;-0.226634;60.369102;0.012197;-2.020486e-04;0.0062;174.210861;129.210861;0.008266;0.0082;0.009779;-0.011852;0.002026;0.002216;0.013879;0.810103;0.011995;-0.011995;0.039466
1.106501;-1.411427;0.808915;-0.778266;0.063097;-0.05969;0.783097;0.014214;0.003622;0.006709;-0.021228;-3.924064;-0.254838;-47.108212;0.017466;3.707614e-04;0.008548;87.7015;42.7015;0.011397;0.011522;0.014214;0.012655;7.638575e-04;0.003622;-0.011891;0.749225;0.017837;-0.017837;0.029192
1.173667;-1.411427;0.797747;-0.778577;0.063172;-0.065785;0.7839;7.713736e-04;0.009521;0.009096;0.324594;-0.081014;-12.343483;3.080776;0.015239;-0.004947;0.010093;135.043579;90.043571;0.013457;0.012149;7.713736e-04;0.019836;-0.001645;0.009521;-0.021482;0.731961;0.010293;-0.010293;0.028743
1.240832;-1.411427;0.744732;-0.778411;0.062918;-0.061288;0.783351;-0.005999;0.005095;0.008669;1.091902;1.177497;0.849259;0.915833;0.00984;-0.010744;0.010292;152.709915;107.709915;0.013723;0.011888;-0.005999;0.01789;-5.517048e-04;0.005095;-0.018442;0.683444;-9.042965e-04;9.042965e-04;0.035352
1.307997;-1.411427;0.671483;-0.778597;0.0631;-0.060391;0.783481;-0.023317;0.002425;0.009982;4.575668;9.613317;0.104022;0.218547;0.005843;-0.026734;0.016288;6.231031;141.231033;0.021718;0.020056;-0.023317;0.018667;0.001297;0.002425;-0.017371;0.611092;-0.020891;0.020891;0.023416
1.375163;-1.411427;0.578171;-0.778749;0.063057;-0.052615;0.783067;-0.018979;-0.001322;0.017998;3.051581;-14.351883;-0.069677;0.327699;0.009896;-0.030197;0.020046;161.851288;116.85128;0.026728;0.024116;-0.018979;0.037436;-0.001441;-0.001322;-0.038877;0.525556;-0.020302;0.020302;0.050923
1.442328;-1.411427;0.497737;-0.778789;0.062638;-0.056577;0.78335;-0.011712;0.002636;0.02274;1.470115;4.443757;0.225035;0.680219;0.019307;-0.028383;0.023845;149.56192;104.56192;0.031793;0.0277;-0.011712;0.044819;6.613257e-04;0.002636;-0.044158;0.44116;-0.009076;0.009076;0.068416
1.509493;-1.411427;0.385873;-0.779387;0.063244;-0.05132;0.783631;-0.036321;0.005007;0.015488;4.080036;7.25409;0.137853;0.245096;0.010167;-0.041481;0.025824;8.137362;143.13736;0.034432;0.031593;-0.036321;0.027232;0.003743;0.005007;-0.023489;0.334553;-0.031314;0.031314;0.097411
-0.236806;-1.478593;0.462146;-0.777194;0.064308;-0.051929;0.781577;-0.014648;0.007349;0.012761;1.553133;1.993311;0.501678;0.64386;0.013197;-0.020496;0.016846;162.068985;117.068985;0.022462;0.019604;-0.014648;0.028104;-0.002583;0.007349;-0.030687;0.410217;-0.007299;0.007299;0.042778
-0.169641;-1.478593;0.554711;-0.777176;0.064188;-0.056698;0.781881;-0.014089;0.004874;0.005945;2.399513;2.890451;0.345967;0.416751;0.006584;-0.015799;0.011191;0.648566;135.64856;0.014922;0.013283;-0.014089;0.012936;-0.001045;0.004874;-0.013982;0.498013;-0.009215;0.009215;0.032059
-0.102475;-1.478593;0.649964;-0.777022;0.063987;-0.054868;0.78158;-0.002832;0.002927;0.005937;0.985784;0.967723;1.033354;1.014421;0.006645;-0.006551;0.006598;147.744247;102.744247;0.008797;0.007619;-0.002832;0.012924;-0.001051;0.002927;-0.013975;0.595095;9.446886e-05;-9.446886e-05;0.060952
-0.03531;-1.478593;0.696691;-0.777311;0.063848;-0.054763;0.781849;0.011381;0.002831;0.006236;0.03102;-4.020381;-0.248733;32.237362;0.014666;-4.549463e-04;0.007561;93.540894;48.54089;0.010081;0.009933;0.011381;0.012526;-5.351953e-05;0.002831;-0.012579;0.641928;0.014211;-0.014211;0.072204
0.031855;-1.478593;0.752078;-0.777358;0.063958;-0.050837;0.781639;0.013842;0.005454;0.008609;-0.00374;-2.537988;-0.394013;-267.410217;0.019224;7.188904e-05;0.009576;99.419174;54.41917;0.012768;0.012792;0.013842;0.018194;-9.763287e-04;0.005454;-0.01917;0.70124;0.019296;-0.019296;0.043337
0.099021;-1.478593;0.771894;-0.777235;0.06368;-0.052462;0.781602;-0.012123;0.006837;0.005938;1.618742;1.773115;0.563979;0.617764;0.008543;-0.013829;0.011186;172.304001;127.303993;0.014915;0.013036;-0.012123;0.014766;-0.002891;0.006837;-0.017656;0.719432;-0.005286;0.005286;0.016243
0.166186;-1.478593;0.809776;-0.77758;0.063615;-0.056956;0.782254;-0.017661;0.004903;0.00165;3.539935;3.602087;0.277617;0.282491;0.005023;-0.017781;0.011402;30.938881;165.938889;0.015203;0.013836;-0.017661;0.003947;-6.472697e-04;0.004903;-0.004594;0.75282;-0.012758;0.012758;0.034534
0.233352;-1.478593;0.850458;-0.77736;0.063645;-0.058097;0.782122;-0.002185;0.002717;-0.00556;0.916135;0.804221;1.243439;1.091542;0.006343;-0.005811;0.006077;124.57476;79.57476;0.008102;0.007019;-0.002185;-0.010744;-3.768001e-04;0.002717;0.010367;0.792361;5.319164e-04;-5.319164e-04;0.001558
0.300517;-1.478593;0.872457;-0.777556;0.063528;-0.055859;0.782144;0.002002;7.717576e-04;-0.007284;0.68112;-2.593447;-0.385587;1.468171;0.008697;-0.005924;0.00731;144.947037;99.947037;0.009747;0.008492;0.002002;-0.012434;-0.002134;7.717576e-04;0.0103;0.816598;0.002773;-0.002773;0.020157
0.367682;-1.478593;0.896986;-0.777631;0.063208;-0.05344;0.782024;-0.004201;0.002766;-0.002501;1.401729;1.518627;0.65849;0.713405;0.003571;-0.005005;0.004288;84.95565;39.95565;0.005718;0.004975;-0.004201;-0.003199;-0.001803;0.002766;0.001397;0.843546;-0.001435;0.001435;0.014512
0.434848;-1.478593;0.927154;-0.777958;0.063196;-0.053926;0.782381;0.004642;0.003066;1.014883e-04;-0.658225;-1.513889;-0.660551;-1.519237;0.004648;0.00306;7.943405e-04;56.831833;11.831834;0.001059;0.002728;0.004642;0.00123;-0.001027;0.003066;-0.002257;0.873228;0.007708;-0.007708;0.038422
0.502013;-1.478593;0.939563;-0.777689;0.062963;-0.050133;0.781843;0.006738;0.003142;1.356776e-04;-0.465181;-2.144576;-0.466293;-2.1497;0.006743;0.003137;0.001803;49.779087;4.779088;0.002404;0.003896;0.006738;5.890111e-04;-3.176559e-04;0.003142;-9.06667e-04;0.88943;0.00988;-0.00988;0.040203
0.569178;-1.478593;0.950748;-0.777703;0.063141;-0.047812;0.781725;-0.003072;0.003379;3.449358e-04;0.909801;0.909311;1.099734;1.099141;0.003397;-0.003091;0.003244;98.439651;53.439651;0.004325;0.003747;-0.003072;-1.630022e-05;7.061718e-04;0.003379;7.22472e-04;0.902936;3.064208e-04;-3.064208e-04;0.069912
0.636344;-1.478593;0.952935;-0.778308;0.063075;-0.04588;0.782206;-0.00295;0.002817;7.730764e-05;1.047399;1.047416;0.95473;0.954746;0.002818;-0.002951;0.002885;179.976227;134.976227;0.003846;0.003331;-0.00295;0.002648;-0.002493;0.002817;-0.005141;0.907055;-1.33564e-04;1.33564e-04;0.081645
0.703509;-1.478593;0.929548;-0.778158;0.062999;-0.050743;0.782352;0.01299;0.005789;-0.007182;-0.077822;-2.243838;-0.445665;-12.849833;0.017423;0.001356;0.008034;7.549356;142.549362;0.010711;0.011191;0.01299;-0.009097;-0.005267;0.005789;0.00383;0.878805;0.018779;-0.018779;0.053378
0.770674;-1.478593;0.904469;-0.777977;0.062946;-0.056925;0.782592;-2.820683e-04;0.014327;-0.0011;0.025289;0.019687;50.793678;39.543125;0.01441;-3.644027e-04;0.007387;153.046265;108.046272;0.009849;0.00973;-2.820683e-04;0.002561;-0.00476;0.014327;-0.007321;0.847543;0.014045;-0.014045;0.054972
0.83784;-1.478593;0.937905;-0.778076;0.062713;-0.056556;0.782645;-0.005113;0.016414;-0.004382;0.345705;0.31151;3.21017;2.892639;0.017272;-0.005971;0.011622;141.542389;96.542389;0.015495;0.013938;-0.005113;-0.005284;-0.00348;0.016414;0.001804;0.881349;0.011301;-0.011301;0.020271
0.905005;-1.478593;0.883481;-0.778417;0.062622;-0.052277;0.782679;7.612231e-05;0.005282;-0.012499;0.653094;-0.014411;-69.390244;1.531173;0.015446;-0.010088;0.012767;137.811905;92.811897;0.017022;0.01485;7.612231e-05;-0.021054;-0.003943;0.005282;0.01711;0.831204;0.005358;-0.005358;0.034065
0.97217;-1.478593;0.859235;-0.778436;0.0627;-0.053837;0.782811;0.014604;-2.215426e-05;-0.001944;0.018578;659.19519;0.001517;53.827679;0.014858;-2.760262e-04;0.007567;20.834042;155.834045;0.010089;0.009999;0.014604;-0.00676;0.002873;-2.215426e-05;0.009633;0.805398;0.014582;-0.014582;0.043468
1.039336;-1.478593;0.858839;-0.777895;0.063073;-0.058279;0.782621;7.554542e-04;0.002194;-0.002077;0.196996;-0.344364;-2.9039;5.076255;0.003673;-7.235116e-04;0.002198;133.405289;88.405281;0.002931;0.002722;7.554542e-04;-0.007251;0.003097;0.002194;0.010348;0.80056;0.002949;-0.002949;0.056793
1.106501;-1.478593;0.816711;-0.778381;0.063052;-0.053349;0.782751;-0.004527;0.002439;0.001508;1.759274;1.856497;0.538649;0.568416;0.002751;-0.00484;0.003795;11.604897;146.604904;0.00506;0.004437;-0.004527;0.002495;5.204866e-04;0.002439;-0.001974;0.763362;-0.002089;0.002089;0.04698
1.173667;-1.478593;0.80035;-0.778525;0.062947;-0.055175;0.783012;0.005667;0.001945;0.003404;0.009545;-2.914015;-0.343169;104.764984;0.007686;-7.335993e-05;0.003879;104.274437;59.274441;0.005173;0.005148;0.005667;0.009314;-0.002506;0.001945;-0.01182;0.745175;0.007612;-0.007612;0.047345
1.240832;-1.478593;0.744775;-0.778418;0.06258;-0.055496;0.782899;0.009309;0.003533;0.005041;-0.049937;-2.63522;-0.379475;-20.025333;0.012231;6.107936e-04;0.00581;96.057098;51.057098;0.007747;0.007958;0.009309;0.010808;-7.245516e-04;0.003533;-0.011532;0.689278;0.012842;-0.012842;0.042778
1.307997;-1.478593;0.659089;-0.778743;0.062681;-0.061368;0.783668;-0.021924;0.003212;-3.368024e-04;6.81751;6.825682;0.146506;0.146681;0.003216;-0.021928;0.012572;51.097824;6.097823;0.016763;0.015801;-0.021924;-0.002098;0.001424;0.003212;0.003522;0.597721;-0.018712;0.018712;0.020151
1.375163;-1.478593;0.559153;-0.778914;0.062946;-0.051005;0.783116;-0.035215;0.001491;0.001375;22.867054;23.621296;0.042335;0.043731;0.001542;-0.035266;0.018404;38.898914;173.898911;0.024539;0.024042;-0.035215;0.00372;-9.704446e-04;0.001491;-0.004691;0.508147;-0.033724;0.033724;0.034688
1.442328;-1.478593;0.489871;-0.778923;0.062441;-0.051635;0.783126;-0.015582;0.001779;0.017731;2.07498;8.759907;0.114156;0.481932;0.01284;-0.026644;0.019742;158.98999;113.989998;0.026323;0.023256;-0.015582;0.034903;5.594236e-04;0.001779;-0.034344;0.438236;-0.013803;0.013803;0.038409
1.509493;-1.478593;0.35679;-0.779614;0.062844;-0.048898;0.783669;-0.022491;0.002167;0.025177;2.137159;10.37775;0.09636;0.467911;0.017872;-0.038196;0.028034;160.255173;115.255173;0.037378;0.033072;-0.022491;0.047558;0.002797;0.002167;-0.044761;0.307892;-0.020323;0.020323;0.073915
-0.303971;-1.545758;0.351045;-0.777185;0.064143;-0.056459;0.781868;0.020655;0.002235;-0.003105;-0.08154;-9.241247;-0.108211;-12.26399;0.021165;0.001726;0.009719;29.81044;164.81044;0.012959;0.013571;0.020655;-0.005485;-7.25026e-04;0.002235;0.00476;0.294586;0.02289;-0.02289;0.036964
-0.236806;-1.545758;0.454336;-0.7771;0.064041;-0.052153;0.781476;0.002983;0.003668;0.003548;0.034699;-0.813258;-1.229622;28.819578;0.006889;-2.390474e-04;0.003564;119.183678;74.183678;0.004752;0.004675;0.002983;0.007937;-8.415657e-04;0.003668;-0.008778;0.402183;0.00665;-0.00665;0.046169
-0.169641;-1.545758;0.526112;-0.776981;0.063862;-0.053656;0.781445;-0.015429;0.00295;0.001391;5.085707;5.230638;0.191181;0.19663;0.003054;-0.015534;0.009294;29.812021;164.812027;0.012392;0.01151;-0.015429;0.003883;-0.001101;0.00295;-0.004984;0.472456;-0.012479;0.012479;0.040164
-0.102475;-1.545758;0.630361;-0.777118;0.063801;-0.056962;0.78181;-0.013501;0.004293;0.008726;2.171959;3.14516;0.317949;0.460414;0.007857;-0.017066;0.012462;170.026871;125.026871;0.016615;0.014713;-0.013501;0.01883;-0.001379;0.004293;-0.020209;0.573399;-0.009208;0.009208;0.051004
-0.03531;-1.545758;0.678419;-0.777388;0.063678;-0.057578;0.782114;0.009122;0.004567;0.013224;0.324439;-1.997252;-0.500688;3.082239;0.020263;-0.006574;0.013419;117.676636;72.676636;0.017892;0.016153;0.009122;0.027986;-0.001538;0.004567;-0.029524;0.620841;0.013689;-0.013689;0.049922
0.031855;-1.545758;0.740609;-0.777447;0.063583;-0.055243;0.781997;0.012803;0.001899;0.009602;0.200666;-6.74088;-0.148349;4.983396;0.018393;-0.003691;0.011042;103.062958;58.062954;0.014723;0.01366;0.012803;0.020383;-0.001179;0.001899;-0.021563;0.685366;0.014702;-0.014702;0.041303
0.099021;-1.545758;0.76874;-0.777535;0.063369;-0.054666;0.782026;-0.004242;0.001088;0.004746;1.815764;3.899065;0.256472;0.550732;0.003866;-0.00702;0.005443;156.01683;111.01683;0.007257;0.006372;-0.004242;0.011731;-0.002239;0.001088;-0.013971;0.714075;-0.003154;0.003154;0.027324
0.166186;-1.545758;0.811337;-0.777428;0.063292;-0.054613;0.78191;-0.009028;0.003571;0.003282;2.247254;2.528042;0.395563;0.444987;0.004375;-0.009832;0.007103;5.826351;140.826355;0.009471;0.008401;-0.009028;0.006631;-6.564982e-05;0.003571;-0.006696;0.756724;-0.005457;0.005457;0.008096
0.233352;-1.545758;0.8591;-0.777354;0.063414;-0.055521;0.78191;9.858811e-04;0.004315;0.004075;0.248341;-0.228477;-4.376815;4.026719;0.007052;-0.001751;0.004402;128.711624;83.711632;0.005869;0.005381;9.858811e-04;0.007889;2.60909e-04;0.004315;-0.007628;0.803579;0.005301;-0.005301;0.003821
0.300517;-1.545758;0.870388;-0.777554;0.063313;-0.052967;0.781923;-0.001407;0.002384;0.003849;0.79541;0.589904;1.695192;1.257214;0.004779;-0.003802;0.004291;145.57872;100.578712;0.005721;0.004965;-0.001407;0.009371;-0.001672;0.002384;-0.011043;0.817421;9.778338e-04;-9.778338e-04;0.024932
0.367682;-1.545758;0.91085;-0.777582;0.063072;-0.059556;0.782406;-0.00823;7.311063e-04;0.002046;7.376642;11.25724;0.088832;0.135563;0.001176;-0.008675;0.004926;16.353764;151.35376;0.006567;0.006213;-0.00823;0.004458;-3.662731e-04;7.311063e-04;-0.004824;0.851294;-0.007499;0.007499;0.029063
0.434848;-1.545758;0.930095;-0.777792;0.063079;-0.060345;0.782676;0.002909;0.001524;-0.00121;-0.227561;-1.909117;-0.523802;-4.394421;0.00361;8.216073e-04;0.001394;8.515645;143.51564;0.001859;0.002185;0.002909;-0.001712;-7.090245e-04;0.001524;0.001003;0.86975;0.004432;-0.004432;0.054816
0.502013;-1.545758;0.930089;-0.777718;0.062965;-0.056702;0.78232;0.004605;0.001327;0.00122;-0.184297;-3.469575;-0.28822;-5.426018;0.00501;9.23253e-04;0.002043;81.482948;36.482948;0.002724;0.003078;0.004605;0.003399;-9.597343e-04;0.001327;-0.004359;0.873387;0.005933;-0.005933;0.040396
0.569178;-1.545758;0.951685;-0.777729;0.062865;-0.057527;0.782383;-0.00324;0.003458;2.01823e-04;0.937258;0.937148;1.067067;1.066942;0.003464;-0.003246;0.003355;176.976303;131.976303;0.004473;0.003875;-0.00324;0.002596;-0.002192;0.003458;-0.004788;0.894158;2.173205e-04;-2.173205e-04;0.075821
0.636344;-1.545758;0.907142;-0.778285;0.06296;-0.053592;0.782665;-0.004327;0.002731;-0.008558;1.188643;1.584378;0.631162;0.841296;0.008459;-0.010055;0.009257;119.749855;74.749855;0.012343;0.010703;-0.004327;-0.014169;-0.002948;0.002731;0.011222;0.85355;-0.001596;0.001596;0.068181
0.703509;-1.545758;0.896308;-0.77839;0.063042;-0.053402;0.782763;0.006256;-9.421139e-04;-9.175459e-04;0.165939;6.640468;0.150592;6.0263;0.006371;-0.001057;0.003714;24.648977;159.648972;0.004952;0.00464;0.006256;-0.002236;4.013815e-04;-9.421139e-04;0.002638;0.842906;0.005314;-0.005314;0.039052
0.770674;-1.545758;0.907425;-0.778136;0.06294;-0.059106;0.782912;0.001222;0.002493;1.336084e-04;-0.481887;-0.490148;-2.040201;-2.075173;0.002507;0.001208;6.493327e-04;160.106735;115.106743;8.65777e-04;0.001447;0.001222;0.003639;-0.003372;0.002493;-0.007012;0.848319;0.003714;-0.003714;0.051822
0.83784;-1.545758;0.914774;-0.778212;0.062643;-0.057769;0.782863;-0.003499;-0.001488;0.001832;-11.349026;-2.350957;-0.425359;-0.088113;-4.038283e-04;-0.004583;0.00209;165.31514;120.315147;0.002786;0.00293;-0.003499;0.005842;-0.002178;-0.001488;-0.00802;0.857005;-0.004987;0.004987;0.024949
0.905005;-1.545758;0.895185;-0.77841;0.062543;-0.058014;0.783071;2.849971e-04;0.001328;-0.002747;0.552337;-0.214623;-4.659324;1.810489;0.003603;-0.00199;0.002796;136.712784;91.712784;0.003729;0.003274;2.849971e-04;-0.005941;4.461292e-04;0.001328;0.006387;0.837171;0.001613;-0.001613;0.017661
0.97217;-1.545758;0.906218;-0.778543;0.062581;-0.058635;0.783252;0.013789;-0.001375;-0.006138;0.222269;10.029682;0.099704;4.499055;0.015962;-0.003548;0.009755;5.097113;140.097107;0.013007;0.012;0.013789;-0.011498;-7.774315e-04;-0.001375;0.010721;0.847583;0.012414;-0.012414;0.008251
1.039336;-1.545758;0.850263;-0.778372;0.062802;-0.062637;0.783409;-0.002147;0.00579;-0.011673;0.742565;0.370805;2.696834;1.346684;0.01415;-0.010507;0.012329;131.177872;86.177872;0.016438;0.014288;-0.002147;-0.020929;-0.002416;0.00579;0.018514;0.787626;0.003643;-0.003643;0.045959
1.106501;-1.545758;0.79498;-0.778696;0.062752;-0.059251;0.783465;-0.007231;0.00685;-0.010707;1.030199;1.055655;0.947279;0.970686;0.012624;-0.013006;0.012815;117.64389;72.64389;0.017087;0.014798;-0.007231;-0.018592;-0.002823;0.00685;0.015768;0.735729;-3.81247e-04;3.81247e-04;0.050934
1.173667;-1.545758;0.769866;-0.778641;0.062467;-0.061731;0.783578;0.001205;0.006288;-0.009725;0.457006;-0.191566;-5.220122;2.188153;0.013798;-0.006306;0.010052;140.23114;95.23114;0.013402;0.011873;0.001205;-0.017719;-0.001731;0.006288;0.015988;0.708135;0.007492;-0.007492;0.05092
1.240832;-1.545758;0.736006;-0.778637;0.062342;-0.059042;0.783356;1.86311e-04;0.002052;-0.001657;0.259044;-0.090808;-11.012242;3.860355;0.00302;-7.824247e-04;0.001901;134.126999;89.127007;0.002535;0.002319;1.86311e-04;-0.003795;4.808684e-04;0.002052;0.004276;0.676964;0.002238;-0.002238;0.045657
1.307997;-1.545758;0.663396;-0.778893;0.062683;-0.06142;0.783821;-0.019678;0.004593;0.012674;2.507775;4.284116;0.23342;0.39876;0.010005;-0.02509;0.017547;174.255386;129.255386;0.023397;0.020877;-0.019678;0.023545;0.001803;0.004593;-0.021742;0.601976;-0.015085;0.015085;0.02621
1.375163;-1.545758;0.582009;-0.778956;0.062834;-0.054744;0.783401;-0.036338;0.007341;0.006722;4.471837;4.949948;0.202022;0.223622;0.008352;-0.037349;0.022851;22.128134;157.128128;0.030467;0.0281;-0.036338;0.014639;-0.001195;0.007341;-0.015834;0.527265;-0.028997;0.028997;0.020122
1.442328;-1.545758;0.516895;-0.778917;0.062733;-0.048452;0.78294;-0.021592;0.001371;0.003055;12.417498;15.744248;0.063515;0.080532;0.001771;-0.021991;0.011881;28.731628;163.731628;0.015842;0.015286;-0.021592;0.006269;-1.585014e-04;0.001371;-0.006428;0.468443;-0.02022;0.02022;0.03267
1.509493;-1.545758;0.38748;-0.779508;0.062929;-0.044716;0.783322;-0.019099;-0.001099;0.001465;-19.602255;-17.382383;-0.05753;-0.051015;-9.803727e-04;-0.019218;0.009119;40.928822;175.928818;0.012158;0.012498;-0.019099;0.001271;0.001659;-0.001099;3.879762e-04;0.342764;-0.020198;0.020198;0.060685
-0.303971;-1.612924;0.345616;-0.777145;0.064088;-0.05385;0.78164;-0.004017;0.001454;0.004682;1.618963;2.76316;0.361905;0.617679;0.004141;-0.006704;0.005423;155.599243;110.599243;0.00723;0.00632;-0.004017;0.011334;-0.00197;0.001454;-0.013304;0.291766;-0.002563;0.002563;0.032781
-0.236806;-1.612924;0.449952;-0.7772;0.063809;-0.055178;0.781765;-3.318128e-05;0.0012;0.013123;0.914933;0.027641;36.177757;1.092977;0.013721;-0.012554;0.013138;135.163528;90.163528;0.017517;0.015175;-3.318128e-05;0.027261;-0.001014;0.0012;-0.028275;0.394774;0.001167;-0.001167;0.056461
-0.169641;-1.612924;0.521856;-0.777257;0.063915;-0.054436;0.781778;-0.010819;0.001169;0.00949;2.50767;9.252597;0.108078;0.398777;0.0064;-0.016049;0.011225;163.693192;118.693192;0.014966;0.013354;-0.010819;0.019785;-8.038379e-04;0.001169;-0.020589;0.46742;-0.009649;0.009649;0.021064
-0.102475;-1.612924;0.62101;-0.777389;0.063701;-0.058823;0.782209;-0.015869;0.002473;-2.85743e-04;6.406122;6.415849;0.155864;0.156101;0.002478;-0.015874;0.009176;38.249443;173.249451;0.012234;0.011498;-0.015869;0.001545;-0.002116;0.002473;-0.003661;0.562187;-0.013396;0.013396;0.01602
-0.03531;-1.612924;0.692297;-0.777463;0.063427;-0.060866;0.782417;0.009286;0.003214;-0.005522;0.004102;-2.889241;-0.346112;243.770615;0.012551;-5.148764e-05;0.006301;179.152786;134.152786;0.008402;0.008385;0.009286;-0.009203;-0.001841;0.003214;0.007362;0.631431;0.0125;-0.0125;0.028369
0.031855;-1.612924;0.765903;-0.77742;0.063338;-0.055467;0.781965;0.00855;0.003029;-0.001005;-0.326783;-2.822425;-0.354305;-3.060135;0.008727;0.002852;0.002938;36.712952;171.712952;0.003917;0.005138;0.00855;-6.575603e-04;-0.001353;0.003029;-6.954068e-04;0.710436;0.011579;-0.011579;0.027548
0.099021;-1.612924;0.802292;-0.777533;0.063196;-0.055967;0.782102;-0.00162;0.001442;0.002528;1.061878;1.123003;0.890469;0.941728;0.002867;-0.003044;0.002955;151.213303;106.213303;0.003941;0.003413;-0.00162;0.006658;-0.001602;0.001442;-0.00826;0.746325;-1.773876e-04;1.773876e-04;0.030633
0.166186;-1.612924;0.8222;-0.777419;0.063023;-0.056963;0.782047;-0.00512;0.001558;-4.890247e-04;3.235397;3.286501;0.304275;0.309081;0.001594;-0.005156;0.003375;46.097855;1.097853;0.0045;0.004074;-0.00512;-2.975387e-04;-6.805106e-04;0.001558;-3.829719e-04;0.765237;-0.003562;0.003562;0.037859
0.233352;-1.612924;0.846768;-0.777458;0.062986;-0.061309;0.782411;-0.004669;0.002621;-9.649338e-04;1.745813;1.781538;0.561313;0.572799;0.002747;-0.004795;0.003771;76.198662;31.198658;0.005028;0.004407;-0.004669;-0.002085;1.555747e-04;0.002621;0.002241;0.785459;-0.002048;0.002048;0.018253
0.300517;-1.612924;0.874252;-0.777698;0.063135;-0.059282;0.782505;0.008705;0.002741;-0.002663;-0.177494;-3.175558;-0.314905;-5.634005;0.009721;0.001725;0.003998;18.188601;153.188599;0.005331;0.005989;0.008705;-0.003865;-0.001461;0.002741;0.002404;0.81497;0.011447;-0.011447;0.027648
0.367682;-1.612924;0.922585;-0.777603;0.062993;-0.055313;0.782109;0.005926;0.001884;-0.011873;0.510321;-3.144973;-0.317968;1.95955;0.015949;-0.008139;0.012044;151.611954;106.611946;0.016059;0.014149;0.005926;-0.020826;-0.00292;0.001884;0.017906;0.867272;0.00781;-0.00781;0.036758
0.434848;-1.612924;0.943855;-0.777951;0.062866;-0.053344;0.782308;-0.001872;-0.00109;-0.001117;-8.952698;-1.717553;-0.582224;-0.111698;-2.975423e-04;-0.002664;0.001183;104.077095;59.077095;0.001578;0.001685;-0.001872;-0.00273;4.963813e-04;-0.00109;0.003226;0.890512;-0.002961;0.002961;0.098477
0.502013;-1.612924;0.924052;-0.778017;0.062971;-0.050242;0.782177;0.002004;1.165996e-04;-0.001206;0.181649;-17.190128;-0.058173;5.505125;0.002592;-4.707886e-04;0.001531;164.596252;119.596252;0.002042;0.001904;0.002004;-0.003949;0.001537;1.165996e-04;0.005486;0.873811;0.002121;-0.002121;0.050412
0.569178;-1.612924;0.94995;-0.777863;0.062832;-0.051373;0.782085;-0.005953;0.00502;0.001082;1.181972;1.185799;0.843313;0.846044;0.005126;-0.006059;0.005592;43.433308;178.433304;0.007457;0.006465;-0.005953;0.001016;0.001147;0.00502;1.314003e-04;0.898577;-9.328034e-04;9.328034e-04;0.048824
0.636344;-1.612924;0.950476;-0.778123;0.062817;-0.057227;0.78275;-8.112014e-04;-0.001203;1.319351e-04;-1.612544;-0.674424;-1.482747;-0.620138;-7.708991e-04;-0.001243;2.361049e-04;7.000097;142.000092;3.148065e-04;7.245822e-04;-8.112014e-04;-0.002639;0.002903;-0.001203;0.005542;0.893249;-0.002014;0.002014;0.059478
0.703509;-1.612924;0.940356;-0.778172;0.062884;-0.054615;0.782616;-0.003897;0.003808;-0.004166;1.015807;1.023369;0.977164;0.984439;0.00563;-0.005719;0.005675;112.472816;67.472816;0.007566;0.006552;-0.003897;-0.005277;-0.003055;0.003808;0.002223;0.885741;-8.899483e-05;8.899483e-05;0.038025
0.770674;-1.612924;0.933287;-0.778159;0.062589;-0.053015;0.78247;-0.004295;0.007707;0.004614;0.632106;0.55722;1.794624;1.582013;0.009276;-0.005863;0.00757;151.620834;106.620842;0.010093;0.008814;-0.004295;0.009513;-2.852918e-04;0.007707;-0.009799;0.880272;0.003413;-0.003413;0.046458
0.83784;-1.612924;0.888886;-0.778279;0.062682;-0.051573;0.7825;0.002199;-0.00353;0.008109;1.167743;0.622954;1.605255;0.856353;0.007935;-0.009266;0.0086;128.424011;83.424004;0.011467;0.00994;0.002199;0.014133;0.002085;-0.00353;-0.012048;0.837312;-0.001331;0.001331;0.03132
0.905005;-1.612924;0.883067;-0.778462;0.062711;-0.05685;0.78305;0.00167;-0.007423;-0.002997;3.239445;0.224984;4.444759;0.308695;0.002569;-0.008322;0.005446;101.765289;56.765285;0.007261;0.006574;0.00167;-0.001123;-0.004871;-0.007423;-0.003747;0.826217;-0.005753;0.005753;0.012902
0.97217;-1.612924;0.890858;-0.778539;0.062401;-0.062595;0.78354;0.015228;-0.006347;0.001998;0.423762;2.399121;0.416819;2.359813;0.015412;-0.006531;0.010971;67.717789;22.717789;0.014628;0.01301;0.015228;0.005101;-0.001104;-0.006347;-0.006205;0.828263;0.008881;-0.008881;0.034582
1.039336;-1.612924;0.843211;-0.778552;0.062263;-0.063946;0.783651;8.120858e-04;0.002239;0.004199;0.472578;-0.362729;-2.756881;2.116053;0.005785;-0.002734;0.004259;130.023026;85.023026;0.005679;0.005022;8.120858e-04;0.008484;-8.597399e-05;0.002239;-0.00857;0.779265;0.003051;-0.003051;0.044045
1.106501;-1.612924;0.827806;-0.778549;0.062322;-0.059604;0.78331;-0.009482;0.002497;0.001192;3.671187;3.796793;0.26338;0.272391;0.002615;-0.009599;0.006107;32.349846;167.349838;0.008143;0.007426;-0.009482;0.002066;3.181488e-04;0.002497;-0.001747;0.768202;-0.006985;0.006985;0.032267
1.173667;-1.612924;0.777874;-0.778654;0.062409;-0.061094;0.783537;-0.003339;1.80079e-04;0.00292;2.726577;18.542673;0.05393;0.36676;0.00183;-0.004989;0.003409;161.789307;116.789307;0.004546;0.004075;-0.003339;0.006732;-8.923459e-04;1.80079e-04;-0.007625;0.716781;-0.003159;0.003159;0.041228
1.240832;-1.612924;0.750157;-0.778601;0.062362;-0.058022;0.783247;-0.015366;0.001856;0.001646;7.714233;8.277812;0.120805;0.129631;0.002012;-0.015522;0.008767;34.064304;169.064301;0.011689;0.01108;-0.015366;0.002965;3.26013e-04;0.001856;-0.002639;0.692135;-0.01351;0.01351;0.030287
1.307997;-1.612924;0.680857;-0.7788;0.06249;-0.053524;0.783134;-0.025738;0.007034;0.005842;3.325112;3.659117;0.27329;0.300742;0.008044;-0.026748;0.017396;19.662266;154.662262;0.023195;0.021033;-0.025738;0.011473;2.117812e-04;0.007034;-0.011261;0.627333;-0.018704;0.018704;0.029469
1.375163;-1.612924;0.617205;-0.778957;0.06245;-0.050074;0.783059;-0.014812;0.007064;3.26304e-04;2.096116;2.096872;0.476901;0.477073;0.007069;-0.014817;0.010943;46.157398;1.157399;0.01459;0.012897;-0.014812;5.380524e-05;5.988028e-04;0.007064;5.449975e-04;0.567132;-0.007748;0.007748;0.027196
1.442328;-1.612924;0.550372;-0.778771;0.062527;-0.051458;0.78297;-0.01619;0.004413;-0.010518;2.333128;3.668535;0.272588;0.428609;0.008834;-0.020611;0.014723;100.330093;55.330093;0.01963;0.017448;-0.01619;-0.023184;0.002148;0.004413;0.025331;0.498914;-0.011777;0.011777;0.02104
1.509493;-1.612924;0.405646;-0.779515;0.062905;-0.049933;0.783642;-0.026303;0.003442;-0.008591;4.979601;7.642279;0.130851;0.200819;0.005745;-0.028606;0.017175;82.155731;37.155731;0.022901;0.021246;-0.026303;-0.019745;0.002564;0.003442;0.022309;0.355714;-0.022861;0.022861;0.047163
-0.303971;-1.680089;0.345129;-0.777167;0.064018;-0.056066;0.781812;-0.017064;0.002074;0.010939;3.129538;8.226951;0.121552;0.319536;0.007039;-0.022029;0.014534;170.889984;125.889992;0.019379;0.017511;-0.017064;0.023612;-0.001733;0.002074;-0.025345;0.289063;-0.01499;0.01499;0.032936
-0.236806;-1.680089;0.462511;-0.777278;0.06374;-0.059147;0.782127;0.00194;0.001149;0.007772;0.668854;-1.688199;-0.592347;1.495094;0.009327;-0.006238;0.007782;128.444031;83.444023;0.010376;0.009045;0.00194;0.016355;-8.100382e-04;0.001149;-0.017165;0.403364;0.003088;-0.003088;0.039208
-0.169641;-1.680089;0.53935;-0.777466;0.063792;-0.056479;0.782121;0.01009;0.005542;-0.009325;0.102333;-1.820799;-0.54921;9.771988;0.017414;-0.001782;0.009598;164.062546;119.062553;0.012797;0.012247;0.01009;-0.017301;-0.001348;0.005542;0.015953;0.482871;0.015632;-0.015632;0.03731
-0.102475;-1.680089;0.611934;-0.777475;0.063423;-0.057018;0.782139;9.932446e-04;0.007787;-0.026918;0.721447;-0.127547;-7.840244;1.386104;0.031522;-0.022741;0.027132;136.597626;91.597618;0.036176;0.031465;9.932446e-04;-0.050867;-0.002969;0.007787;0.047899;0.554916;0.008781;-0.008781;0.04478
-0.03531;-1.680089;0.683923;-0.777505;0.063197;-0.054344;0.78196;0.001347;0.003181;-0.023796;0.826343;-0.423506;-2.361243;1.210151;0.026079;-0.02155;0.023814;136.743073;91.74308;0.031752;0.02754;0.001347;-0.04651;-0.001083;0.003181;0.045428;0.629579;0.004529;-0.004529;0.031612
0.031855;-1.680089;0.736316;-0.777413;0.06315;-0.054612;0.781884;-0.013777;0.001586;-0.002621;7.032606;8.686038;0.115127;0.142195;0.002021;-0.014212;0.008116;61.739124;16.739124;0.010822;0.010215;-0.013777;-0.004213;-0.001028;0.001586;0.003185;0.681704;-0.012191;0.012191;0.018529
0.099021;-1.680089;0.779632;-0.777451;0.063111;-0.058876;0.782227;-1.220106e-04;0.004153;0.004848;0.448824;0.029376;34.041668;2.228046;0.007314;-0.003283;0.005299;135.187561;90.187561;0.007065;0.006264;-1.220106e-04;0.009502;1.94408e-04;0.004153;-0.009307;0.720756;0.004031;-0.004031;0.019334
0.166186;-1.680089;0.820471;-0.777407;0.063178;-0.053839;0.781825;0.008127;0.001087;0.001535;-0.090829;-7.473578;-0.133805;-11.009732;0.008447;7.672206e-04;0.00384;66.588669;21.588671;0.00512;0.005394;0.008127;0.003177;-1.067314e-04;0.001087;-0.003284;0.766632;0.009214;-0.009214;0.053175
0.233352;-1.680089;0.852669;-0.777458;0.063002;-0.053035;0.781807;-0.007022;0.001768;-0.002397;3.207542;3.970634;0.251849;0.311765;0.00238;-0.007633;0.005006;70.317299;25.317301;0.006675;0.00604;-0.007022;-0.00346;-0.001335;0.001768;0.002125;0.799634;-0.005253;0.005253;0.024231
0.300517;-1.680089;0.874032;-0.777785;0.062914;-0.055398;0.78229;0.012275;0.003059;-7.773945e-04;-0.24266;-4.011992;-0.249253;-4.120994;0.01234;0.002994;0.004673;38.215038;173.215042;0.00623;0.007432;0.012275;-0.001313;-2.422058e-04;0.003059;0.00107;0.818634;0.015334;-0.015334;0.030866
0.367682;-1.680089;0.908265;-0.777565;0.062894;-0.049407;0.781667;0.010785;0.001566;5.952592e-04;-0.141114;-6.888772;-0.145164;-7.086455;0.010824;0.001527;0.004648;59.040741;14.040741;0.006197;0.006764;0.010785;0.002932;-0.001741;0.001566;-0.004673;0.858858;0.012351;-0.012351;0.023476
0.434848;-1.680089;0.916463;-0.777877;0.062709;-0.051294;0.782084;-0.005466;0.00545;-0.002227;1.002748;1.002968;0.997041;0.997259;0.005887;-0.005903;0.005895;11.476621;146.476624;0.00786;0.006807;-0.005466;-0.001618;-0.002835;0.00545;-0.001217;0.865169;-1.617729e-05;1.617729e-05;0.077895
0.502013;-1.680089;0.916557;-0.778338;0.062678;-0.053405;0.782682;-8.506291e-04;0.012371;0.003962;0.144585;0.068763;14.542769;6.916351;0.013467;-0.001947;0.007707;133.317322;88.317322;0.010276;0.009692;-8.506291e-04;0.00697;9.545641e-04;0.012371;-0.006015;0.863152;0.01152;-0.01152;0.06597
0.569178;-1.680089;0.964288;-0.77797;0.062858;-0.052526;0.782271;-0.01108;0.015158;0.003065;0.737108;0.730979;1.368029;1.356653;0.015511;-0.011433;0.013472;109.85083;64.85083;0.017963;0.015615;-0.01108;0.001521;0.00461;0.015158;0.003089;0.911762;0.004078;-0.004078;0.028191
0.636344;-1.680089;0.985439;-0.777974;0.062636;-0.056652;0.782545;-5.236358e-04;0.014092;-0.002591;0.066682;0.037158;26.91242;14.996536;0.014538;-9.694306e-04;0.007754;139.071121;94.071129;0.010338;0.010031;-5.236358e-04;-0.003957;-0.001226;0.014092;0.002731;0.928787;0.013569;-0.013569;0.047475
0.703509;-1.680089;0.947056;-0.778048;0.062685;-0.054586;0.782475;-0.011534;0.005787;-0.007088;1.690906;1.992989;0.501759;0.591399;0.008318;-0.014065;0.011191;78.113197;33.113197;0.014922;0.013064;-0.011534;-0.008547;-0.005628;0.005787;0.002919;0.89247;-0.005747;0.005747;0.021726
0.770674;-1.680089;0.918804;-0.778299;0.062389;-0.051179;0.782471;-0.014061;0.003244;-0.007997;2.697012;4.334051;0.230731;0.370781;0.006374;-0.01719;0.011782;90.056549;45.056549;0.01571;0.014074;-0.014061;-0.013872;-0.002122;0.003244;0.01175;0.867625;-0.010817;0.010817;0.038813
0.83784;-1.680089;0.88572;-0.778342;0.062428;-0.050127;0.782449;-0.001559;0.002111;-0.001861;0.808887;0.738397;1.354285;1.236266;0.00289;-0.002338;0.002614;115.585014;70.585014;0.003485;0.003024;-0.001559;-0.004598;8.746834e-04;0.002111;0.005472;0.835593;5.523548e-04;-5.523548e-04;0.033869
0.905005;-1.680089;0.878139;-0.778473;0.062569;-0.052057;0.782716;0.001706;0.005018;0.002436;-0.065956;-0.339917;-2.941892;-15.161685;0.006308;4.160294e-04;0.002946;127.236862;82.236862;0.003928;0.004074;0.001706;0.005284;-4.113872e-04;0.005018;-0.005695;0.826082;0.006724;-0.006724;0.002866
0.97217;-1.680089;0.864747;-0.778574;0.062468;-0.05234;0.782827;0.014457;6.269808e-04;0.008922;0.198936;-23.057945;-0.043369;5.026742;0.01883;-0.003746;0.011288;99.497444;54.497444;0.01505;0.01397;0.014457;0.020435;-0.002591;6.269808e-04;-0.023027;0.812407;0.015084;-0.015084;0.037712
1.039336;-1.680089;0.842306;-0.778561;0.062293;-0.060405;0.783382;0.012629;4.818691e-05;0.007595;0.217471;-262.080994;-0.003816;4.598323;0.0162;-0.003523;0.009862;97.116791;52.116795;0.013149;0.012146;0.012629;0.016276;-0.001087;4.818691e-05;-0.017363;0.7819;0.012677;-0.012677;0.039019
1.106501;-1.680089;0.836466;-0.77851;0.06256;-0.060654;0.783371;-0.006986;3.237469e-04;0.005197;3.204562;21.579311;0.046341;0.312055;0.003022;-0.009685;0.006353;177.062988;132.062988;0.008471;0.007665;-0.006986;0.008092;0.002302;3.237469e-04;-0.00579;0.775812;-0.006662;0.006662;0.043109
1.173667;-1.680089;0.741677;-0.778704;0.062571;-0.057074;0.783296;4.199963e-04;0.001673;-0.002541;0.428701;-0.25108;-3.982794;2.332629;0.003663;-0.00157;0.002617;152.826263;107.826271;0.003489;0.003101;4.199963e-04;-0.003434;-0.001647;0.001673;0.001787;0.684603;0.002093;-0.002093;0.036021
1.240832;-1.680089;0.722652;-0.778667;0.062104;-0.061708;0.783573;-0.010237;0.008081;-0.006996;1.206433;1.266889;0.789335;0.82889;0.010447;-0.012604;0.011526;100.835075;55.835075;0.015367;0.013328;-0.010237;-0.010831;-0.003162;0.008081;0.00767;0.660944;-0.002157;0.002157;0.027736
1.307997;-1.680089;0.681433;-0.779016;0.061826;-0.056857;0.783531;-0.026333;0.011229;-0.011543;2.042206;2.345109;0.426419;0.489667;0.014493;-0.029597;0.022045;89.523872;44.523869;0.029393;0.025948;-0.026333;-0.023385;2.992049e-04;0.011229;0.023684;0.624576;-0.015104;0.015104;0.023873
1.375163;-1.680089;0.637632;-0.779221;0.061797;-0.054192;0.783544;-0.003971;0.011308;-0.020712;0.714987;0.351125;2.847986;1.398626;0.025745;-0.018407;0.022076;129.949341;84.949348;0.029435;0.025608;-0.003971;-0.041216;-2.079386e-04;0.011308;0.041009;0.58344;0.007338;-0.007338;0.050168
1.442328;-1.680089;0.534041;-0.778918;0.061871;-0.055163;0.783316;-0.027887;0.01012;-0.015692;2.127269;2.755672;0.362888;0.470086;0.015761;-0.033529;0.024645;96.782173;51.782173;0.03286;0.029067;-0.027887;-0.03392;0.002535;0.01012;0.036455;0.478878;-0.017767;0.017767;0.064142
1.509493;-1.680089;0.372691;-0.779812;0.062705;-0.046047;0.783683;-0.048863;0.006593;0.001732;7.359276;7.41143;0.134927;0.135883;0.006647;-0.048917;0.027782;46.522194;1.522194;0.037043;0.035038;-0.048863;-7.202793e-04;0.004185;0.006593;0.004905;0.326644;-0.04227;0.04227;0.069854
-0.303971;-1.747254;0.351278;-0.777307;0.063666;-0.057161;0.782002;-0.024956;0.004983;-0.005494;4.351865;5.0086;0.199657;0.229787;0.005959;-0.025932;0.015946;66.803917;21.803921;0.021261;0.019579;-0.024956;-0.009827;-0.001161;0.004983;0.008666;0.294117;-0.019973;0.019973;0.020277
-0.236806;-1.747254;0.482561;-0.777193;0.063568;-0.060048;0.782097;0.008191;0.005228;-0.001523;-0.518968;-1.566838;-0.638228;-1.926901;0.008835;0.004585;0.002125;22.47702;157.47702;0.002833;0.005102;0.008191;-0.001436;-0.00161;0.005228;-1.736313e-04;0.422513;0.013419;-0.013419;0.004761
-0.169641;-1.747254;0.563977;-0.777465;0.063391;-0.050772;0.781696;0.039986;0.008535;-0.013581;-0.077322;-4.68482;-0.213455;-12.932974;0.045039;0.003482;0.020778;12.671923;147.671921;0.027704;0.028935;0.039986;-0.024302;-0.00286;0.008535;0.021442;0.513205;0.048522;-0.048522;0.007137
-0.102475;-1.747254;0.62367;-0.777596;0.063069;-0.0485;0.781656;0.01563;0.009382;-0.027431;0.376485;-1.666044;-0.600224;2.656149;0.040115;-0.015103;0.027609;151.236191;106.236191;0.036811;0.032952;0.01563;-0.053101;-0.001761;0.009382;0.05134;0.57517;0.025012;-0.025012;0.043302
-0.03531;-1.747254;0.691026;-0.777529;0.062986;-0.04785;0.781542;-0.027985;0.005903;-0.016169;2.783717;4.740905;0.21093;0.359232;0.01238;-0.034462;0.023421;95.124199;50.124203;0.031228;0.028028;-0.027985;-0.032907;5.683844e-04;0.005903;0.033475;0.643176;-0.022082;0.022082;0.058611
0.031855;-1.747254;0.74541;-0.777512;0.063049;-0.057371;0.782171;-0.037663;0.002113;0.004714;14.342657;17.821049;0.056113;0.069722;0.002664;-0.038214;0.020439;32.429798;167.429794;0.027252;0.026409;-0.037663;0.008429;9.980995e-04;0.002113;-0.007431;0.688039;-0.03555;0.03555;0.061023
0.099021;-1.747254;0.771665;-0.777761;0.063008;-0.059645;0.782586;0.007459;0.001856;0.003488;-0.020131;-4.018548;-0.248846;-49.674698;0.009131;1.838222e-04;0.004474;93.98201;48.982006;0.005965;0.006027;0.007459;0.008436;-0.00146;0.001856;-0.009897;0.71202;0.009315;-0.009315;0.044279
0.166186;-1.747254;0.802702;-0.777714;0.062954;-0.057377;0.782365;0.014123;0.003199;-0.001955;-0.197747;-4.414596;-0.226521;-5.056975;0.014462;0.00286;0.005801;36.068523;171.068527;0.007735;0.008844;0.014123;-0.001678;-0.002231;0.003199;-5.533443e-04;0.745324;0.017322;-0.017322;0.05851
0.233352;-1.747254;0.848021;-0.777592;0.062776;-0.05794;0.78227;-0.00832;0.003669;-0.003039;2.057824;2.267262;0.441061;0.48595;0.004396;-0.009046;0.006721;60.184437;15.184436;0.008961;0.007914;-0.00832;-0.003181;-0.002898;0.003669;2.829811e-04;0.79008;-0.00465;0.00465;0.045303
0.300517;-1.747254;0.882667;-0.777456;0.06257;-0.061333;0.782377;0.010845;0.003973;-0.001174;-0.342171;-2.730052;-0.366293;-2.92252;0.01104;0.003778;0.003631;30.538029;165.538025;0.004842;0.006479;0.010845;-0.002489;1.414263e-04;0.003973;0.00263;0.821334;0.014818;-0.014818;0.047155
0.367682;-1.747254;0.903123;-0.777531;0.062855;-0.053103;0.781873;0.009946;0.004167;-0.001113;-0.390094;-2.3866;-0.419006;-2.563482;0.010153;0.00396;0.003096;27.751129;162.751129;0.004128;0.005909;0.009946;-0.002798;5.729743e-04;0.004167;0.003371;0.85002;0.014113;-0.014113;0.042642
0.434848;-1.747254;0.903327;-0.777807;0.062619;-0.055285;0.782279;-0.005202;0.00489;3.848507e-04;1.063717;1.063908;0.939931;0.9401;0.004904;-0.005217;0.005061;0.339934;135.339935;0.006748;0.005844;-0.005202;0.002156;-0.001386;0.00489;-0.003542;0.848042;-3.124914e-04;3.124914e-04;0.042002
0.502013;-1.747254;0.90361;-0.778266;0.062541;-0.057149;0.782864;-0.002507;0.00264;-5.277472e-04;0.950657;0.949656;1.053013;1.051905;0.002694;-0.002561;0.002627;97.021721;52.021721;0.003503;0.003034;-0.002507;-0.002077;0.001022;0.00264;0.003099;0.846461;1.329267e-04;-1.329267e-04;0.029877
0.569178;-1.747254;0.897362;-0.778203;0.06253;-0.054924;0.782641;-0.011771;0.010172;-0.004317;1.145481;1.157193;0.86416;0.872996;0.010991;-0.012589;0.01179;93.708557;48.708553;0.01572;0.013624;-0.011771;-0.007509;-0.001126;0.010172;0.006383;0.842437;-0.001599;0.001599;0.002366
0.636344;-1.747254;0.928483;-0.778201;0.062085;-0.063664;0.783265;-0.006292;0.017462;-0.002829;0.372289;0.360348;2.775098;2.686085;0.017794;-0.006625;0.012209;123.520508;78.520508;0.016279;0.014581;-0.006292;-0.006939;0.001282;0.017462;0.008221;0.864819;0.01117;-0.01117;0.052353
0.703509;-1.747254;0.949842;-0.778168;0.062321;-0.061386;0.78307;-0.003988;0.014278;-7.668567e-04;0.280958;0.279339;3.579877;3.559255;0.01431;-0.004021;0.009165;117.275787;72.275787;0.01222;0.011125;-0.003988;-0.005122;0.003588;0.014278;0.00871;0.888456;0.010289;-0.010289;0.049391
0.770674;-1.747254;0.926378;-0.778278;0.062231;-0.059329;0.783013;-0.012689;-2.484704e-04;-0.010648;3.206807;-51.069641;-0.019581;0.311837;0.005863;-0.0188;0.012332;101.333092;56.333092;0.016442;0.014878;-0.012689;-0.01922;-0.002076;-2.484704e-04;0.017144;0.867049;-0.012938;0.012938;0.036892
0.83784;-1.747254;0.905774;-0.778343;0.062235;-0.054104;0.782699;-0.008168;-0.007871;-0.008053;455.018585;-1.037666;-0.963701;0.002198;3.532574e-05;-0.016074;0.008055;112.316055;67.316055;0.010739;0.010728;-0.008168;-0.016267;1.60586e-04;-0.007871;0.016428;0.85167;-0.016039;0.016039;0.033619
0.905005;-1.747254;0.897513;-0.778403;0.062208;-0.054021;0.782751;-0.003068;-0.001159;-0.004336;2.817256;-2.647324;-0.37774;0.354955;0.002326;-0.006553;0.00444;109.612755;64.612755;0.00592;0.005317;-0.003068;-0.007007;-0.001665;-0.001159;0.005341;0.843492;-0.004227;0.004227;0.03538
0.97217;-1.747254;0.870927;-0.77853;0.062122;-0.051512;0.782701;0.011292;0.002683;-0.002789;-0.15339;-4.207988;-0.237643;-6.519343;0.012117;0.001859;0.005129;24.914623;159.914627;0.006839;0.007535;0.011292;-0.003675;-0.001904;0.002683;0.001772;0.819415;0.013975;-0.013975;0.045098
1.039336;-1.747254;0.839025;-0.778617;0.062074;-0.056562;0.783133;0.016301;0.003975;1.102342e-04;-0.243783;-4.100748;-0.243858;-4.102013;0.016302;0.003974;0.006164;42.696342;177.696335;0.008218;0.009815;0.016301;-8.895142e-04;0.00111;0.003975;0.001999;0.782462;0.020276;-0.020276;0.025534
1.106501;-1.747254;0.829109;-0.778586;0.062359;-0.059198;0.783319;0.003445;0.005192;9.301444e-04;-0.543776;-0.663422;-1.507337;-1.838994;0.005595;0.003042;0.001276;111.611801;66.611801;0.001702;0.003234;0.003445;9.311215e-04;9.291672e-04;0.005192;-1.954354e-06;0.769911;0.008637;-0.008637;0.002226
1.173667;-1.747254;0.763599;-0.778638;0.062228;-0.060821;0.783485;0.003459;0.006521;-2.400905e-04;-0.526091;-0.53047;-1.885121;-1.900813;0.00654;0.00344;0.00155;148.866974;103.866974;0.002066;0.003777;0.003459;0.001461;-0.001941;0.006521;-0.003402;0.702778;0.00998;-0.00998;0.004334
1.240832;-1.747254;0.709864;-0.778892;0.061892;-0.062884;0.783874;-0.008493;0.005462;0.005626;1.406955;1.554906;0.643126;0.710755;0.007448;-0.010479;0.008963;166.084549;121.084549;0.011951;0.010399;-0.008493;0.013387;-0.002134;0.005462;-0.015521;0.64698;-0.003031;0.003031;0.040594
1.307997;-1.747254;0.659348;-0.779163;0.061722;-0.058839;0.783815;-0.011553;0.001278;0.001179;8.419106;9.042695;0.110587;0.118777;0.001385;-0.01166;0.006523;27.955729;162.955734;0.008697;0.008274;-0.011553;0.003432;-0.001074;0.001278;-0.004506;0.600508;-0.010275;0.010275;0.026547
1.375163;-1.747254;0.613147;-0.779468;0.061581;-0.059118;0.784128;0.00166;0.003521;-0.009226;0.563274;-0.471578;-2.120541;1.775336;0.011863;-0.006682;0.009273;140.540253;95.54026;0.012363;0.010845;0.00166;-0.017785;-6.662972e-04;0.003521;0.017119;0.554029;0.005181;-0.005181;0.061096
1.442328;-1.747254;0.498873;-0.779194;0.061605;-0.058759;0.783831;-0.041678;0.003747;-0.0093;7.801413;11.123636;0.089899;0.128182;0.005577;-0.043508;0.024543;72.134354;27.134357;0.032723;0.031032;-0.041678;-0.021152;0.002552;0.003747;0.023704;0.440115;-0.037931;0.037931;0.09714
1.509493;-1.747254;0.354832;-0.779433;0.062277;-0.04415;0.783162;-0.07222;0.003815;-6.101673e-04;18.907602;18.930584;0.052825;0.052889;0.00382;-0.072225;0.038022;49.429913;4.429914;0.050697;0.049472;-0.07222;-0.005381;0.00416;0.003815;0.009541;0.310682;-0.068405;0.068405;0.014997
-0.303971;-1.81442;0.351815;-0.777542;0.063352;-0.053168;0.781928;-0.038407;7.230717e-04;-0.013241;8.879169;53.116177;0.018827;0.112623;0.004783;-0.042466;0.023625;78.279808;33.279808;0.031499;0.030032;-0.038407;-0.025231;-0.001252;7.230717e-04;0.023979;0.298646;-0.037684;0.037684;0.019394
-0.236806;-1.81442;0.482972;-0.777268;0.063191;-0.061106;0.782223;-0.001594;0.002214;-0.004973;0.890059;0.720175;1.388552;1.123521;0.005634;-0.005015;0.005325;127.935959;82.935959;0.007099;0.006152;-0.001594;-0.007561;-0.002384;0.002214;0.005177;0.421866;6.194413e-04;-6.194413e-04;0.030802
-0.169641;-1.81442;0.552679;-0.777614;0.062666;-0.052525;0.781901;0.049711;0.004711;0.004529;-0.084916;-10.552276;-0.094766;-11.776368;0.050162;0.00426;0.022951;58.993618;13.993619;0.030602;0.032116;0.049711;0.012644;-0.003586;0.004711;-0.01623;0.500154;0.054421;-0.054421;0.001221
-0.102475;-1.81442;0.608614;-0.777939;0.062384;-0.044402;0.781698;0.01507;0.00495;0.010415;0.072653;-3.044234;-0.32849;13.764114;0.021589;-0.001569;0.011579;101.556847;56.55685;0.015439;0.014943;0.01507;0.021941;-0.001111;0.00495;-0.023053;0.564212;0.020021;-0.020021;0.016876
-0.03531;-1.81442;0.683064;-0.777665;0.062326;-0.04382;0.781388;-0.051969;0.004256;0.019019;5.731314;12.21213;0.081886;0.17448;0.010085;-0.057798;0.033941;10.656252;145.65625;0.045255;0.042296;-0.051969;0.035481;0.002556;0.004256;-0.032925;0.639244;-0.047714;0.047714;0.084145
0.031855;-1.81442;0.73512;-0.777831;0.063049;-0.061716;0.782819;-0.03211;0.002987;0.006708;7.891562;10.748712;0.093034;0.126718;0.004226;-0.033349;0.018787;25.499525;160.499527;0.02505;0.023767;-0.03211;0.011462;0.001955;0.002987;-0.009508;0.673404;-0.029123;0.029123;0.060429
0.099021;-1.81442;0.776655;-0.777976;0.062973;-0.05944;0.78278;0.029443;0.005525;-0.015435;0.055169;-5.328969;-0.187654;18.126011;0.03701;-0.002042;0.019526;1.189934;136.189926;0.026035;0.025381;0.029443;-0.027855;-0.003015;0.005525;0.02484;0.717215;0.034968;-0.034968;0.011185
0.166186;-1.81442;0.817179;-0.777883;0.062594;-0.05115;0.782071;0.010853;0.00896;-0.015806;0.230286;-1.211364;-0.825516;4.342419;0.025741;-0.005928;0.015834;155.404633;110.404625;0.021113;0.01944;0.010853;-0.028772;-0.00284;0.00896;0.025932;0.766029;0.019813;-0.019813;0.025211
0.233352;-1.81442;0.838275;-0.777988;0.06242;-0.051894;0.782211;-0.005583;0.005801;-0.010533;0.981947;0.9624;1.039068;1.018385;0.012082;-0.011864;0.011973;121.118912;76.118912;0.015964;0.013825;-0.005583;-0.020548;-5.18431e-04;0.005801;0.02003;0.786381;2.181161e-04;-2.181161e-04;0.02043
0.300517;-1.81442;0.8675;-0.777727;0.062308;-0.053488;0.78205;0.009631;0.005277;-0.01374;0.302232;-1.824993;-0.547947;3.308713;0.021366;-0.006458;0.013912;154.760361;109.760361;0.018549;0.016815;0.009631;-0.026386;-0.001095;0.005277;0.025291;0.814013;0.014909;-0.014909;0.027789
0.367682;-1.81442;0.913057;-0.777971;0.062378;-0.049389;0.782029;0.017145;0.012965;-0.012974;-0.067882;-1.322386;-0.756209;-14.731544;0.028196;0.001914;0.013141;165.895432;120.895432;0.017521;0.018193;0.017145;-0.024467;-0.00148;0.012965;0.022987;0.863669;0.03011;-0.03011;0.006585
0.434848;-1.81442;0.924303;-0.778178;0.062284;-0.046393;0.782044;-4.944164e-04;0.033457;-0.007692;0.061387;0.014778;67.668808;16.290134;0.035118;-0.002156;0.018637;133.448944;88.448944;0.024849;0.024163;-4.944164e-04;-0.016263;8.796545e-04;0.033457;0.017143;0.87791;0.032962;-0.032962;0.015512
0.502013;-1.81442;0.919914;-0.778248;0.062284;-0.049268;0.78229;-0.003285;0.054568;0.004515;0.066202;0.060209;16.608732;15.105292;0.054918;-0.003636;0.029277;128.878769;83.878769;0.039036;0.037882;-0.003285;0.003004;0.006025;0.054568;0.003021;0.870646;0.051282;-0.051282;0.013602
0.569178;-1.81442;0.92514;-0.778335;0.062171;-0.056045;0.782823;-0.002624;0.048711;0.015893;0.134249;0.053875;18.56155;7.44887;0.053234;-0.007147;0.03019;137.23497;92.234978;0.040253;0.038095;-0.002624;0.032781;-9.938738e-04;0.048711;-0.033775;0.869095;0.046087;-0.046087;0.010473
0.636344;-1.81442;0.930441;-0.778282;0.062063;-0.062298;0.783234;0.001495;0.014347;0.005073;0.016509;-0.104197;-9.59722;60.572029;0.016108;-2.659379e-04;0.008187;140.263916;95.263924;0.010916;0.010829;0.001495;0.014126;-0.00398;0.014347;-0.018106;0.868143;0.015842;-0.015842;0.025627
0.703509;-1.81442;0.928989;-0.77825;0.062157;-0.060604;0.783077;4.099257e-04;-0.003249;-7.333013e-04;6.14893;0.126165;7.926114;0.16263;5.51414e-04;-0.003391;0.001971;126.355667;81.355667;0.002628;0.002465;4.099257e-04;-8.463482e-04;-6.202545e-04;-0.003249;2.260936e-04;0.868385;-0.002839;0.002839;0.019891
0.770674;-1.81442;0.928965;-0.778434;0.06194;-0.065418;0.783629;-0.003316;0.00483;0.001571;0.70437;0.68646;1.456749;1.419709;0.005123;-0.003608;0.004365;160.760391;115.760391;0.005821;0.005066;-0.003316;0.00399;-8.475735e-04;0.00483;-0.004838;0.863547;0.001514;-0.001514;0.072229
0.83784;-1.81442;0.929101;-0.77865;0.062111;-0.056498;0.783164;-0.009171;0.004068;-9.460379e-04;2.234354;2.254766;0.443505;0.447557;0.004135;-0.009239;0.006687;57.230755;12.230756;0.008916;0.007906;-0.009171;-0.001694;-1.984621e-04;0.004068;0.001495;0.872603;-0.005104;0.005104;0.070077
0.905005;-1.81442;0.908636;-0.778439;0.061957;-0.054804;0.782821;-0.002408;0.003228;-0.001367;0.768537;0.746016;1.340453;1.301173;0.003542;-0.002722;0.003132;140.986725;95.986725;0.004176;0.003627;-0.002408;-0.001468;-0.001265;0.003228;2.02939e-04;0.853833;8.19745e-04;-8.19745e-04;0.02844
0.97217;-1.81442;0.879877;-0.778509;0.061848;-0.055351;0.782921;0.014905;0.001565;-0.005144;0.011279;-9.522983;-0.105009;88.659714;0.016658;-1.878873e-04;0.008423;11.639639;146.639633;0.011231;0.011169;0.014905;-0.009724;-5.636642e-04;0.001565;0.00916;0.824526;0.01647;-0.01647;0.031151
1.039336;-1.81442;0.845455;-0.778432;0.061838;-0.060156;0.783198;0.01381;0.001303;-0.005739;0.058018;-10.596659;-0.094369;17.235916;0.016044;-9.308648e-04;0.008488;4.97218;139.972183;0.011317;0.01102;0.01381;-0.01154;6.250173e-05;0.001303;0.011603;0.785299;0.015113;-0.015113;0.010503
1.106501;-1.81442;0.816602;-0.77855;0.061908;-0.059136;0.783243;-3.900943e-04;0.002714;-0.003763;0.555846;0.143739;6.957043;1.799059;0.005232;-0.002908;0.00407;136.204178;91.204178;0.005427;0.004763;-3.900943e-04;-0.006274;-0.001251;0.002714;0.005024;0.757466;0.002324;-0.002324;0.028267
1.173667;-1.81442;0.78536;-0.778701;0.061649;-0.059755;0.78342;-0.010314;0.006534;0.002284;1.552679;1.578395;0.633555;0.644048;0.006838;-0.010618;0.008728;1.803858;136.803864;0.011638;0.010157;-0.010314;0.007843;-0.003275;0.006534;-0.011118;0.725605;-0.003779;0.003779;0.014547
1.240832;-1.81442;0.728969;-0.778999;0.061534;-0.05567;0.783406;-0.01009;0.007744;0.008904;1.205284;1.302948;0.767491;0.82968;0.011429;-0.013775;0.012602;161.118729;116.118729;0.016802;0.014572;-0.01009;0.018197;-3.882555e-04;0.007744;-0.018585;0.673299;-0.002346;0.002346;0.03906
1.307997;-1.81442;0.671569;-0.779116;0.061786;-0.056196;0.78358;0.006419;0.001046;8.938953e-04;-0.137287;-6.137054;-0.162945;-7.284022;0.006564;9.011089e-04;0.002831;61.16127;16.161268;0.003775;0.004109;0.006419;0.001819;-3.104416e-05;0.001046;-0.00185;0.615373;0.007465;-0.007465;0.02834
1.375163;-1.81442;0.603688;-0.779448;0.061571;-0.059009;0.7841;0.002976;-3.971905e-05;-0.005271;0.577493;74.935272;0.013345;1.731624;0.006951;-0.004014;0.005482;152.516113;107.516121;0.00731;0.006406;0.002976;-0.009519;-0.001022;-3.971905e-05;0.008497;0.544678;0.002937;-0.002937;0.066348
1.442328;-1.81442;0.520963;-0.779055;0.061489;-0.05855;0.783668;-0.048999;0.002517;0.002698;18.489954;19.469177;0.051363;0.054083;0.002658;-0.04914;0.025899;41.7122;176.712204;0.034532;0.033681;-0.048999;0.00294;0.002456;0.002517;-4.83652e-04;0.462413;-0.046482;0.046482;0.075728
1.509493;-1.81442;0.382361;-0.779155;0.06211;-0.045755;0.782965;-0.077676;0.004625;0.01167;12.692378;16.794559;0.059543;0.078787;0.006248;-0.079298;0.042773;31.288374;166.288376;0.057031;0.055066;-0.077676;0.019161;0.004178;0.004625;-0.014983;0.336605;-0.073051;0.073051;0.023545
-0.303971;-1.881585;0.336806;-0.777747;0.063513;-0.051526;0.782036;-0.033727;-2.376343e-04;-0.004226;119.123924;-141.926743;-0.007046;0.008395;2.87531e-04;-0.034252;0.01727;56.299225;11.299224;0.023026;0.022931;-0.033727;-0.006744;-0.001709;-2.376343e-04;0.005035;0.28528;-0.033964;0.033964;0.039438
-0.236806;-1.881585;0.464018;-0.777245;0.063322;-0.058396;0.782004;-0.010262;-2.656689e-04;-0.010092;2.755171;-38.627758;-0.025888;0.362954;0.005998;-0.016526;0.011262;103.776611;58.776611;0.015016;0.01347;-0.010262;-0.017311;-0.002873;-2.656689e-04;0.014438;0.405622;-0.010528;0.010528;0.032551
-0.169641;-1.881585;0.554003;-0.777444;0.062755;-0.05509;0.781916;0.028704;4.60201e-04;0.004983;0.013305;-62.372837;-0.016033;75.160622;0.029558;-3.932579e-04;0.014975;70.435143;25.435143;0.019967;0.019837;0.028704;0.013896;-0.003929;4.60201e-04;-0.017825;0.498913;0.029164;-0.029164;0.015244
-0.102475;-1.881585;0.617315;-0.778294;0.062438;-0.049493;0.782362;-0.007912;-0.00507;0.028073;1.600487;-1.56053;-0.640808;0.62481;0.021618;-0.0346;0.028109;142.912186;97.912186;0.037479;0.032745;-0.007912;0.056352;-2.06118e-04;-0.00507;-0.056558;0.567822;-0.012981;0.012981;0.018913
-0.03531;-1.881585;0.694563;-0.77738;0.062605;-0.05823;0.782067;-0.047075;-0.004609;0.032273;5.041196;-10.212681;-0.097917;0.198366;0.012789;-0.064473;0.038631;172.88443;127.884422;0.051509;0.047819;-0.047075;0.060546;0.004;-0.004609;-0.056546;0.636334;-0.051684;0.051684;0.081726
0.031855;-1.881585;0.738257;-0.776496;0.062886;-0.0654;0.781779;0.021781;0.002358;-0.001916;-0.098804;-9.238028;-0.108248;-10.121094;0.021968;0.00217;0.009899;38.603725;173.603729;0.013198;0.013978;0.021781;-0.00226;-0.001572;0.002358;6.875258e-04;0.672857;0.024138;-0.024138;0.163816
0.099021;-1.881585;0.777802;-0.776927;0.062319;-0.048893;0.780954;0.036119;-4.192072e-04;-0.016698;0.161988;86.160149;0.011606;6.173299;0.042601;-0.006901;0.024751;4.953635;139.953629;0.033001;0.030958;0.036119;-0.030477;-0.00292;-4.192072e-04;0.027557;0.728909;0.0357;-0.0357;0.119594
0.166186;-1.881585;0.813614;-0.777937;0.062273;-0.049492;0.781993;-0.014477;0.004752;-3.281694e-04;3.04392;3.046328;0.328264;0.328524;0.004758;-0.014483;0.009621;43.712891;178.712891;0.012827;0.011572;-0.014477;5.699739e-05;-7.133362e-04;0.004752;-7.703336e-04;0.764122;-0.009725;0.009725;0.050542
0.233352;-1.881585;0.847321;-0.778342;0.062144;-0.051326;0.782504;-7.475392e-04;0.005086;0.006716;0.542902;0.146988;6.803277;1.841953;0.009491;-0.005153;0.007322;139.686951;94.686951;0.009762;0.008577;-7.475392e-04;0.01535;-0.001919;0.005086;-0.017269;0.795995;0.004338;-0.004338;0.014828
0.300517;-1.881585;0.870304;-0.777976;0.062093;-0.049904;0.782044;0.013032;0.004817;0.004083;-0.212836;-2.705641;-0.369598;-4.698444;0.014716;0.003132;0.005792;83.909821;38.909821;0.007723;0.008951;0.013032;0.009876;-0.001709;0.004817;-0.011586;0.8204;0.017848;-0.017848;0.052032
0.367682;-1.881585;0.919469;-0.778154;0.061931;-0.048643;0.782129;0.017146;0.007344;0.005815;-0.233775;-2.334595;-0.42834;-4.277616;0.01985;0.00464;0.007605;84.15464;39.154636;0.010139;0.011989;0.017146;0.012445;-8.151728e-04;0.007344;-0.01326;0.870826;0.02449;-0.02449;0.003053
0.434848;-1.881585;0.944787;-0.777503;0.06166;-0.04348;0.781155;0.015162;0.008724;0.00496;-0.337717;-1.737867;-0.575418;-2.961058;0.017856;0.00603;0.005913;88.761421;43.761417;0.007884;0.010489;0.015162;0.011996;-0.002076;0.008724;-0.014072;0.901306;0.023887;-0.023887;0.123017
0.502013;-1.881585;0.94901;-0.777731;0.061128;-0.036991;0.781006;-8.233823e-06;0.006302;-0.005734;0.350586;0;0;2.852365;0.009691;-0.003398;0.006545;154.28714;109.287148;0.008726;0.007843;-8.233823e-06;-0.007044;-0.004424;0.006302;0.00262;0.912018;0.006294;-0.006294;0.111447
0.569178;-1.881585;0.966953;-0.778227;0.061068;-0.042752;0.78179;0.001092;0.018719;0.006926;0.061742;-0.058349;-17.138128;16.196375;0.021115;-0.001304;0.011209;120.106918;75.106918;0.014946;0.014531;0.001092;0.008385;0.005468;0.018719;-0.002917;0.924201;0.019811;-0.019811;0.055392
0.636344;-1.881585;0.935476;-0.778269;0.06155;-0.050529;0.782332;0.019632;0.014973;0.027195;0.224038;-1.311163;-0.762681;4.463531;0.044597;-0.009991;0.027294;101.743034;56.743038;0.036392;0.033561;0.019632;0.036543;0.017846;0.014973;-0.018697;0.884947;0.034606;-0.034606;0.057013
0.703509;-1.881585;0.900034;-0.778443;0.061779;-0.056601;0.782939;9.301706e-04;0.014935;0.008437;0.16045;-0.062283;-16.055798;6.232454;0.018897;-0.003032;0.010964;113.119217;68.119217;0.014619;0.013721;9.301706e-04;0.009348;0.007527;0.014935;-0.001821;0.843433;0.015865;-0.015865;0.042464
0.770674;-1.881585;0.919;-0.778261;0.061577;-0.060976;0.783071;7.188998e-05;0.027152;-0.011875;0.139068;-0.002648;-377.694397;7.19072;0.031622;-0.004398;0.01801;147.076187;102.076195;0.024013;0.02269;7.188998e-05;-0.016062;-0.007688;0.027152;0.008375;0.858024;0.027224;-0.027224;0.101567
0.83784;-1.881585;0.920766;-0.778815;0.061589;-0.056076;0.783257;-0.003936;0.015505;0.010806;0.430649;0.253852;3.93931;2.322075;0.020319;-0.00875;0.014535;143.740555;98.740555;0.01938;0.017221;-0.003936;0.023505;-0.001892;0.015505;-0.025397;0.86469;0.011569;-0.011569;0.051079
0.905005;-1.881585;0.905698;-0.778988;0.061595;-0.054959;0.783349;0.011835;0.006431;0.008666;-0.003067;-1.840436;-0.54335;-326.057831;0.01821;5.584905e-05;0.009077;100.063774;55.06377;0.012103;0.012121;0.011835;0.01566;0.001671;0.006431;-0.013989;0.850739;0.018266;-0.018266;0.029579
0.97217;-1.881585;0.878768;-0.778873;0.061769;-0.056498;0.783358;0.015697;0.00205;0.002458;-0.100485;-7.658433;-0.130575;-9.951743;0.016126;0.00162;0.007253;58.994457;13.994456;0.00967;0.010253;0.015697;0.003733;0.001183;0.00205;-0.002551;0.82227;0.017746;-0.017746;0.045197
1.039336;-1.881585;0.851312;-0.778524;0.061798;-0.061822;0.783416;0.009009;0.005185;0.006869;0.002291;-1.73748;-0.575546;436.573792;0.014227;-3.258749e-05;0.00713;101.685997;56.685997;0.009506;0.009495;0.009009;0.012601;0.001136;0.005185;-0.011465;0.78949;0.014194;-0.014194;0.010537
1.106501;-1.881585;0.825965;-0.778633;0.061896;-0.061402;0.783499;-0.00121;0.007654;0.003812;0.289373;0.158131;6.32386;3.455745;0.009068;-0.002624;0.005846;147.913879;102.913879;0.007795;0.007084;-0.00121;0.01123;-0.003606;0.007654;-0.014837;0.764563;0.006444;-0.006444;0.00817
1.173667;-1.881585;0.801284;-0.778932;0.06149;-0.060152;0.783668;-0.013998;0.003614;-0.001667;3.753886;3.873088;0.258192;0.266391;0.003771;-0.014154;0.008962;39.863998;174.863998;0.01195;0.010912;-0.013998;3.249972e-04;-0.003659;0.003614;-0.003984;0.741132;-0.010384;0.010384;0.017352
1.240832;-1.881585;0.744703;-0.778878;0.061427;-0.05547;0.783263;-0.003033;9.70141e-04;-0.005477;1.429656;3.125973;0.3199;0.699469;0.0048;-0.006863;0.005832;120.856979;75.856979;0.007775;0.006769;-0.003033;-0.012621;0.001666;9.70141e-04;0.014288;0.689233;-0.002062;0.002062;0.043403
1.307997;-1.881585;0.690926;-0.778971;0.061757;-0.060375;0.783744;0.011559;0.001399;-0.00683;0.135579;-8.259876;-0.121067;7.375749;0.014991;-0.002032;0.008512;174.69136;129.69136;0.011349;0.010736;0.011559;-0.013841;1.816338e-04;0.001399;0.014023;0.630551;0.012958;-0.012958;0.033642
1.375163;-1.881585;0.624025;-0.779365;0.061465;-0.061186;0.784176;-0.004975;0.002314;-0.001636;1.998517;2.149763;0.465168;0.500371;0.002665;-0.005326;0.003995;55.438152;10.438151;0.005327;0.004698;-0.004975;-0.00156;-0.001713;0.002314;-1.536167e-04;0.562839;-0.002661;0.002661;0.067258
1.442328;-1.881585;0.558265;-0.779047;0.061393;-0.058897;0.783678;-0.053105;0.002847;0.004733;16.4893;18.652506;0.053612;0.060645;0.003245;-0.053503;0.028374;36.794712;171.794708;0.037832;0.036798;-0.053105;0.007733;0.001734;0.002847;-0.005999;0.499368;-0.050258;0.050258;0.06427
1.509493;-1.881585;0.424004;-0.779007;0.061868;-0.045036;0.782756;-0.077014;0.003685;0.007761;17.574652;20.901575;0.047843;0.0569;0.004424;-0.077754;0.041089;35.929596;170.929596;0.054785;0.053372;-0.077014;0.012427;0.003094;0.003685;-0.009333;0.378967;-0.07333;0.07333;0.024786
-0.303971;-1.94875;0.334078;-0.777973;0.063411;-0.053699;0.782398;-0.01374;0.002458;0.010137;2.538504;5.590523;0.178874;0.393933;0.007333;-0.018616;0.012975;166.163834;121.163841;0.0173;0.015447;-0.01374;0.022986;-0.002713;0.002458;-0.025699;0.280378;-0.011283;0.011283;0.054281
-0.236806;-1.94875;0.449399;-0.777512;0.063087;-0.053798;0.78192;-0.010997;0.003228;0.00591;2.448624;3.406488;0.293557;0.408393;0.005363;-0.013132;0.009247;172.184479;127.184479;0.01233;0.010988;-0.010997;0.014597;-0.002778;0.003228;-0.017376;0.395601;-0.007769;0.007769;0.043115
-0.169641;-1.94875;0.544294;-0.777148;0.062717;-0.056806;0.781742;0.013348;0.003125;0.00635;-0.005149;-4.271861;-0.23409;-194.216843;0.016389;8.438368e-05;0.008152;94.774597;49.774593;0.01087;0.010898;0.013348;0.015622;-0.002921;0.003125;-0.018542;0.487487;0.016473;-0.016473;0.045483
-0.102475;-1.94875;0.635724;-0.777928;0.062417;-0.052904;0.782219;-0.016044;0.002937;0.001411;5.310204;5.463327;0.183039;0.188317;0.003041;-0.016148;0.009595;38.856205;173.856201;0.012793;0.011909;-0.016044;0.00185;9.722539e-04;0.002937;-8.776148e-04;0.582821;-0.013107;0.013107;0.036084
-0.03531;-1.94875;0.697649;-0.777671;0.063279;-0.066015;0.783029;-0.02537;0.00254;-0.009968;4.981539;9.98924;0.100108;0.200741;0.005734;-0.028564;0.017149;87.829536;42.829536;0.022865;0.021214;-0.02537;-0.02363;0.003695;0.00254;0.027325;0.631634;-0.02283;0.02283;0.023739
0.031855;-1.94875;0.714953;-0.776425;0.062866;-0.060834;0.781338;0.053151;0.00294;-0.017669;0.045178;-18.075735;-0.055323;22.134506;0.058746;-0.002654;0.0307;15.547944;150.547943;0.040933;0.040078;0.053151;-0.030019;-0.005319;0.00294;0.0247;0.654118;0.056092;-0.056092;0.214981
0.099021;-1.94875;0.750311;-0.776586;0.061659;-0.043894;0.780266;0.004185;0.003822;5.966069e-04;-0.730427;-1.095151;-0.913116;-1.369062;0.004627;0.00338;6.236982e-04;102.634377;57.634377;8.315975e-04;0.002765;0.004185;0.004229;-0.003036;0.003822;-0.007265;0.706417;0.008007;-0.008007;0.170996
0.166186;-1.94875;0.78935;-0.778024;0.062199;-0.05606;0.782517;-0.042642;-0.001389;0.01899;8.312769;-30.696409;-0.032577;0.120297;0.006021;-0.050052;0.028037;6.003689;141.003693;0.037382;0.035546;-0.042642;0.034611;0.003368;-0.001389;-0.031243;0.73329;-0.044031;0.044031;0.035702
0.233352;-1.94875;0.836863;-0.77813;0.06209;-0.057789;0.782739;-0.002014;-0.005627;0.020181;1.464803;-0.357956;-2.793638;0.682686;0.016441;-0.024082;0.020261;137.957138;92.957138;0.027015;0.023534;-0.002014;0.039783;5.782054e-04;-0.005627;-0.039205;0.779074;-0.007642;0.007642;0.02933
0.300517;-1.94875;0.865943;-0.77758;0.061831;-0.055625;0.782015;0.012327;-0.003296;0.019251;0.642897;3.740208;0.267365;1.555458;0.025291;-0.016259;0.020775;118.393227;73.393227;0.0277;0.024177;0.012327;0.04221;-0.003709;-0.003296;-0.045919;0.810319;0.009031;-0.009031;0.07018
0.367682;-1.94875;0.883423;-0.778241;0.061588;-0.049271;0.782228;-2.108891e-04;0.008005;0.025365;0.736625;0.026346;37.957008;1.357542;0.029592;-0.021798;0.025695;135.703186;90.703186;0.03426;0.029784;-2.108891e-04;0.05384;-0.00311;0.008005;-0.05695;0.834152;0.007794;-0.007794;0.01275
0.434848;-1.94875;0.907536;-0.777727;0.061854;-0.056121;0.782199;0.011111;0.012373;0.028771;0.420426;-0.897995;-1.113592;2.378539;0.04052;-0.017036;0.028778;123.630005;78.630005;0.03837;0.034139;0.011111;0.055148;0.002393;0.012373;-0.052755;0.851415;0.023484;-0.023484;0.080686
0.502013;-1.94875;0.92957;-0.777734;0.061581;-0.04851;0.781675;0.018705;0.008941;0.019356;0.181727;-2.092016;-0.478008;5.502767;0.033785;-0.00614;0.019962;110.89444;65.89444;0.026617;0.024824;0.018705;0.039806;-0.001094;0.008941;-0.0409;0.881061;0.027645;-0.027645;0.093174
0.569178;-1.94875;0.932617;-0.778008;0.060979;-0.037811;0.781309;-0.005191;0.001365;-0.001375;3.330903;3.803049;0.262947;0.300219;0.001642;-0.005468;0.003555;74.149063;29.149061;0.00474;0.004298;-0.005191;-0.002742;-7.362301e-06;0.001365;0.002734;0.894806;-0.003826;0.003826;0.065179
0.636344;-1.94875;0.928887;-0.778514;0.06123;-0.042884;0.782095;-9.940569e-04;-0.002733;-0.003062;3.824027;-0.363783;-2.748893;0.261504;0.00132;-0.005046;0.003183;127.804291;82.804291;0.004244;0.00388;-9.940569e-04;-0.006258;1.344063e-04;-0.002733;0.006393;0.886003;-0.003727;0.003727;0.062616
0.703509;-1.94875;0.918079;-0.778558;0.061038;-0.04104;0.782024;-0.002425;0.040345;-0.018306;0.195068;0.060094;16.640579;5.12641;0.047111;-0.00919;0.02815;147.977142;102.977135;0.037534;0.034876;-0.002425;-0.023249;-0.013364;0.040345;0.009885;0.877039;0.037921;-0.037921;0.05422
0.770674;-1.94875;0.928533;-0.778359;0.059958;-0.027419;0.781146;-0.004112;0.061442;-0.002033;0.067882;0.066926;14.941834;14.731505;0.061505;-0.004175;0.03284;141.027328;96.027328;0.043787;0.042464;-0.004112;0.002254;-0.00632;0.061442;-0.008574;0.901113;0.05733;-0.05733;0.105731
0.83784;-1.94875;0.91502;-0.77872;0.060484;-0.033034;0.781763;0.028938;0.013566;0.025578;0.113764;-2.133098;-0.468802;8.790108;0.04796;-0.005456;0.026708;100.291336;55.291332;0.035611;0.033939;0.028938;0.041772;0.009384;0.013566;-0.032388;0.881986;0.042504;-0.042504;0.007796
0.905005;-1.94875;0.912908;-0.778833;0.06137;-0.053583;0.783083;0.036823;0.002489;0.009632;7.120711e-04;-14.792053;-0.067604;1404.354248;0.03934;-2.801291e-05;0.019684;61.597279;16.597281;0.026245;0.026236;0.036823;0.010971;0.008292;0.002489;-0.00268;0.859324;0.039312;-0.039312;0.010983
0.97217;-1.94875;0.888584;-0.778574;0.061698;-0.057578;0.783134;0.005426;0.001876;0.004837;0.170566;-2.892122;-0.345767;5.862842;0.008803;-0.001502;0.005152;99.208672;54.208672;0.00687;0.006428;0.005426;0.007748;0.001926;0.001876;-0.005822;0.831006;0.007302;-0.007302;0.005468
1.039336;-1.94875;0.852034;-0.778512;0.061649;-0.053211;0.78276;-2.826764e-04;0.00801;0.005617;0.287524;0.035292;28.335001;3.47797;0.010845;-0.003118;0.006982;140.765762;95.765755;0.009309;0.008463;-2.826764e-04;0.013941;-0.002706;0.00801;-0.016647;0.798824;0.007727;-0.007727;0.010179
1.106501;-1.94875;0.865322;-0.778693;0.061581;-0.056675;0.783177;0.010647;0.009136;0.008238;-0.089153;-1.165327;-0.858128;-11.216718;0.018164;0.001619;0.008272;112.355408;67.355408;0.011029;0.011607;0.010647;0.020004;-0.003529;0.009136;-0.023534;0.808646;0.019783;-0.019783;0.003769
1.173667;-1.94875;0.822653;-0.778904;0.061156;-0.059691;0.783578;0.001589;0.002094;-0.001381;-0.134737;-0.758803;-1.317866;-7.421884;0.003245;4.372208e-04;0.001404;167.152985;122.152992;0.001872;0.002033;0.001589;-0.001886;-8.761819e-04;0.002094;0.00101;0.762962;0.003682;-0.003682;0.019856
1.240832;-1.94875;0.741711;-0.778726;0.061306;-0.058525;0.783324;-0.006778;0.001199;-0.001175;5.077682;5.653958;0.176867;0.19694;0.001368;-0.006948;0.004158;75.486877;30.486879;0.005544;0.005149;-0.006778;-0.003922;0.001572;0.001199;0.005495;0.683186;-0.005579;0.005579;0.02958
1.307997;-1.94875;0.682326;-0.77898;0.061481;-0.059807;0.783688;3.267273e-04;3.014318e-04;0.010035;0.939301;-1.083918;-0.922579;1.064622;0.010349;-0.009721;0.010035;134.054672;89.054672;0.013379;0.011589;3.267273e-04;0.019927;1.418507e-04;3.014318e-04;-0.019786;0.622519;6.281591e-04;-6.281591e-04;0.036535
1.375163;-1.94875;0.612089;-0.779318;0.061274;-0.058493;0.783909;-0.008178;-0.002708;0.015261;2.082063;-3.019624;-0.331167;0.480293;0.010061;-0.020947;0.015504;149.350845;104.350845;0.020672;0.018266;-0.008178;0.03149;-9.679722e-04;-0.002708;-0.032458;0.553596;-0.010886;0.010886;0.056516
1.442328;-1.94875;0.514054;-0.779138;0.061151;-0.057108;0.783618;-0.045881;-3.909916e-04;0.009896;28.73287;-117.344803;-0.008522;0.034803;0.001668;-0.04794;0.024804;22.687344;157.687347;0.033073;0.032531;-0.045881;0.018829;9.625487e-04;-3.909916e-04;-0.017866;0.456946;-0.046272;0.046272;0.0503
1.509493;-1.94875;0.397722;-0.779298;0.061548;-0.044511;0.782991;-0.073908;0.004097;-0.002208;17.78187;18.037546;0.05544;0.056237;0.00416;-0.07397;0.039065;50.550518;5.550518;0.052087;0.050757;-0.073908;-0.007027;0.002612;0.004097;0.009639;0.353211;-0.06981;0.06981;0.032798
-0.303971;-2.015916;0.359694;-0.777859;0.063107;-0.056364;0.782448;-0.015609;0.004323;-0.007867;2.599836;3.610409;0.276977;0.38464;0.007054;-0.018339;0.012697;83.860954;38.86095;0.016929;0.015136;-0.015609;-0.012508;-0.003226;0.004323;0.009281;0.303329;-0.011285;0.011285;0.053639
-0.236806;-2.015916;0.485073;-0.77773;0.062669;-0.058725;0.782457;-0.012205;0.004323;-7.158534e-04;2.810422;2.823384;0.354185;0.355818;0.004354;-0.012236;0.008295;31.015831;166.015823;0.011059;0.009932;-0.012205;0.001836;-0.003267;0.004323;-0.005103;0.426349;-0.007882;0.007882;0.038467
-0.169641;-2.015916;0.542497;-0.777293;0.06241;-0.05929;0.782045;0.016114;0.003355;0.002476;-0.174436;-4.802707;-0.208216;-5.732769;0.016578;0.002892;0.006843;71.752708;26.752708;0.009124;0.010225;0.016114;0.008629;-0.003678;0.003355;-0.012306;0.483207;0.01947;-0.01947;0.058494
-0.102475;-2.015916;0.629361;-0.777635;0.062023;-0.051211;0.781784;0.007343;0.005118;-0.002084;-0.450167;-1.434652;-0.697033;-2.221398;0.008593;0.003868;0.002362;6.317339;141.317337;0.00315;0.004969;0.007343;-0.003807;-3.613938e-04;0.005118;0.003445;0.578149;0.012461;-0.012461;0.036307
-0.03531;-2.015916;0.685018;-0.778076;0.062252;-0.05241;0.78232;-0.00274;0.007186;-0.014438;0.745794;0.381292;2.622662;1.340854;0.01749;-0.013044;0.015267;129.760101;84.760101;0.020356;0.017691;-0.00274;-0.02933;4.533555e-04;0.007186;0.029783;0.632608;0.004446;-0.004446;0.010609
0.031855;-2.015916;0.722516;-0.777482;0.062181;-0.051121;0.781638;0.01975;0.01026;-0.008689;-0.204974;-1.924835;-0.519525;-4.878661;0.024905;0.005105;0.0099;5.33778;140.337784;0.0132;0.015191;0.01975;-0.013553;-0.003825;0.01026;0.009728;0.671396;0.03001;-0.03001;0.069667
0.099021;-2.015916;0.784302;-0.77729;0.061751;-0.051125;0.781414;-0.023141;-0.002321;0.015278;5.42363;-9.969574;-0.100305;0.184378;0.005756;-0.031218;0.018487;172.791733;127.791733;0.02465;0.022973;-0.023141;0.029762;7.929504e-04;-0.002321;-0.02897;0.733177;-0.025462;0.025462;0.073888
0.166186;-2.015916;0.828208;-0.777894;0.062061;-0.06048;0.782706;-0.037462;-0.004426;0.016481;18.522974;-8.464979;-0.118134;0.053987;0.00239;-0.044278;0.023334;6.315822;141.315826;0.031112;0.030347;-0.037462;0.029789;0.003173;-0.004426;-0.026616;0.767728;-0.041888;0.041888;0.029233
0.233352;-2.015916;0.864497;-0.777758;0.062033;-0.06316;0.78278;-0.009861;-0.00218;0.006922;7.349347;-4.523908;-0.221048;0.136067;0.001896;-0.013937;0.007916;171.274826;126.274826;0.010555;0.009983;-0.009861;0.01326;5.84989e-04;-0.00218;-0.012675;0.801337;-0.01204;0.01204;0.028549
0.300517;-2.015916;0.891375;-0.777716;0.061937;-0.066042;0.782968;-1.771863e-04;-0.003143;0.008051;1.508636;-0.056384;-17.735668;0.66285;0.006527;-0.009846;0.008187;134.159012;89.159012;0.010915;0.009518;-1.771863e-04;0.018832;-0.00273;-0.003143;-0.021562;0.825333;-0.00332;0.00332;0.059266
0.367682;-2.015916;0.910093;-0.778253;0.061649;-0.063327;0.783256;-0.002799;-0.005669;0.012659;1.995417;-0.493731;-2.025393;0.501148;0.008507;-0.016974;0.012741;141.189865;96.189865;0.016987;0.01498;-0.002799;0.025063;2.557621e-04;-0.005669;-0.024807;0.846766;-0.008468;0.008468;0.022289
0.434848;-2.015916;0.944622;-0.778064;0.061895;-0.06741;0.783427;0.009378;-0.004481;0.005137;0.557779;2.092989;0.477786;1.792825;0.011075;-0.006177;0.008626;87.439034;42.439034;0.011501;0.010093;0.009378;0.007888;0.002386;-0.004481;-0.005502;0.877212;0.004898;-0.004898;0.054267
0.502013;-2.015916;0.948983;-0.77798;0.061947;-0.060235;0.782763;0.015163;-0.008308;-0.007147;0.600725;1.825039;0.547933;1.664656;0.017168;-0.010313;0.01374;12.55335;147.553345;0.01832;0.01603;0.015163;-0.00942;-0.004874;-0.008308;0.004546;0.888748;0.006855;-0.006855;0.056195
0.569178;-2.015916;0.959931;-0.777976;0.061351;-0.054322;0.78228;-0.004364;-0.015441;5.728196e-04;-3.568996;-0.28264;-3.538067;-0.280191;-0.004335;-0.015471;0.005568;131.504272;86.50428;0.007424;0.009215;-0.004364;0.00284;-0.001695;-0.015441;-0.004535;0.905609;-0.019805;0.019805;0.064806
0.636344;-2.015916;0.959675;-0.778495;0.061485;-0.059291;0.783167;-0.007821;-0.013493;-0.010467;114.286911;-0.579595;-1.725343;0.00875;1.881383e-04;-0.021502;0.010845;110.240715;65.240715;0.01446;0.014398;-0.007821;-0.01551;-0.005425;-0.013493;0.010084;0.900384;-0.021314;0.021314;0.060716
0.703509;-2.015916;0.94133;-0.778258;0.060578;-0.041305;0.781705;-0.014906;-0.005512;-0.014116;5.374444;-2.704176;-0.369798;0.186066;0.004668;-0.025087;0.014877;89.546455;44.546455;0.019836;0.018478;-0.014906;-0.017335;-0.010898;-0.005512;0.006437;0.900025;-0.020419;0.020419;0.066941
0.770674;-2.015916;0.937736;-0.779067;0.058952;-0.023863;0.781659;-0.009381;0.023995;-0.021488;0.576574;0.390945;2.557905;1.734382;0.034515;-0.0199;0.027207;129.213364;84.213371;0.036276;0.031792;-0.009381;-0.0363;-0.006677;0.023995;0.029622;0.913873;0.014614;-0.014614;0.006441
0.83784;-2.015916;0.900973;-0.779214;0.06012;-0.033186;0.782234;0.046124;0.027919;-0.035014;-0.011529;-1.652045;-0.605311;-86.736443;0.0732;8.439316e-04;0.036178;162.806168;117.80616;0.048237;0.048521;0.046124;-0.077543;0.007514;0.027919;0.085057;0.867787;0.074044;-0.074044;0.031796
0.905005;-2.015916;0.899514;-0.778724;0.06138;-0.051607;0.782842;0.030511;0.013804;-0.015449;-0.115689;-2.210322;-0.452423;-8.643898;0.03972;0.004595;0.017563;170.808121;125.808121;0.023417;0.025089;0.030511;-0.039032;0.008135;0.013804;0.047168;0.847907;0.044316;-0.044316;0.020851
0.97217;-2.015916;0.888658;-0.778357;0.061772;-0.055746;0.782792;-0.005322;0.003598;-0.002279;1.415843;1.479252;0.676017;0.706293;0.004146;-0.00587;0.005008;89.182266;44.18227;0.006678;0.005812;-0.005322;-0.003853;-7.046291e-04;0.003598;0.003149;0.832912;-0.001724;0.001724;0.003255
1.039336;-2.015916;0.854915;-0.778509;0.061602;-0.051774;0.782656;-0.005593;0.0026;9.437695e-04;2.105932;2.151582;0.464774;0.474849;0.002707;-0.005701;0.004204;3.523439;138.523438;0.005605;0.004956;-0.005593;0.005052;-0.003164;0.0026;-0.008216;0.803142;-0.002994;0.002994;0.028705
1.106501;-2.015916;0.862472;-0.778853;0.061322;-0.055424;0.783227;0.023861;2.39717e-04;-0.002241;-0.001207;-99.538887;-0.010046;-828.16687;0.024072;2.906638e-05;0.012021;39.675034;174.675034;0.016028;0.016038;0.023861;-0.002221;-0.00226;2.39717e-04;-3.86536e-05;0.807048;0.024101;-0.024101;0.030052
1.173667;-2.015916;0.803839;-0.778883;0.061188;-0.062046;0.783743;0.007058;7.309233e-04;0.003998;0.133892;-9.656572;-0.103556;7.468724;0.008993;-0.001204;0.005099;93.225258;48.225254;0.006798;0.006435;0.007058;0.007866;1.307777e-04;7.309233e-04;-0.007735;0.741792;0.007789;-0.007789;0.006295
1.240832;-2.015916;0.741294;-0.778696;0.061415;-0.058529;0.783304;-0.029058;-3.905127e-04;0.016674;5.054014;-74.409073;-0.013439;0.197863;0.007264;-0.036712;0.021988;177.584442;132.584442;0.029317;0.027221;-0.029058;0.031665;0.001683;-3.905127e-04;-0.029982;0.682765;-0.029448;0.029448;0.029601
1.307997;-2.015916;0.681354;-0.779203;0.061428;-0.054267;0.783502;-0.007991;3.858377e-04;0.029686;1.290531;20.711391;0.048283;0.774875;0.026178;-0.033783;0.02998;142.791718;97.791718;0.039974;0.034711;-0.007991;0.058368;0.001005;3.858377e-04;-0.057363;0.627087;-0.007605;0.007605;0.031318
1.375163;-2.015916;0.605449;-0.779421;0.061553;-0.056123;0.78386;0.001358;-0.001219;0.02386;0.994181;1.114428;0.897322;1.005853;0.023965;-0.023825;0.023895;133.370956;88.370956;0.03186;0.027591;0.001358;0.047772;-5.174361e-05;-0.001219;-0.047824;0.549327;1.394572e-04;-1.394572e-04;0.047291
1.442328;-2.015916;0.499354;-0.77931;0.061437;-0.052874;0.783515;-0.025581;-0.001194;0.003649;-39.583687;-21.424988;-0.046674;-0.025263;-6.59736e-04;-0.026115;0.012728;29.178755;164.178757;0.01697;0.017194;-0.025581;0.007232;6.585205e-05;-0.001194;-0.007166;0.44648;-0.026775;0.026775;0.03692
1.509493;-2.015916;0.40712;-0.779799;0.061458;-0.047649;0.783667;-0.041349;-3.687099e-04;-0.016947;8.27868;-112.144432;-0.008917;0.120792;0.005731;-0.047449;0.02659;85.530487;40.530487;0.035454;0.033706;-0.041349;-0.03538;0.001486;-3.687099e-04;0.036866;0.359471;-0.041717;0.041717;0.007466
-0.303971;-2.083081;0.374116;-0.7778;0.062934;-0.05083;0.781996;-0.038493;0.006417;-0.044646;1.945162;5.99861;0.166705;0.514096;0.033937;-0.066013;0.049975;111.00843;66.00843;0.066633;0.058688;-0.038493;-0.085818;-0.003474;0.006417;0.082343;0.323286;-0.032076;0.032076;0.045244
-0.236806;-2.083081;0.506788;-0.777835;0.062403;-0.055531;0.782308;-0.023184;0.005906;-0.027425;1.7712;3.925572;0.25474;0.564589;0.022404;-0.039682;0.031043;110.834518;65.834518;0.04139;0.036305;-0.023184;-0.050664;-0.004185;0.005906;0.04648;0.451257;-0.017278;0.017278;0.034412
-0.169641;-2.083081;0.564651;-0.777528;0.062079;-0.056672;0.782059;0.002054;0.005437;-0.01436;0.588525;-0.377779;-2.647048;1.699165;0.018204;-0.010714;0.014459;140.167725;95.167732;0.019279;0.016881;0.002054;-0.026569;-0.00215;0.005437;0.024419;0.507979;0.007491;-0.007491;0.044896
-0.102475;-2.083081;0.633681;-0.777646;0.061981;-0.05674;0.782173;1.271567e-04;0.002417;0.006593;0.680503;-0.052601;-19.010904;1.4695;0.007964;-0.00542;0.006692;135.428162;90.428162;0.008923;0.007774;1.271567e-04;0.014629;-0.001443;0.002417;-0.016072;0.576941;0.002545;-0.002545;0.069167
-0.03531;-2.083081;0.674767;-0.777957;0.061863;-0.053701;0.782258;0.008147;-4.269396e-04;0.013968;0.582019;19.083467;0.052401;1.718156;0.018471;-0.010751;0.014611;119.770905;74.770905;0.019481;0.017066;0.008147;0.030178;-0.002243;-4.269396e-04;-0.03242;0.621066;0.007721;-0.007721;0.029707
0.031855;-2.083081;0.728153;-0.777915;0.061588;-0.052823;0.782135;0.002974;9.187147e-04;0.01007;0.677444;-3.237198;-0.308909;1.476136;0.012069;-0.008176;0.010122;126.754433;81.754433;0.013496;0.01176;0.002974;0.020406;-2.667034e-04;9.187147e-04;-0.020673;0.67533;0.003893;-0.003893;0.025344
0.099021;-2.083081;0.797494;-0.777802;0.061535;-0.055711;0.782218;-0.025302;0.0034;0.005727;5.866252;7.441044;0.13439;0.170467;0.004501;-0.026403;0.015452;20.614384;155.61438;0.020602;0.019278;-0.025302;0.011311;1.427878e-04;0.0034;-0.011168;0.741783;-0.021902;0.021902;0.040453
0.166186;-2.083081;0.841335;-0.777854;0.061643;-0.060413;0.782628;-0.016486;0.002768;-0.002784;5.338058;5.956413;0.167886;0.187334;0.003162;-0.01688;0.010021;71.919525;26.919523;0.013362;0.012442;-0.016486;-0.008087;0.002519;0.002768;0.010606;0.780922;-0.013718;0.013718;0.044955
0.233352;-2.083081;0.852421;-0.777864;0.061948;-0.05993;0.782625;-0.004534;-0.005247;-0.007471;4.779599;-0.864124;-1.157241;0.209223;0.002588;-0.01237;0.007479;122.41613;77.41613;0.009972;0.009231;-0.004534;-0.016708;0.001767;-0.005247;0.018475;0.792491;-0.009782;0.009782;0.036594
0.300517;-2.083081;0.876477;-0.778022;0.061818;-0.062762;0.782993;-0.003265;-0.011795;-0.01316;3.389307;-0.276834;-3.612272;0.295046;0.006303;-0.021364;0.013833;124.518097;79.518097;0.018445;0.016744;-0.003265;-0.022485;-0.003834;-0.011795;0.018651;0.813714;-0.01506;0.01506;0.027471
0.367682;-2.083081;0.902823;-0.778264;0.061329;-0.060745;0.783037;0.007747;-0.009424;-0.016451;1.094649;0.822046;1.216477;0.913535;0.017718;-0.019395;0.018556;147.07933;102.07933;0.024742;0.021434;0.007747;-0.030565;-0.002337;-0.009424;0.028228;0.842078;-0.001677;0.001677;0.020818
0.434848;-2.083081;0.947271;-0.778154;0.061405;-0.056965;0.782649;0.019561;-0.008621;-0.012111;0.545112;2.269055;0.440712;1.834485;0.02405;-0.01311;0.01858;172.250412;127.250412;0.024773;0.021762;0.019561;-0.023746;-4.753947e-04;-0.008621;0.023271;0.890306;0.01094;-0.01094;0.033644
0.502013;-2.083081;0.96278;-0.778149;0.061565;-0.050792;0.782232;0.005241;-1.247612e-04;-0.003998;0.306113;42.005207;0.023807;3.266763;0.007373;-0.002257;0.004815;174.868973;129.868973;0.00642;0.005815;0.005241;-0.006479;-0.001517;-1.247612e-04;0.004962;0.911988;0.005116;-0.005116;0.037963
0.569178;-2.083081;0.962632;-0.778451;0.061015;-0.052367;0.782592;-0.005269;0.00274;0.001088;1.876866;1.923303;0.519939;0.532803;0.002885;-0.005414;0.004149;2.288859;137.288864;0.005532;0.004865;-0.005269;0.004606;-0.00243;0.00274;-0.007036;0.910266;-0.002529;0.002529;0.053572
0.636344;-2.083081;0.954496;-0.778774;0.061156;-0.056301;0.783198;-0.002372;-4.803955e-04;-0.005266;1.727128;-4.938517;-0.20249;0.578996;0.003923;-0.006776;0.00535;118.474327;73.474327;0.007133;0.00625;-0.002372;-0.008648;-0.001883;-4.803955e-04;0.006765;0.898195;-0.002853;0.002853;0.055313
0.703509;-2.083081;0.936846;-0.778202;0.060906;-0.053994;0.782447;-0.010977;0.010136;-0.017931;1.041226;1.082919;0.92343;0.960406;0.020387;-0.021228;0.020808;117.274551;72.274551;0.027743;0.024028;-0.010977;-0.022769;-0.013093;0.010136;0.009676;0.882851;-8.40484e-04;8.40484e-04;0.028176
0.770674;-2.083081;0.916606;-0.778518;0.060453;-0.061963;0.783316;-0.00379;0.008026;-0.015104;0.76897;0.4722;2.117747;1.30044;0.018336;-0.0141;0.016218;132.043701;87.043701;0.021624;0.01878;-0.00379;-0.022767;-0.007441;0.008026;0.015326;0.854643;0.004236;-0.004236;0.004285
0.83784;-2.083081;0.909975;-0.779;0.061356;-0.064077;0.784035;0.017457;-0.025535;-0.007458;1.431676;0.68364;1.462758;0.698482;0.018714;-0.026792;0.022753;164.723663;119.723671;0.030338;0.026411;0.017457;-0.027456;0.01254;-0.025535;0.039996;0.845898;-0.008078;0.008078;0.055927
0.905005;-2.083081;0.886937;-0.778839;0.061756;-0.063939;0.783896;0.012577;-0.00348;-0.009461;0.463487;3.614578;0.276657;2.157558;0.016957;-0.007859;0.012408;164.459641;119.459633;0.016544;0.014645;0.012577;-0.022976;0.004055;-0.00348;0.027031;0.822998;0.009098;-0.009098;0.044648
0.97217;-2.083081;0.875936;-0.778638;0.061451;-0.059877;0.783351;-0.016577;0.004949;-0.002376;3.232875;3.349809;0.298524;0.309322;0.005208;-0.016836;0.011022;51.282475;6.282473;0.014696;0.013304;-0.016577;-0.002388;-0.002364;0.004949;2.347301e-05;0.816059;-0.011628;0.011628;0.03502
1.039336;-2.083081;0.852409;-0.778739;0.061082;-0.050907;0.782788;-0.01117;0.004678;0.001336;2.355346;2.387751;0.418804;0.424566;0.00479;-0.011282;0.008036;16.201283;151.201279;0.010714;0.009528;-0.01117;0.004944;-0.002272;0.004678;-0.007217;0.801502;-0.006492;0.006492;0.034669
1.106501;-2.083081;0.835135;-0.778766;0.061109;-0.053222;0.78297;0.025355;0.002252;0.003722;-0.064292;-11.256361;-0.088839;-15.553942;0.02594;0.001668;0.012136;64.116196;19.116196;0.016181;0.016765;0.025355;0.008848;-0.001405;0.002252;-0.010253;0.781914;0.027607;-0.027607;0.019902
1.173667;-2.083081;0.793123;-0.778907;0.060877;-0.060667;0.783634;0.001396;0.003037;0.013119;0.711439;-0.459692;-2.175368;1.405602;0.015361;-0.010929;0.013145;131.814056;86.814049;0.017527;0.01525;0.001396;0.025753;4.854959e-04;0.003037;-0.025268;0.732456;0.004433;-0.004433;0.005528
1.240832;-2.083081;0.734648;-0.779085;0.061246;-0.053075;0.783289;-0.045435;0.002692;0.014952;7.142042;16.878263;0.059248;0.140016;0.006959;-0.049702;0.028331;13.642981;148.642975;0.037774;0.035681;-0.045435;0.027722;0.002183;0.002692;-0.025539;0.681573;-0.042743;0.042743;0.002446
1.307997;-2.083081;0.679475;-0.779532;0.061377;-0.04522;0.783251;-0.003051;0.002793;0.01206;1.020976;1.092221;0.915565;0.979455;0.01228;-0.012537;0.012409;142.154312;97.15432;0.016545;0.014328;-0.003051;0.02277;0.00135;0.002793;-0.02142;0.634255;-2.575859e-04;2.575859e-04;0.005924
1.375163;-2.083081;0.608374;-0.779615;0.061538;-0.051455;0.783731;0.023584;0.003117;-0.001348;-0.127933;-7.566686;-0.132158;-7.816616;0.023672;0.003028;0.010322;38.700226;173.700226;0.013763;0.014875;0.023584;-0.002539;-1.567533e-04;0.003117;0.002382;0.556918;0.026701;-0.026701;0.038288
1.442328;-2.083081;0.510878;-0.779451;0.061357;-0.054213;0.78374;-5.677455e-04;0.00192;-0.016983;0.923646;0.295774;3.380961;1.082666;0.017704;-0.016352;0.017028;134.033524;89.033524;0.022704;0.019668;-5.677455e-04;-0.034145;1.792798e-04;0.00192;0.034324;0.456665;0.001352;-0.001352;0.051667
1.509493;-2.083081;0.406294;-0.780002;0.061499;-0.054537;0.784321;-0.007532;0.001484;-0.02799;1.238819;5.076138;0.197;0.80722;0.025326;-0.031375;0.02835;127.521614;82.521614;0.037801;0.032798;-0.007532;-0.057725;0.001746;0.001484;0.05947;0.351758;-0.006048;0.006048;0.035456
-0.303971;-2.150246;0.368966;-0.777826;0.062511;-0.039972;0.781357;-0.076423;0.004905;-0.019206;8.763443;15.58111;0.06418;0.11411;0.009212;-0.08073;0.044971;70.477028;25.477026;0.059962;0.057139;-0.076423;-0.036394;-0.002017;0.004905;0.034377;0.328994;-0.071518;0.071518;0.047831
-0.236806;-2.150246;0.491831;-0.777592;0.062208;-0.054204;0.781957;-0.039021;0.003529;-0.006154;9.064249;11.057498;0.090436;0.110324;0.004401;-0.039893;0.022147;58.756607;13.756607;0.02953;0.028177;-0.039021;-0.009726;-0.002583;0.003529;0.007143;0.437627;-0.035492;0.035492;0.016976
-0.169641;-2.150246;0.558437;-0.777662;0.061762;-0.049624;0.781688;-0.008151;0.002729;-0.001749;2.805521;2.986987;0.334786;0.35644;0.003003;-0.008426;0.005714;45.489117;0.489116;0.007619;0.006842;-0.008151;-9.282182e-04;-0.00257;0.002729;-0.001642;0.508813;-0.005422;0.005422;0.004104
-0.102475;-2.150246;0.63091;-0.777826;0.061737;-0.05651;0.782315;-0.027668;0.003487;0.007071;5.820076;7.93426;0.126036;0.171819;0.005017;-0.029198;0.017107;16.725641;151.725647;0.02281;0.021335;-0.027668;0.014666;-5.243123e-04;0.003487;-0.01519;0.574401;-0.024181;0.024181;0.021029
-0.03531;-2.150246;0.710443;-0.77773;0.061639;-0.060822;0.782536;0.006556;-5.261825e-04;0.015311;0.678055;12.460208;0.080255;1.474806;0.01873;-0.0127;0.015715;123.389755;78.389755;0.020954;0.018257;0.006556;0.032072;-0.00145;-5.261825e-04;-0.033522;0.649621;0.00603;-0.00603;0.031337
0.031855;-2.150246;0.762869;-0.77795;0.061304;-0.054118;0.782236;0.014325;-0.003147;0.009873;0.404511;4.552465;0.219661;2.472118;0.018772;-0.007594;0.013183;101.958359;56.958359;0.017577;0.015672;0.014325;0.022093;-0.002347;-0.003147;-0.02444;0.70875;0.011179;-0.011179;0.0529
0.099021;-2.150246;0.78991;-0.778063;0.06144;-0.054152;0.782361;-0.00969;0.001418;0.001822;5.841187;6.835746;0.14629;0.171198;0.001709;-0.009981;0.005845;26.290737;161.290741;0.007793;0.007291;-0.00969;0.003267;3.770133e-04;0.001418;-0.00289;0.735758;-0.008272;0.008272;0.068478
0.166186;-2.150246;0.820293;-0.778046;0.061403;-0.057286;0.782564;-0.002918;-0.001488;-0.004243;3.097591;-1.961327;-0.509859;0.322832;0.0021;-0.006506;0.004303;119.214134;74.214134;0.005738;0.005181;-0.002918;-0.009694;0.001207;-0.001488;0.010901;0.763007;-0.004406;0.004406;0.081413
0.233352;-2.150246;0.837638;-0.777934;0.061621;-0.055807;0.782363;0.00428;-6.078086e-04;-0.005832;0.549936;7.041948;0.142006;1.818392;0.00816;-0.004487;0.006323;152.233414;107.233414;0.008431;0.007404;0.00428;-0.014675;0.003011;-6.078086e-04;0.017686;0.78183;0.003672;-0.003672;0.050246
0.300517;-2.150246;0.849898;-0.778075;0.06173;-0.054422;0.782415;-5.459182e-04;-5.933414e-04;-0.013654;1.087071;-0.920075;-1.086869;0.919904;0.013084;-0.014224;0.013654;133.654388;88.654396;0.018205;0.015771;-5.459182e-04;-0.02534;-0.001968;-5.933414e-04;0.023372;0.795476;-0.001139;0.001139;0.012241
0.367682;-2.150246;0.885095;-0.778123;0.061502;-0.054943;0.782481;8.707024e-04;-0.005116;-0.013784;1.354291;0.170186;5.875911;0.738394;0.011983;-0.016228;0.014106;135.464432;90.464432;0.018808;0.016349;8.707024e-04;-0.024385;-0.003184;-0.005116;0.021202;0.830151;-0.004245;0.004245;0.039548
0.434848;-2.150246;0.91234;-0.778017;0.061349;-0.054554;0.782336;0.00627;-0.002468;-0.001232;0.409586;2.541044;0.393539;2.441492;0.006441;-0.002638;0.004539;37.192459;172.192459;0.006053;0.005393;0.00627;-0.001228;-0.001237;-0.002468;-8.918752e-06;0.857786;0.003803;-0.003803;0.04285
0.502013;-2.150246;0.930034;-0.778294;0.061277;-0.05192;0.782427;-0.00636;0.008923;-9.678679e-05;0.71285;0.71283;1.402859;1.40282;0.008923;-0.006361;0.007642;171.500626;126.500626;0.010189;0.008865;-0.00636;0.003912;-0.004105;0.008923;-0.008017;0.878113;0.002562;-0.002562;0.03083
0.569178;-2.150246;0.971583;-0.778539;0.061119;-0.059174;0.783173;-0.007284;0.004724;-0.006404;1.341455;1.541983;0.648516;0.745459;0.007498;-0.010058;0.008778;97.715576;52.71558;0.011704;0.010172;-0.007284;-0.0085;-0.004308;0.004724;0.004192;0.912409;-0.00256;0.00256;0.036132
0.636344;-2.150246;0.973174;-0.778429;0.061059;-0.060417;0.783154;0.00104;-0.001956;6.517869e-04;1.779059;0.531731;1.880649;0.562095;0.001176;-0.002092;0.001634;114.645294;69.645294;0.002178;0.001911;0.00104;0.0016;-2.96542e-04;-0.001956;-0.001897;0.912758;-9.160301e-04;9.160301e-04;0.061516
0.703509;-2.150246;0.929916;-0.77823;0.06101;-0.058459;0.782804;-9.878036e-04;-0.001367;2.10967e-04;-1.634863;-0.722491;-1.384099;-0.611672;-8.937928e-04;-0.001461;2.837182e-04;128.967117;83.967117;3.782909e-04;8.506259e-04;-9.878036e-04;0.002259;-0.001837;-0.001367;-0.004096;0.871458;-0.002355;0.002355;0.079566
0.770674;-2.150246;0.92065;-0.778719;0.060581;-0.056003;0.783077;-0.005635;0.001351;2.609305e-04;4.14756;4.17023;0.239795;0.241106;0.001361;-0.005645;0.003503;12.28315;147.283157;0.00467;0.004289;-0.005635;0.004151;-0.003629;0.001351;-0.00778;0.864646;-0.004284;0.004284;0.0739
0.83784;-2.150246;0.954098;-0.778921;0.060901;-0.051603;0.783001;0.008676;0.007349;0.007648;-0.021411;-1.180463;-0.847125;-46.70512;0.015689;3.359159e-04;0.007677;91.032921;46.032921;0.010235;0.010349;0.008676;0.008635;0.006661;0.007349;-0.001974;0.902495;0.016025;-0.016025;0.061715
0.905005;-2.150246;0.901809;-0.778691;0.061422;-0.061324;0.783513;8.302478e-04;0.007932;0.009415;0.393323;-0.10467;-9.553814;2.542443;0.014443;-0.005681;0.010062;124.821419;79.821419;0.013416;0.01198;8.302478e-04;0.014451;0.004379;0.007932;-0.010072;0.840485;0.008762;-0.008762;0.045697
0.97217;-2.150246;0.875184;-0.77869;0.061237;-0.058559;0.783287;-0.019934;0.003565;0.005337;4.468237;5.592062;0.178825;0.223802;0.00472;-0.02109;0.012905;8.378344;143.378342;0.017206;0.015869;-0.019934;0.014691;-0.004018;0.003565;-0.01871;0.816625;-0.01637;0.01637;0.034862
1.039336;-2.150246;0.860504;-0.779079;0.060815;-0.051346;0.783134;-0.007362;0.004811;2.159799e-04;1.529679;1.530101;0.653552;0.653732;0.004815;-0.007366;0.006091;17.098635;152.098633;0.008121;0.007084;-0.007362;0.001957;-0.001525;0.004811;-0.003481;0.809158;-0.002551;0.002551;0.015474
1.106501;-2.150246;0.837412;-0.778768;0.060901;-0.051271;0.782826;0.016097;0.003991;-0.003086;-0.193003;-4.032933;-0.247958;-5.181256;0.016838;0.00325;0.006794;25.316881;160.316879;0.009059;0.010314;0.016097;-0.005285;-8.875681e-04;0.003991;0.004398;0.786141;0.020088;-0.020088;0.011436
1.173667;-2.150246;0.807052;-0.778953;0.060603;-0.056402;0.78334;3.86105e-04;0.003007;0.001177;0.018738;-0.128418;-7.787081;53.366276;0.003458;-6.478856e-05;0.001761;125.729088;80.729088;0.002348;0.002327;3.86105e-04;0.00191;4.431932e-04;0.003007;-0.001467;0.75065;0.003393;-0.003393;0.040032
1.240832;-2.150246;0.724693;-0.77922;0.060904;-0.053506;0.783426;-0.034502;0.002957;-0.005487;9.423843;11.666313;0.085717;0.106114;0.003745;-0.035289;0.019517;66.391701;21.391703;0.026023;0.024869;-0.034502;-0.013335;0.002361;0.002957;0.015696;0.671187;-0.031545;0.031545;0.011032
1.307997;-2.150246;0.68064;-0.77934;0.061123;-0.048144;0.783214;0.005209;0.002141;-0.013429;0.572473;-2.433234;-0.410976;1.746807;0.017192;-0.009842;0.013517;145.082779;100.082771;0.018022;0.015799;0.005209;-0.028564;0.001705;0.002141;0.030269;0.632496;0.00735;-0.00735;0.001232
1.375163;-2.150246;0.613951;-0.779346;0.061121;-0.056953;0.783811;0.031509;0.002458;-0.013455;0.076544;-12.816732;-0.078023;13.064425;0.036783;-0.002816;0.019799;4.989712;139.989716;0.026399;0.025512;0.031509;-0.026352;-5.575629e-04;0.002458;0.025794;0.556998;0.033968;-0.033968;0.047657
1.442328;-2.150246;0.529478;-0.779151;0.060873;-0.057989;0.783674;0.011769;0.002489;-0.014512;0.362493;-4.728019;-0.211505;2.758674;0.022365;-0.008107;0.015236;156.567062;111.567055;0.020315;0.018224;0.011769;-0.029523;4.980264e-04;0.002489;0.030021;0.471489;0.014258;-0.014258;0.048859
1.509493;-2.150246;0.403478;-0.779629;0.061323;-0.058334;0.78421;0.010895;0.002937;-0.024215;0.560273;-3.709526;-0.269576;1.784844;0.031455;-0.017624;0.024539;146.996246;101.996246;0.032719;0.028708;0.010895;-0.050649;0.00222;0.002937;0.052869;0.345144;0.013832;-0.013832;0.035738
-0.303971;-2.217412;0.349343;-0.7777;0.061955;-0.040124;0.781196;-0.090567;0.008694;0.032378;5.468814;10.417674;0.095991;0.182855;0.018321;-0.100195;0.059258;9.100373;144.100372;0.07901;0.073667;-0.090567;0.06515;-3.949721e-04;0.008694;-0.065545;0.309219;-0.081873;0.081873;0.069222
-0.236806;-2.217412;0.484757;-0.777485;0.062047;-0.057896;0.782103;-0.040896;0.004907;0.020196;3.869882;8.333545;0.119997;0.258406;0.01254;-0.048529;0.030535;179.376099;134.376099;0.040713;0.037243;-0.040896;0.04152;-0.001129;0.004907;-0.042649;0.426861;-0.035989;0.035989;0.029355
-0.169641;-2.217412;0.570395;-0.777829;0.061725;-0.053971;0.782139;-3.507264e-04;8.062911e-04;0.008487;0.947843;0.434987;2.298918;1.055027;0.008734;-0.008279;0.008507;136.364105;91.364113;0.011342;0.009824;-3.507264e-04;0.019628;-0.002654;8.062911e-04;-0.022282;0.516424;4.555647e-04;-4.555647e-04;0.027292
-0.102475;-2.217412;0.623685;-0.778;0.061469;-0.059397;0.782681;-0.026019;0.002138;-0.002551;11.085593;12.16713;0.082189;0.090207;0.002368;-0.026248;0.014308;52.02565;7.025651;0.019077;0.018339;-0.026019;-0.00334;-0.001763;0.002138;0.001578;0.564288;-0.02388;0.02388;0.045278
-0.03531;-2.217412;0.702164;-0.777641;0.061347;-0.061713;0.782494;-0.001587;0.002322;-0.003315;0.825597;0.683371;1.463335;1.211245;0.004216;-0.00348;0.003848;124.534172;79.534172;0.005131;0.00445;-0.001587;-0.00549;-0.00114;0.002322;0.00435;0.640451;7.352166e-04;-7.352166e-04;0.029247
0.031855;-2.217412;0.771164;-0.77763;0.061292;-0.058839;0.782258;0.012296;0.001847;0.007634;0.133466;-6.655822;-0.150244;7.492546;0.016322;-0.002178;0.00925;95.875854;50.875854;0.012334;0.011676;0.012296;0.014992;2.749923e-04;0.001847;-0.014718;0.712325;0.014144;-0.014144;0.003307
0.099021;-2.217412;0.782788;-0.777825;0.061505;-0.057167;0.782345;0.00432;4.33922e-05;0.002611;0.214711;-99.547668;-0.010045;4.657428;0.005556;-0.001193;0.003374;95.316849;50.316853;0.004499;0.004159;0.00432;0.005206;1.522864e-05;4.33922e-05;-0.005191;0.725622;0.004363;-0.004363;0.026449
0.166186;-2.217412;0.805852;-0.777995;0.061377;-0.056141;0.782429;0.004109;0.001874;-0.002481;-0.047226;-2.193013;-0.455994;-21.17469;0.005712;2.697766e-04;0.002721;176.309113;131.309113;0.003628;0.003722;0.004109;-0.004323;-6.390447e-04;0.001874;0.003684;0.749711;0.005982;-0.005982;0.048784
0.233352;-2.217412;0.845533;-0.77783;0.061387;-0.054143;0.782125;0.007749;0.002902;-0.001016;-0.339198;-2.66994;-0.37454;-2.948134;0.007953;0.002698;0.002628;34.475689;169.475693;0.003504;0.00467;0.007749;-8.578531e-04;-0.001175;0.002902;-3.169989e-04;0.79139;0.010651;-0.010651;0.028595
0.300517;-2.217412;0.865279;-0.778115;0.061426;-0.050011;0.782137;-3.361015e-04;0.001434;0.001909;0.586197;0.234406;4.2661;1.705911;0.002653;-0.001555;0.002104;142.123413;97.123413;0.002805;0.002457;-3.361015e-04;0.004834;-0.001016;0.001434;-0.00585;0.815268;0.001098;-0.001098;0.023573
0.367682;-2.217412;0.889187;-0.778225;0.061399;-0.052234;0.782389;-0.006565;0.002113;0.004402;2.125746;3.107421;0.32181;0.470423;0.003955;-0.008407;0.006181;168.315369;123.315369;0.008242;0.00729;-0.006565;0.009899;-0.001094;0.002113;-0.010994;0.836952;-0.004452;0.004452;0.028137
0.434848;-2.217412;0.906601;-0.778123;0.061254;-0.053976;0.782394;-0.008316;0.005793;0.007226;1.285391;1.43534;0.696699;0.777973;0.008838;-0.01136;0.010099;160.695251;115.695244;0.013465;0.011691;-0.008316;0.017382;-0.00293;0.005793;-0.020312;0.852625;-0.002522;0.002522;0.0271
0.502013;-2.217412;0.921794;-0.778188;0.061111;-0.057042;0.782665;-0.005931;0.009797;0.007392;0.69618;0.605366;1.651893;1.436411;0.012726;-0.00886;0.010793;153.594528;108.594521;0.01439;0.012529;-0.005931;0.01884;-0.004056;0.009797;-0.022896;0.864752;0.003866;-0.003866;0.020103
0.569178;-2.217412;0.91266;-0.778528;0.061184;-0.055381;0.78289;-0.00202;0.00674;0.003083;0.388228;0.299635;3.337394;2.575806;0.007716;-0.002996;0.005356;144.846466;99.846466;0.007141;0.006381;-0.00202;0.006432;-2.671877e-04;0.00674;-0.0067;0.857279;0.00472;-0.00472;0.009116
0.636344;-2.217412;0.921031;-0.778683;0.06112;-0.053816;0.78293;-0.001103;-0.008423;0.005569;6.012677;-0.13099;-7.634171;0.166315;0.0019;-0.011427;0.006664;129.433914;84.433922;0.008885;0.008324;-0.001103;0.017251;-0.006114;-0.008423;-0.023365;0.867215;-0.009526;0.009526;0.001596
0.703509;-2.217412;0.923869;-0.778649;0.061013;-0.055563;0.78301;-0.001248;-0.00339;9.949543e-04;-4.411036;-0.368115;-2.716543;-0.226704;-8.571692e-04;-0.003781;0.001462;120.912041;75.912041;0.001949;0.002289;-0.001248;0.007755;-0.005765;-0.00339;-0.01352;0.868306;-0.004638;0.004638;0.029114
0.770674;-2.217412;0.929313;-0.778923;0.060744;-0.058024;0.78344;-0.010803;0.002445;9.446866e-06;4.417634;4.417643;0.226365;0.226366;0.002445;-0.010803;0.006624;41.864632;176.864624;0.008832;0.00814;-0.010803;4.625814e-04;-4.436876e-04;0.002445;-9.06269e-04;0.871289;-0.008357;0.008357;0.056045
0.83784;-2.217412;0.951536;-0.77862;0.060708;-0.063831;0.783587;0.007666;-0.001162;-0.002254;0.207643;6.596426;0.151597;4.815968;0.008208;-0.001704;0.004956;7.661847;142.66185;0.006608;0.00612;0.007666;-0.005818;0.00131;-0.001162;0.007128;0.887705;0.006504;-0.006504;0.042138
0.905005;-2.217412;0.887929;-0.77853;0.060882;-0.059424;0.783165;-0.028726;0.004812;0.004431;5.438214;5.96911;0.167529;0.183884;0.005388;-0.029301;0.017345;26.438063;161.438065;0.023126;0.021556;-0.028726;0.00934;-4.774671e-04;0.004812;-0.009818;0.828504;-0.023913;0.023913;0.041376
0.97217;-2.217412;0.860658;-0.778666;0.060709;-0.04897;0.782563;-0.013473;0.004363;0.001733;3.011094;3.088028;0.323831;0.332105;0.00453;-0.01364;0.009085;15.397861;150.397858;0.012114;0.010921;-0.013473;0.006829;-0.003362;0.004363;-0.010191;0.811688;-0.00911;0.00911;0.031782
1.039336;-2.217412;0.845866;-0.779051;0.060437;-0.053936;0.783251;0.009067;0.004723;-0.007027;0.032281;-1.919706;-0.520913;30.978016;0.01425;-4.600181e-04;0.007355;168.710892;123.710899;0.009807;0.009657;0.009067;-0.012763;-0.001292;0.004723;0.011471;0.79193;0.01379;-0.01379;0.035667
1.106501;-2.217412;0.830776;-0.77864;0.060527;-0.056432;0.783025;0.008189;0.009378;-0.011428;0.131522;-0.87317;-1.145252;7.603292;0.020227;-0.00266;0.011444;150.137878;105.137878;0.015258;0.014453;0.008189;-0.024823;0.001966;0.009378;0.026789;0.774344;0.017567;-0.017567;0.022022
1.173667;-2.217412;0.80418;-0.778878;0.060628;-0.057173;0.783323;-0.007427;0.003588;-0.006342;1.592382;2.069941;0.483106;0.62799;0.00648;-0.010319;0.0084;106.326942;61.326946;0.011199;0.009783;-0.007427;-0.012873;1.889359e-04;0.003588;0.013062;0.747007;-0.003839;0.003839;0.098776
1.240832;-2.217412;0.744004;-0.779046;0.060643;-0.056155;0.783418;-0.025126;0.00251;-4.365978e-04;9.986266;10.010956;0.099891;0.100138;0.002517;-0.025133;0.013825;49.583298;4.583297;0.018433;0.017654;-0.025126;-0.001897;0.001023;0.00251;0.00292;0.687849;-0.022616;0.022616;0.052509
1.307997;-2.217412;0.696643;-0.779086;0.06081;-0.052583;0.783223;-0.003626;0.005248;0.00536;0.791253;0.69095;1.447282;1.263819;0.007769;-0.006148;0.006958;149.127106;104.127106;0.009278;0.008053;-0.003626;0.009396;0.001324;0.005248;-0.008072;0.64406;0.001622;-0.001622;0.027756
1.375163;-2.217412;0.626783;-0.779233;0.060897;-0.054645;0.783517;0.024051;0.005768;0.012773;0.026035;-4.169478;-0.239838;38.409748;0.030617;-7.971165e-04;0.015707;93.072845;48.072849;0.020943;0.020682;0.024051;0.026074;-5.287217e-04;0.005768;-0.026603;0.572137;0.02982;-0.02982;0.047328
1.442328;-2.217412;0.553676;-0.779107;0.060782;-0.056955;0.783547;0.02081;0.001959;0.010801;0.11474;-10.623322;-0.094133;8.71532;0.02572;-0.002951;0.014335;88.919411;43.919411;0.019114;0.01821;0.02081;0.020003;0.001599;0.001959;-0.018403;0.496721;0.022769;-0.022769;0.015603
1.509493;-2.217412;0.403187;-0.779388;0.061027;-0.063738;0.784368;0.020049;4.177304e-04;0.011493;0.192563;-47.994843;-0.020836;5.193106;0.025348;-0.004881;0.015114;90.55394;45.553944;0.020152;0.018739;0.020049;0.020581;0.002406;4.177304e-04;-0.018175;0.33945;0.020467;-0.020467;0.053516
-0.303971;-2.284577;0.342255;-0.777734;0.061858;-0.049839;0.781781;-0.056861;0.00222;0.029387;4.808271;25.613079;0.039043;0.207975;0.014348;-0.068988;0.041668;178.916595;133.916595;0.055558;0.051446;-0.056861;0.05901;-2.357134e-04;0.00222;-0.059246;0.292416;-0.054641;0.054641;0.071413
-0.236806;-2.284577;0.472821;-0.777236;0.061778;-0.060007;0.781993;-0.018203;0.002636;-3.897572e-04;6.890202;6.906487;0.144791;0.145134;0.002643;-0.01821;0.010427;45.759705;0.759705;0.013902;0.01311;-0.018203;-3.051386e-04;-4.743759e-04;0.002636;-1.692373e-04;0.412814;-0.015567;0.015567;0.0384
-0.169641;-2.284577;0.575673;-0.777522;0.06174;-0.054643;0.781881;0.009242;6.775896e-04;-0.015989;0.538878;-13.639645;-0.073316;1.855707;0.021512;-0.011592;0.016552;152.308167;107.308159;0.02207;0.019397;0.009242;-0.0299;-0.002077;6.775896e-04;0.027823;0.52103;0.00992;-0.00992;0.042697
-0.102475;-2.284577;0.640769;-0.77786;0.061401;-0.054908;0.782209;-0.013947;0.002309;-0.019219;1.773459;6.041417;0.165524;0.56387;0.015047;-0.026686;0.020867;114.342201;69.342201;0.027822;0.024405;-0.013947;-0.036721;-0.001716;0.002309;0.035004;0.585861;-0.011639;0.011639;0.051245
-0.03531;-2.284577;0.693005;-0.777912;0.061235;-0.056672;0.782374;-0.012946;0.002559;-0.019289;1.666036;5.058912;0.197671;0.600227;0.015595;-0.025982;0.020789;116.521446;71.521446;0.027718;0.024253;-0.012946;-0.038589;1.072892e-05;0.002559;0.0386;0.636333;-0.010387;0.010387;0.036412
0.031855;-2.284577;0.759896;-0.777744;0.061222;-0.060985;0.78253;-0.002122;0.002881;-0.009604;0.926288;0.736407;1.357945;1.079578;0.010304;-0.009544;0.009924;128.873047;83.873047;0.013232;0.011462;-0.002122;-0.018871;-3.3616e-04;0.002881;0.018535;0.698911;7.595157e-04;-7.595157e-04;0.004157
0.099021;-2.284577;0.801341;-0.777688;0.061324;-0.057869;0.782245;0.01172;0.004171;-0.003951;-0.185002;-2.809912;-0.355883;-5.405334;0.01341;0.002481;0.005464;11.80401;146.804016;0.007286;0.008238;0.01172;-0.006856;-0.001047;0.004171;0.005809;0.743472;0.01589;-0.01589;0.009777
0.166186;-2.284577;0.826252;-0.778023;0.061317;-0.053317;0.782255;0.001693;0.002789;-8.8618e-04;-0.365214;-0.60696;-1.647554;-2.738117;0.003283;0.001199;0.001042;163.478546;118.478546;0.001389;0.001918;0.001693;-9.372597e-04;-8.351004e-04;0.002789;1.021593e-04;0.772935;0.004482;-0.004482;0.025257
0.233352;-2.284577;0.855523;-0.778132;0.061218;-0.056239;0.78256;-0.00341;-5.804409e-05;0.005504;1.862808;-58.751198;-0.017021;0.536824;0.00402;-0.007488;0.005754;152.462402;107.462402;0.007672;0.006744;-0.00341;0.010845;1.637969e-04;-5.804409e-05;-0.010681;0.799285;-0.003468;0.003468;0.028337
0.300517;-2.284577;0.892449;-0.77815;0.06105;-0.056473;0.782582;-7.066345e-04;0.001317;0.004548;0.877119;0.536709;1.863205;1.140096;0.004964;-0.004354;0.004659;139.521179;94.521172;0.006212;0.005383;-7.066345e-04;0.009536;-4.408039e-04;0.001317;-0.009977;0.835976;6.099707e-04;-6.099707e-04;0.035282
0.367682;-2.284577;0.891595;-0.778183;0.060943;-0.058418;0.782749;-0.003901;0.004757;0.001584;0.830157;0.820132;1.219316;1.204592;0.005038;-0.004182;0.00461;165.470993;120.470993;0.006147;0.005331;-0.003901;0.004298;-0.00113;0.004757;-0.005428;0.833177;8.556486e-04;-8.556486e-04;0.031097
0.434848;-2.284577;0.903054;-0.778091;0.061002;-0.062138;0.782949;-0.019363;0.002954;0.004119;5.446949;6.554973;0.152556;0.183589;0.00369;-0.020099;0.011894;20.64538;155.645386;0.015859;0.014783;-0.019363;0.008564;-3.2583e-04;0.002954;-0.00889;0.840916;-0.016409;0.016409;0.02724
0.502013;-2.284577;0.937644;-0.778326;0.060904;-0.068036;0.783664;-0.005387;-0.002942;0.00471;12.880023;-1.831077;-0.546127;0.07764;7.011129e-04;-0.00903;0.004866;159.764236;114.764244;0.006488;0.006267;-0.005387;0.010663;-0.001243;-0.002942;-0.011906;0.869608;-0.008329;0.008329;0.01891
0.569178;-2.284577;0.936812;-0.778692;0.060875;-0.0604;0.783399;-0.006416;-0.004456;-0.006857;8.290724;-1.440043;-0.694424;0.120617;0.001491;-0.012363;0.006927;103.049416;58.049419;0.009236;0.008781;-0.006416;-0.010556;-0.003158;-0.004456;0.007398;0.876412;-0.010872;0.010872;0.018283
0.636344;-2.284577;0.919606;-0.778804;0.060847;-0.056429;0.783212;-0.001507;-8.363062e-04;-0.0069;1.408527;-1.802299;-0.554847;0.709962;0.005737;-0.00808;0.006908;120.043755;75.043755;0.009211;0.008015;-0.001507;-0.009187;-0.004613;-8.363062e-04;0.004574;0.863178;-0.002344;0.002344;0.035725
0.703509;-2.284577;0.917765;-0.778814;0.060667;-0.046988;0.782585;-1.906303e-04;0.00307;-0.001906;0.270691;0.062105;16.101856;3.694256;0.003947;-0.001069;0.002508;0.559707;135.559708;0.003344;0.003051;-1.906303e-04;-6.253828e-04;-0.003187;0.00307;-0.002561;0.870776;0.002879;-0.002879;0.003411
0.770674;-2.284577;0.940565;-0.778969;0.060602;-0.052248;0.783068;-0.018391;0.003836;0.004372;4.120311;4.794767;0.208561;0.2427;0.004665;-0.01922;0.011943;18.770138;153.770142;0.015924;0.014619;-0.018391;0.008742;1.836877e-06;0.003836;-0.008741;0.888318;-0.014556;0.014556;0.01372
0.83784;-2.284577;0.97251;-0.778567;0.060734;-0.061417;0.783344;-8.411598e-04;0.005138;0.004202;0.411832;0.163727;6.107725;2.428173;0.007305;-0.003008;0.005157;118.909492;73.909492;0.006875;0.006124;-8.411598e-04;0.005087;0.003317;0.005138;-0.00177;0.911093;0.004296;-0.004296;0.015645
0.905005;-2.284577;0.90474;-0.778414;0.060832;-0.055118;0.782731;-0.035538;0.008006;0.00607;4.115557;4.438674;0.225292;0.24298;0.008837;-0.036368;0.022602;25.860327;160.860321;0.030136;0.027665;-0.035538;0.011829;3.116139e-04;0.008006;-0.011517;0.849622;-0.027531;0.027531;0.027828
0.97217;-2.284577;0.877438;-0.778513;0.060607;-0.051169;0.782543;0.002715;-2.358249e-05;-5.501499e-04;0.046064;115.129784;0.008686;21.70886;0.002821;-1.299668e-04;0.001476;49.337212;4.33721;0.001968;0.001926;0.002715;2.445482e-04;-0.001345;-2.358249e-05;-0.001589;0.826269;0.002691;-0.002691;0.012154
1.039336;-2.284577;0.854163;-0.778876;0.060535;-0.058681;0.783425;0.019699;-0.004113;-9.655255e-04;0.210355;4.789545;0.208788;4.753871;0.019738;-0.004152;0.011945;38.284397;173.284393;0.015927;0.014739;0.019699;-0.002171;2.401984e-04;-0.004113;0.002411;0.795482;0.015586;-0.015586;0.018343
1.106501;-2.284577;0.820042;-0.77899;0.0606;-0.061114;0.78373;1.722283e-04;0.001046;-9.670721e-04;0.270518;-0.164583;-6.075956;3.696608;0.001671;-4.519306e-04;0.001061;130.736572;85.736565;0.001415;0.001291;1.722283e-04;-0.003121;0.001187;0.001046;0.004308;0.758927;0.001219;-0.001219;0.032383
1.173667;-2.284577;0.768332;-0.779048;0.060776;-0.058662;0.783614;-0.01748;0.001413;0.003323;9.113696;12.372254;0.080826;0.109725;0.00198;-0.018047;0.010014;24.669174;159.669174;0.013351;0.012743;-0.01748;0.006452;1.937882e-04;0.001413;-0.006258;0.70967;-0.016067;0.016067;0.082735
1.240832;-2.284577;0.749292;-0.7792;0.060451;-0.052924;0.783331;-0.026815;0.002756;0.004398;8.084836;9.730878;0.102766;0.123688;0.003396;-0.027455;0.015426;24.222656;159.222656;0.020568;0.019534;-0.026815;0.010005;-0.001209;0.002756;-0.011214;0.696368;-0.024059;0.024059;0.041693
1.307997;-2.284577;0.703076;-0.779404;0.060446;-0.048416;0.783243;-0.009258;0.004731;0.007867;1.547969;1.95715;0.510947;0.646008;0.008263;-0.012791;0.010527;165.210861;120.210869;0.014036;0.012249;-0.009258;0.014524;0.00121;0.004731;-0.013314;0.654661;-0.004528;0.004528;0.011533
1.375163;-2.284577;0.642054;-0.779388;0.060823;-0.048785;0.783278;0.030491;0.002861;0.002644;-0.084902;-10.658559;-0.093821;-11.778229;0.030742;0.00261;0.014066;52.609612;7.609612;0.018754;0.019682;0.030491;0.003923;0.001365;0.002861;-0.002558;0.59327;0.033352;-0.033352;0.029508
1.442328;-2.284577;0.583548;-0.779199;0.060885;-0.056308;0.7836;0.011406;0.002068;0.005517;0.035105;-5.515615;-0.181303;28.485802;0.013965;-4.902284e-04;0.007227;84.804161;39.804161;0.009637;0.009477;0.011406;0.009383;0.00165;0.002068;-0.007733;0.52724;0.013474;-0.013474;0.019615
1.509493;-2.284577;0.429707;-0.779966;0.061284;-0.054167;0.784242;-0.007134;0.002259;0.029533;1.177507;3.158572;0.316599;0.849252;0.027466;-0.032342;0.029904;142.055817;97.055817;0.039872;0.034568;-0.007134;0.056977;0.002089;0.002259;-0.054888;0.37554;-0.004875;0.004875;0.160896
-0.303971;-2.351742;0.363246;-0.778102;0.061812;-0.05495;0.782486;0.004099;0.001622;0.023439;0.782738;-2.526316;-0.395833;1.277566;0.026332;-0.020611;0.023471;130.222412;85.222412;0.031295;0.027169;0.004099;0.048422;-0.001545;0.001622;-0.049968;0.308296;0.005721;-0.005721;0.039811
-0.236806;-2.351742;0.46174;-0.777282;0.061572;-0.05342;0.781545;0.012777;0.003418;-0.002848;-0.192939;-3.738103;-0.267515;-5.182977;0.013576;0.002619;0.005478;22.883156;157.883148;0.007304;0.008316;0.012777;-0.004704;-9.931208e-04;0.003418;0.003711;0.40832;0.016195;-0.016195;0.04103
-0.169641;-2.351742;0.549996;-0.777521;0.061576;-0.049664;0.781535;0.006262;0.002804;-0.009217;0.348247;-2.23329;-0.44777;2.871524;0.013911;-0.004844;0.009378;156.745728;111.745728;0.012503;0.011242;0.006262;-0.016233;-0.0022;0.002804;0.014033;0.500332;0.009066;-0.009066;0.051641
-0.102475;-2.351742;0.633258;-0.777763;0.061224;-0.052336;0.781923;-0.006884;0.002333;-0.009825;1.53057;2.95044;0.338932;0.653351;0.008577;-0.013128;0.010852;114.146538;69.146538;0.01447;0.012623;-0.006884;-0.017468;-0.002182;0.002333;0.015286;0.580922;-0.004551;0.004551;0.025833
-0.03531;-2.351742;0.704745;-0.777839;0.061221;-0.052698;0.782022;-0.007662;0.002957;-0.016839;1.307439;2.590956;0.385958;0.764854;0.015304;-0.020009;0.017656;122.136848;77.136848;0.023542;0.020448;-0.007662;-0.033114;-5.635222e-04;0.002957;0.032551;0.652048;-0.004705;0.004705;0.016449
0.031855;-2.351742;0.767351;-0.777678;0.061138;-0.054747;0.781996;-0.010368;0.00354;-0.019267;1.399999;2.928576;0.341463;0.714286;0.01707;-0.023898;0.020484;119.683533;74.683533;0.027312;0.023762;-0.010368;-0.037187;-0.001347;0.00354;0.03584;0.712605;-0.006828;0.006828;0.019855
0.099021;-2.351742;0.811142;-0.777697;0.060945;-0.057001;0.782161;9.611969e-04;0.002783;-0.009325;0.666923;-0.345367;-2.895473;1.499424;0.011242;-0.007497;0.009369;138.392014;93.392014;0.012493;0.010891;9.611969e-04;-0.017866;-7.840607e-04;0.002783;0.017082;0.754141;0.003744;-0.003744;0.007666
0.166186;-2.351742;0.839964;-0.77805;0.061003;-0.054952;0.78237;-0.002848;0.004398;-0.004046;0.750177;0.647464;1.544488;1.333019;0.006207;-0.004656;0.005431;120.011887;75.011887;0.007242;0.006293;-0.002848;-0.007737;-3.55963e-04;0.004398;0.007381;0.785012;0.001551;-0.001551;0.001229
0.233352;-2.351742;0.87378;-0.77822;0.060884;-0.057561;0.782717;-0.007862;0.004633;-0.003761;1.56863;1.696836;0.589332;0.637499;0.005678;-0.008906;0.007292;87.48539;42.48539;0.009723;0.008489;-0.007862;-0.005976;-0.001545;0.004633;0.004431;0.81622;-0.003229;0.003229;0.030199
0.300517;-2.351742;0.881907;-0.778143;0.060698;-0.057877;0.78265;0.001442;0.00238;-0.001927;0.018661;-0.605578;-1.651314;53.587032;0.003895;-7.267967e-05;0.001984;164.087158;119.087158;0.002645;0.002621;0.001442;-0.002553;-0.001301;0.00238;0.001252;0.82403;0.003822;-0.003822;0.036435
0.367682;-2.351742;0.888398;-0.778123;0.060619;-0.054044;0.78235;9.449935e-04;0.00256;-0.002688;0.2312;-0.369207;-2.708511;4.325263;0.004558;-0.001054;0.002806;142.343628;97.343628;0.003742;0.003444;9.449935e-04;-0.005558;1.824291e-04;0.00256;0.00574;0.834354;0.003505;-0.003505;0.044581
0.434848;-2.351742;0.910434;-0.778124;0.060812;-0.055238;0.782449;-0.023231;0.007507;-0.008436;2.625994;3.094494;0.323155;0.380808;0.00967;-0.025394;0.017532;82.858414;37.858418;0.023376;0.020912;-0.023231;-0.016854;-1.862429e-05;0.007507;0.016835;0.855196;-0.015724;0.015724;0.053009
0.502013;-2.351742;0.949138;-0.778432;0.060709;-0.06391;0.783406;-0.010738;0.009516;-0.006149;1.108773;1.128444;0.886176;0.901898;0.011236;-0.012459;0.011848;102.231125;57.231125;0.015797;0.013686;-0.010738;-0.01127;-0.001029;0.009516;0.010241;0.885229;-0.001222;0.001222;0.066596
0.569178;-2.351742;0.947148;-0.778623;0.060631;-0.06079;0.783342;-0.004927;0.00579;-0.001806;0.85822;0.850966;1.175135;1.165202;0.006086;-0.005223;0.005654;110.334724;65.334724;0.007539;0.006536;-0.004927;-0.002872;-7.405648e-04;0.00579;0.002131;0.886357;8.628538e-04;-8.628538e-04;0.038313
0.636344;-2.351742;0.942;-0.778682;0.060618;-0.058857;0.783253;-0.002554;0.001787;-0.003331;1.213324;1.428751;0.699912;0.824182;0.003592;-0.004359;0.003976;115.194603;70.194603;0.005301;0.004598;-0.002554;-0.006684;2.217066e-05;0.001787;0.006706;0.883144;-7.663407e-04;7.663407e-04;0.006607
0.703509;-2.351742;0.9502;-0.778636;0.060578;-0.052303;0.782738;-0.001247;0.002908;0.001041;0.473444;0.428844;2.331853;2.11218;0.003154;-0.001493;0.002324;151.775909;106.775917;0.003098;0.00274;-0.001247;0.002489;-4.070879e-04;0.002908;-0.002896;0.897898;0.001661;-0.001661;0.016669
0.770674;-2.351742;0.953483;-0.778737;0.060487;-0.05851;0.783271;-0.005992;0.01;-0.002119;0.609949;0.599181;1.668945;1.639481;0.010276;-0.006268;0.008272;121.994064;76.994064;0.011029;0.009645;-0.005992;-0.003853;-3.85909e-04;0.01;0.003467;0.894973;0.004008;-0.004008;0.018085
0.83784;-2.351742;0.957783;-0.778674;0.060507;-0.060036;0.783326;-0.012281;6.022591e-04;0.008091;3.593622;20.391298;0.049041;0.278271;0.004503;-0.016181;0.010342;172.820923;127.820923;0.013789;0.012561;-0.012281;0.015807;3.750402e-04;6.022591e-04;-0.015432;0.897746;-0.011679;0.011679;0.003237
0.905005;-2.351742;0.912397;-0.778847;0.060479;-0.050856;0.782845;-0.02155;0.001102;0.007464;7.121324;19.553288;0.051142;0.140423;0.00334;-0.023788;0.013564;7.413638;142.413635;0.018086;0.017082;-0.02155;0.016601;-0.001673;0.001102;-0.018274;0.861541;-0.020448;0.020448;0.011099
0.97217;-2.351742;0.895134;-0.77878;0.060283;-0.053174;0.782918;0.011646;0.002611;4.348771e-04;-0.221979;-4.460896;-0.22417;-4.504926;0.011667;0.00259;0.004539;52.962234;7.962233;0.006052;0.007075;0.011646;0.001747;-8.768307e-04;0.002611;-0.002623;0.841959;0.014257;-0.014257;0.023533
1.039336;-2.351742;0.885317;-0.778754;0.06037;-0.058277;0.783262;0.011618;0.003383;0.004636;-0.094892;-3.43384;-0.291219;-10.538327;0.013701;0.0013;0.006201;84.515282;39.515282;0.008267;0.008733;0.011618;0.009079;1.936347e-04;0.003383;-0.008885;0.82704;0.015001;-0.015001;0.034678
1.106501;-2.351742;0.833058;-0.779195;0.060372;-0.057334;0.78363;-0.005905;0.005944;0.007498;0.995949;0.993475;1.006568;1.004067;0.009576;-0.009537;0.009556;154.077042;109.077042;0.012742;0.011035;-0.005905;0.014427;5.688792e-04;0.005944;-0.013858;0.775724;3.878828e-05;-3.878828e-05;0.017955
1.173667;-2.351742;0.76697;-0.779297;0.060402;-0.056366;0.783664;-0.013514;0.004639;0.001597;2.857168;2.912967;0.343293;0.349997;0.004779;-0.013654;0.009216;28.471973;163.47197;0.012288;0.011046;-0.013514;0.003488;-2.939306e-04;0.004639;-0.003782;0.710605;-0.008875;0.008875;0.007452
1.240832;-2.351742;0.757588;-0.779505;0.060363;-0.054001;0.783702;-0.022409;9.866317e-04;-0.005466;10.73507;22.712412;0.044029;0.093153;0.002201;-0.023623;0.012912;69.364708;24.364708;0.017215;0.016531;-0.022409;-0.010164;-7.66953e-04;9.866317e-04;0.009397;0.703587;-0.021422;0.021422;0.012366
1.307997;-2.351742;0.713933;-0.77956;0.060277;-0.049055;0.783424;-0.00212;0.00116;-0.010393;1.095641;1.828137;0.547005;0.912708;0.010041;-0.011001;0.010521;129.298141;84.298141;0.014028;0.012153;-0.00212;-0.021674;8.885987e-04;0.00116;0.022562;0.664878;-9.603319e-04;9.603319e-04;0.013586
1.375163;-2.351742;0.651821;-0.779317;0.060495;-0.053931;0.78352;0.029554;0.004358;-0.014355;0.059437;-6.781802;-0.147453;16.824615;0.036055;-0.002143;0.019099;0.118726;135.118729;0.025465;0.024782;0.029554;-0.029112;4.02418e-04;0.004358;0.029514;0.59789;0.033912;-0.033912;0.039367
1.442328;-2.351742;0.563852;-0.779294;0.060415;-0.059567;0.783899;-0.004099;0.006991;-0.00579;0.694407;0.586356;1.705448;1.440077;0.009463;-0.006571;0.008017;118.641457;73.641457;0.01069;0.009308;-0.004099;-0.013197;0.001617;0.006991;0.014815;0.504286;0.002892;-0.002892;0.044929
1.509493;-2.351742;0.439982;-0.780411;0.060973;-0.051676;0.784493;-0.026776;0.008269;-0.008055;2.844852;3.238157;0.308818;0.351512;0.010032;-0.028539;0.019285;82.695518;37.695515;0.025714;0.023108;-0.026776;-0.019362;0.003251;0.008269;0.022613;0.388306;-0.018507;0.018507;0.154105
-0.303971;-2.418908;0.368261;-0.778256;0.061437;-0.062544;0.783178;0.051569;0.002882;0.033165;0.203538;-17.896362;-0.055877;4.913091;0.068365;-0.013915;0.04114;97.520744;52.520748;0.054853;0.050854;0.051569;0.067173;-8.435211e-04;0.002882;-0.068016;0.305717;0.05445;-0.05445;0.030152
-0.236806;-2.418908;0.476059;-0.777582;0.061358;-0.053625;0.78184;0.029458;0.002643;0.0212;0.219627;-11.147444;-0.089707;4.553166;0.041134;-0.009034;0.025084;101.188766;56.188766;0.033446;0.030878;0.029458;0.043858;-0.001457;0.002643;-0.045316;0.422434;0.0321;-0.0321;0.04627
-0.169641;-2.418908;0.546544;-0.777668;0.06111;-0.053066;0.781868;0.007932;0.005301;0.017504;0.452504;-1.496496;-0.668228;2.209925;0.02417;-0.010937;0.017553;123.71492;78.71492;0.023404;0.020743;0.007932;0.037544;-0.002536;0.005301;-0.04008;0.493478;0.013233;-0.013233;0.056809
-0.102475;-2.418908;0.613993;-0.777888;0.060874;-0.051789;0.781983;0.006645;0.005212;0.006649;0.060166;-1.274946;-0.784347;16.620758;0.012616;-7.59026e-04;0.006687;113.10656;68.10656;0.008916;0.008674;0.006645;0.014337;-0.001039;0.005212;-0.015376;0.562203;0.011857;-0.011857;0.034423
-0.03531;-2.418908;0.700395;-0.777951;0.060924;-0.050751;0.781981;0.001466;0.004527;-0.001277;-0.201007;-0.323762;-3.088693;-4.97495;0.00499;0.001003;0.001993;146.311615;101.311607;0.002658;0.003048;0.001466;-0.002205;-3.486882e-04;0.004527;0.001857;0.649644;0.005993;-0.005993;0.034584
0.031855;-2.418908;0.757034;-0.77784;0.060831;-0.050039;0.781818;-0.0093;0.004078;-0.003294;2.078032;2.280789;0.438445;0.481225;0.004845;-0.010067;0.007456;79.39814;34.39814;0.009941;0.008783;-0.0093;-0.005693;-8.940344e-04;0.004078;0.004799;0.706995;-0.005223;0.005223;0.035808
0.099021;-2.418908;0.788718;-0.777955;0.060753;-0.052664;0.782099;-0.007726;0.002475;-0.002627;2.687122;3.121233;0.320386;0.372145;0.003112;-0.008363;0.005737;78.481628;33.481625;0.00765;0.006852;-0.007726;-0.004808;-4.469687e-04;0.002475;0.004361;0.736053;-0.005251;0.005251;0.027139
0.166186;-2.418908;0.828056;-0.778219;0.060784;-0.052258;0.782337;-9.24726e-04;0.001912;-0.002363;0.696099;0.483518;2.068175;1.436576;0.00325;-0.002263;0.002756;127.704895;82.704895;0.003675;0.0032;-9.24726e-04;-0.004043;-6.83571e-04;0.001912;0.00336;0.775797;9.877695e-04;-9.877695e-04;0.030488
0.233352;-2.418908;0.87045;-0.77829;0.060675;-0.052053;0.782385;-0.004978;9.10553e-04;-0.004307;2.277787;5.467078;0.182913;0.439023;0.003183;-0.007251;0.005217;102.782242;57.782242;0.006956;0.006175;-0.004978;-0.007818;-7.951089e-04;9.10553e-04;0.007023;0.818396;-0.004068;0.004068;0.044158
0.300517;-2.418908;0.876348;-0.778331;0.060619;-0.05461;0.782595;-8.770711e-04;8.110152e-04;-9.480731e-04;1.053429;1.081448;0.924686;0.949281;0.001236;-0.001302;0.001269;112.442932;67.442932;0.001692;0.001466;-8.770711e-04;-0.001498;-3.980439e-04;8.110152e-04;0.0011;0.821738;-6.605587e-05;6.605587e-05;0.039624
0.367682;-2.418908;0.888637;-0.77829;0.060602;-0.054446;0.782542;0.002789;5.267249e-04;7.982184e-05;-0.18766;-5.294983;-0.188858;-5.328782;0.002792;5.23912e-04;0.001134;49.810223;4.810224;0.001512;0.001713;0.002789;2.419065e-04;-8.22628e-05;5.267249e-04;-3.241693e-04;0.834191;0.003316;-0.003316;0.039057
0.434848;-2.418908;0.915059;-0.778261;0.060698;-0.05314;0.782431;-0.013753;0.002138;-0.002113;5.811679;6.433595;0.155434;0.172067;0.002414;-0.014029;0.008221;58.747505;13.747503;0.010962;0.010252;-0.013753;-0.003411;-8.154362e-04;0.002138;0.002596;0.861919;-0.011615;0.011615;0.043571
0.502013;-2.418908;0.94951;-0.778493;0.060517;-0.058142;0.783003;-0.009043;0.00147;-0.005345;3.041676;6.153037;0.162521;0.328766;0.00371;-0.011283;0.007496;88.762527;43.762527;0.009995;0.009017;-0.009043;-0.00876;-0.001929;0.00147;0.006831;0.891368;-0.007574;0.007574;0.043539
0.569178;-2.418908;0.948544;-0.778543;0.060426;-0.05782;0.783023;-0.002167;1.703288e-04;0.001883;2.639533;12.721535;0.078607;0.378855;0.001218;-0.003214;0.002216;165.013184;120.013176;0.002955;0.002644;-0.002167;0.003745;2.110365e-05;1.703288e-04;-0.003723;0.890725;-0.001997;0.001997;0.034255
0.636344;-2.418908;0.930824;-0.778574;0.060478;-0.056552;0.782964;-0.001187;0.002013;-2.340409e-04;0.592962;0.58952;1.696295;1.686449;0.00203;-0.001204;0.001617;163.62944;118.62944;0.002156;0.001888;-0.001187;2.402808e-04;-7.083626e-04;0.002013;-9.486434e-04;0.874273;8.264548e-04;-8.264548e-04;0.029208
0.703509;-2.418908;0.923763;-0.778591;0.060366;-0.057062;0.78301;-0.003413;0.003695;-4.628783e-04;0.92444;0.923826;1.082455;1.081736;0.003725;-0.003443;0.003584;167.392776;122.392776;0.004778;0.004139;-0.003413;-2.431497e-04;-6.82607e-04;0.003695;-4.394573e-04;0.866701;2.814266e-04;-2.814266e-04;0.026886
0.770674;-2.418908;0.92381;-0.778996;0.060471;-0.061897;0.783787;-0.002209;0.001428;7.550548e-04;1.495275;1.547495;0.646206;0.668773;0.001578;-0.00236;0.001969;50.766777;5.766776;0.002625;0.002288;-0.002209;4.906265e-04;0.001019;0.001428;5.288566e-04;0.861913;-7.816329e-04;7.816329e-04;0.03774
0.83784;-2.418908;0.921028;-0.778983;0.060495;-0.057285;0.783426;-0.014783;2.459046e-04;0.005558;7.995641;60.117477;0.016634;0.125068;0.002078;-0.016615;0.009347;5.935014;140.935013;0.012462;0.011831;-0.014783;0.012021;-9.048081e-04;2.459046e-04;-0.012926;0.863743;-0.014537;0.014537;0.019086
0.905005;-2.418908;0.899118;-0.778897;0.060308;-0.050581;0.782864;-0.009756;0.003256;-1.067463e-04;2.99587;2.996406;0.333733;0.333793;0.003257;-0.009757;0.006507;29.457262;164.45726;0.008676;0.00782;-0.009756;0.001926;-0.00214;0.003256;-0.004066;0.848538;-0.0065;0.0065;0.020329
0.97217;-2.418908;0.867476;-0.778671;0.060172;-0.053106;0.782796;0.009079;0.002253;-3.000457e-04;-0.246357;-4.029594;-0.248164;-4.059155;0.009092;0.00224;0.003426;38.257286;173.257278;0.004568;0.00547;0.009079;-0.001143;5.427865e-04;0.002253;0.001686;0.81437;0.011332;-0.011332;0.046992
1.039336;-2.418908;0.874202;-0.778578;0.060364;-0.055732;0.782901;0.005606;0.00118;0.002202;-0.041631;-4.751429;-0.210463;-24.020487;0.006515;2.712108e-04;0.003122;81.165314;36.16531;0.004162;0.004256;0.005606;0.003966;4.370639e-04;0.00118;-0.003529;0.81847;0.006786;-0.006786;0.025984
1.106501;-2.418908;0.850625;-0.779035;0.060301;-0.057095;0.783448;-1.16458e-04;0.001705;-4.823054e-04;0.129512;0.068316;14.637961;7.721267;0.001825;-2.363021e-04;0.00103;158.197067;113.197075;0.001374;0.001302;-1.16458e-04;-2.168191e-04;-7.477917e-04;0.001705;-5.309727e-04;0.79353;0.001588;-0.001588;0.016455
1.173667;-2.418908;0.800133;-0.779277;0.06022;-0.056589;0.783646;-7.598431e-04;-0.001225;-0.006759;1.344019;-0.62015;-1.612512;0.744037;0.00577;-0.007755;0.006763;131.392883;86.392876;0.009017;0.007837;-7.598431e-04;-0.012896;-6.212706e-04;-0.001225;0.012275;0.743543;-0.001985;0.001985;0.023678
1.240832;-2.418908;0.759793;-0.779453;0.060197;-0.057017;0.783851;-0.01416;-1.29853e-04;-0.015888;2.397823;-109.043663;-0.009171;0.417045;0.010223;-0.024512;0.017367;110.988945;65.988945;0.023157;0.020612;-0.01416;-0.031786;1.068715e-05;-1.29853e-04;0.031797;0.702777;-0.014289;0.014289;0.007809
1.307997;-2.418908;0.708375;-0.779318;0.06018;-0.051992;0.783365;-0.004124;0.006127;-0.018825;0.902327;0.673023;1.485833;1.108245;0.020512;-0.018509;0.019511;128.854095;83.854088;0.026014;0.022539;-0.004124;-0.038337;6.867583e-04;0.006127;0.039024;0.656383;0.002004;-0.002004;0.004663
1.375163;-2.418908;0.66559;-0.779247;0.060222;-0.057161;0.783658;0.003877;0.002871;-0.004769;0.173932;-1.350495;-0.740469;5.749368;0.008169;-0.001421;0.004795;157.627808;112.627808;0.006394;0.005977;0.003877;-0.008901;-6.3626e-04;0.002871;0.008265;0.608429;0.006749;-0.006749;0.045796
1.442328;-2.418908;0.538381;-0.7794;0.060129;-0.054784;0.783633;0.003496;0.003297;0.00533;0.221653;-1.060456;-0.94299;4.511561;0.008728;-0.001935;0.005331;117.591026;72.591026;0.007108;0.006559;0.003496;0.010414;2.462099e-04;0.003297;-0.010168;0.483597;0.006793;-0.006793;0.04741
1.509493;-2.418908;0.428871;-0.780057;0.060201;-0.058495;0.78456;0.016816;0.008063;-0.017796;0.191337;-2.08549;-0.479504;5.22638;0.030766;-0.005887;0.018327;158.492966;113.492966;0.024435;0.022729;0.016816;-0.036828;0.001235;0.008063;0.038063;0.370376;0.02488;-0.02488;0.038284
-0.236806;-2.486073;0.478629;-0.777684;0.061098;-0.058741;0.782289;0.016826;0.003221;0.005153;-0.080272;-5.223439;-0.191445;-12.457593;0.018558;0.00149;0.008534;81.288269;36.288269;0.011379;0.011907;0.016826;0.012285;-0.001978;0.003221;-0.014263;0.419888;0.020048;-0.020048;0.049638
-0.169641;-2.486073;0.549672;-0.777752;0.060795;-0.058912;0.782345;0.013071;0.002946;0.006708;0.024086;-4.437292;-0.225363;41.518562;0.016412;-3.953039e-04;0.008404;95.818306;50.818306;0.011205;0.011076;0.013071;0.015818;-0.002402;0.002946;-0.01822;0.49076;0.016017;-0.016017;0.041089
-0.102475;-2.486073;0.618874;-0.777891;0.060659;-0.053239;0.782066;0.015948;0.002352;0.009572;0.123992;-6.780788;-0.147475;8.06503;0.02089;-0.00259;0.01174;97.100395;52.100395;0.015653;0.014865;0.015948;0.020316;-0.001173;0.002352;-0.02149;0.565636;0.0183;-0.0183;0.029189
-0.03531;-2.486073;0.705287;-0.7779;0.060602;-0.051997;0.781988;0.00505;0.002973;0.0081;0.341189;-1.69879;-0.588654;2.930925;0.012177;-0.004155;0.008166;118.819008;73.819008;0.010888;0.009801;0.00505;0.01668;-4.810329e-04;0.002973;-0.017161;0.65329;0.008022;-0.008022;0.035637
0.031855;-2.486073;0.761497;-0.777856;0.060477;-0.053358;0.782026;-0.007325;0.003314;0.004767;1.780828;2.210459;0.452395;0.561536;0.005137;-0.009148;0.007143;170.307541;125.307541;0.009524;0.008355;-0.007325;0.009614;-8.010441e-05;0.003314;-0.009694;0.708139;-0.004011;0.004011;0.025584
0.099021;-2.486073;0.796541;-0.777903;0.060562;-0.054536;0.78216;-0.009841;0.002455;0.005543;2.6109;4.0083;0.249482;0.38301;0.004585;-0.011971;0.008278;177.616669;132.616669;0.011037;0.00987;-0.009841;0.010396;6.900021e-04;0.002455;-0.009706;0.742004;-0.007386;0.007386;0.010563
0.166186;-2.486073;0.824426;-0.778228;0.060569;-0.054885;0.782509;0.002205;0.002115;0.00712;0.534503;-1.042883;-0.95888;1.870897;0.00928;-0.00496;0.00712;126.613976;81.613976;0.009494;0.008347;0.002205;0.014456;-2.153929e-04;0.002115;-0.014671;0.769541;0.00432;-0.00432;0.018219
0.233352;-2.486073;0.863716;-0.778344;0.060586;-0.053198;0.782509;0.001471;0.00137;0.003105;0.372321;-1.073378;-0.931638;2.685855;0.004526;-0.001685;0.003105;120.870773;75.870773;0.00414;0.003709;0.001471;0.005853;3.567272e-04;0.00137;-0.005496;0.810518;0.002841;-0.002841;0.01506
0.300517;-2.486073;0.888331;-0.778463;0.060753;-0.053855;0.782685;-0.003416;0.001258;0.001537;2.256101;2.715127;0.368307;0.443243;0.001718;-0.003876;0.002797;179.353851;134.353851;0.00373;0.003309;-0.003416;0.003262;-1.884208e-04;0.001258;-0.00345;0.834476;-0.002158;0.002158;0.026742
0.367682;-2.486073;0.892738;-0.778402;0.060648;-0.054565;0.782665;7.06123e-04;0.002896;0.001618;0.040558;-0.243815;-4.101476;24.656307;0.003755;-1.522752e-04;0.001953;137.310287;92.310287;0.002605;0.002555;7.06123e-04;0.004804;-0.001569;0.002896;-0.006374;0.838173;0.003602;-0.003602;0.037993
0.434848;-2.486073;0.917945;-0.778305;0.060507;-0.054566;0.782558;-0.003522;0.004204;4.735757e-04;0.83872;0.837611;1.193872;1.192293;0.004233;-0.003551;0.003892;171.536575;126.536575;0.005189;0.0045;-0.003522;0.002422;-0.001475;0.004204;-0.003897;0.863379;6.827424e-04;-6.827424e-04;0.03497
0.502013;-2.486073;0.939478;-0.778539;0.060413;-0.056241;0.782902;-0.005136;0.001327;-0.001869;3.083223;3.870677;0.258353;0.324336;0.001828;-0.005637;0.003733;83.916969;38.916969;0.004977;0.004493;-0.005136;-0.003969;2.306811e-04;0.001327;0.004199;0.883237;-0.003809;0.003809;0.030222
0.569178;-2.486073;0.939618;-0.778577;0.060376;-0.055213;0.782864;2.202677e-04;0.00203;7.474483e-04;0.021125;-0.108524;-9.21459;47.336735;0.002299;-4.855638e-05;0.001174;139.714447;94.714447;0.001565;0.001549;2.202677e-04;0.002041;-5.463059e-04;0.00203;-0.002588;0.884405;0.00225;-0.00225;0.023275
0.636344;-2.486073;0.929066;-0.778486;0.060259;-0.056099;0.782828;1.820297e-04;0.004171;1.033893e-04;-0.042973;-0.043643;-22.913288;-23.27035;0.004174;1.793517e-04;0.001997;142.362762;97.362762;0.002663;0.002725;1.820297e-04;7.976953e-04;-5.909167e-04;0.004171;-0.001389;0.872968;0.004353;-0.004353;0.033737
0.703509;-2.486073;0.94643;-0.778475;0.060093;-0.058269;0.782962;-0.003536;0.009889;4.500895e-04;0.358497;0.35752;2.79705;2.789421;0.009904;-0.003551;0.006728;140.287109;95.287109;0.00897;0.008052;-0.003536;0.001266;-3.662009e-04;0.009889;-0.001633;0.888162;0.006354;-0.006354;0.040088
0.770674;-2.486073;0.952262;-0.77895;0.060357;-0.057387;0.783389;-0.00578;0.018736;-0.001957;0.314182;0.308501;3.241484;3.182872;0.018891;-0.005935;0.012413;128.685349;83.685356;0.016551;0.01497;-0.00578;-0.004534;6.209684e-04;0.018736;0.005155;0.894874;0.012956;-0.012956;0.05799
0.83784;-2.486073;0.932553;-0.778918;0.060308;-0.05443;0.783143;-0.010249;0.010625;0.002704;0.965717;0.964605;1.036694;1.0355;0.01097;-0.010594;0.010782;171.527023;126.527023;0.014376;0.012451;-0.010249;0.007155;-0.001746;0.010625;-0.008901;0.878123;3.760899e-04;-3.760899e-04;0.032637
0.905005;-2.486073;0.906323;-0.779026;0.059987;-0.053938;0.783191;-6.698339e-04;0.002474;-0.001459;0.407769;0.270742;3.693559;2.452368;0.003047;-0.001242;0.002144;178.040665;133.040665;0.002859;0.002548;-6.698339e-04;-6.106892e-04;-0.002306;0.002474;-0.001696;0.852385;0.001804;-0.001804;0.00946
0.97217;-2.486073;0.886587;-0.778787;0.059936;-0.053278;0.782905;0.004399;5.656233e-04;0.002158;0.075214;-7.777421;-0.128577;13.295416;0.005369;-4.037858e-04;0.002886;82.736351;37.736351;0.003848;0.003721;0.004399;0.003427;8.881764e-04;5.656233e-04;-0.002539;0.833309;0.004965;-0.004965;0.019652
1.039336;-2.486073;0.883968;-0.778571;0.060323;-0.054243;0.782786;0.008801;0.002841;0.003261;-0.137033;-3.098032;-0.322786;-7.297506;0.010239;0.001403;0.004418;80.196411;35.196411;0.005891;0.00641;0.008801;0.00571;8.130615e-04;0.002841;-0.004897;0.829725;0.011642;-0.011642;0.01827
1.106501;-2.486073;0.839902;-0.778998;0.060116;-0.057895;0.783456;0.008388;0.00309;-1.574501e-04;-0.367605;-2.714679;-0.368368;-2.720309;0.008392;0.003085;0.002654;48.404892;3.40489;0.003538;0.004902;0.008388;8.762677e-04;-0.001191;0.00309;-0.002067;0.782007;0.011477;-0.011477;0.025726
1.173667;-2.486073;0.805688;-0.779077;0.060115;-0.058449;0.783576;0.007434;0.00261;-0.001702;-0.259632;-2.847961;-0.351128;-3.851601;0.007974;0.00207;0.002952;14.160926;149.160919;0.003936;0.004778;0.007434;-0.004202;7.988288e-04;0.00261;0.005001;0.747239;0.010044;-0.010044;0.024352
1.240832;-2.486073;0.762936;-0.77925;0.060327;-0.062361;0.784066;-0.003256;0.002087;-0.005808;1.201225;1.56001;0.641022;0.832483;0.005809;-0.006977;0.006393;120.117203;75.117203;0.008524;0.007392;-0.003256;-0.012403;7.870201e-04;0.002087;0.01319;0.700576;-0.001169;0.001169;0.029516
1.307997;-2.486073;0.687141;-0.779387;0.060373;-0.059324;0.783969;-0.014671;0.006043;-0.009081;1.911998;2.427687;0.411915;0.523013;0.009461;-0.018089;0.013775;98.123734;53.123734;0.018366;0.016163;-0.014671;-0.018334;1.722913e-04;0.006043;0.018506;0.627817;-0.008628;0.008628;0.017225
1.375163;-2.486073;0.630867;-0.779509;0.060166;-0.056709;0.783881;-0.025208;0.002608;0.001571;9.381959;9.666239;0.103453;0.106588;0.002696;-0.025297;0.013997;36.104988;171.104996;0.018662;0.017831;-0.025208;0.003838;-6.962927e-04;0.002608;-0.004535;0.574158;-0.0226;0.0226;0.026556
1.442328;-2.486073;0.52928;-0.779417;0.059962;-0.050621;0.783358;0.022591;0.001521;0.007712;0.039834;-14.854423;-0.06732;25.104357;0.025112;-0.001;0.013056;79.959267;34.959267;0.017408;0.017085;0.022591;0.015756;-3.320667e-04;0.001521;-0.016088;0.478658;0.024112;-0.024112;0.028693
1.509493;-2.486073;0.416072;-0.77977;0.059972;-0.063402;0.784639;0.080508;0.002682;-0.012935;-0.00713;-30.013512;-0.033318;-140.252884;0.082601;5.889458e-04;0.041006;26.726831;161.726837;0.054675;0.054872;0.080508;-0.026578;7.084902e-04;0.002682;0.027286;0.35267;0.08319;-0.08319;0.01886
-0.236806;-2.553239;0.476277;-0.777689;0.060819;-0.057178;0.782156;0.009382;0.001974;-0.016349;0.493978;-4.752777;-0.210403;2.024383;0.022441;-0.011085;0.016763;151.881302;106.881294;0.022351;0.019723;0.009382;-0.031142;-0.001556;0.001974;0.029586;0.419099;0.011355;-0.011355;0.027354
-0.169641;-2.553239;0.556074;-0.77784;0.060628;-0.054869;0.782126;0.005299;0.002824;-0.012216;0.502887;-1.876479;-0.532913;1.988517;0.01634;-0.008217;0.012278;148.484451;103.484459;0.016371;0.014434;0.005299;-0.022695;-0.001737;0.002824;0.020958;0.501205;0.008123;-0.008123;0.030835
-0.102475;-2.553239;0.631821;-0.777851;0.060423;-0.056006;0.782202;0.0051;0.002315;3.371672e-04;-0.44253;-2.203085;-0.453909;-2.259736;0.005141;0.002275;0.001433;63.827213;18.827213;0.00191;0.002974;0.0051;0.001991;-0.001317;0.002315;-0.003309;0.575815;0.007415;-0.007415;0.03617
-0.03531;-2.553239;0.715379;-0.777825;0.060349;-0.054086;0.782036;0.009734;0.003325;0.005424;-0.017834;-2.927733;-0.341561;-56.072392;0.012829;2.287992e-04;0.0063;96.710457;51.710457;0.0084;0.008478;0.009734;0.011728;-8.790773e-04;0.003325;-0.012607;0.661293;0.013058;-0.013058;0.040205
0.031855;-2.553239;0.761014;-0.77788;0.060268;-0.05182;0.78193;-0.003897;0.003296;0.001447;1.168173;1.182476;0.845683;0.856037;0.003576;-0.004178;0.003877;174.506866;129.506866;0.005169;0.004481;-0.003897;0.003004;-1.090104e-04;0.003296;-0.003113;0.709194;-6.014103e-04;6.014103e-04;0.029159
0.099021;-2.553239;0.79277;-0.777928;0.060432;-0.055629;0.782253;-0.013877;0.003212;8.56334e-04;4.276292;4.319949;0.231484;0.233847;0.003255;-0.01392;0.008587;45.88726;0.88726;0.01145;0.010534;-0.013877;1.545541e-04;0.001558;0.003212;0.001404;0.737141;-0.010665;0.010665;0.015625
0.166186;-2.553239;0.824482;-0.778234;0.060605;-0.057589;0.782712;0.004268;0.003312;-7.791201e-04;-0.611384;-1.288673;-0.775992;-1.635633;0.004704;0.002876;9.141022e-04;10.273161;145.273163;0.001219;0.002738;0.004268;-0.001515;-4.323552e-05;0.003312;0.001472;0.766893;0.007581;-0.007581;0.017215
0.233352;-2.553239;0.867284;-0.778506;0.060492;-0.052979;0.782648;0.004234;0.00332;2.040594e-05;-0.78395;-1.275279;-0.784142;-1.275591;0.004234;0.003319;4.574071e-04;47.581001;2.581001;6.098761e-04;0.002573;0.004234;1.922468e-04;-1.514349e-04;0.00332;-3.436817e-04;0.814305;0.007554;-0.007554;0.007854
0.300517;-2.553239;0.887462;-0.778594;0.060468;-0.053755;0.782786;-0.005137;0.004154;1.007397e-04;1.236471;1.236533;0.808712;0.808753;0.004155;-0.005138;0.004646;12.174157;147.174164;0.006195;0.005375;-0.005137;0.001127;-9.250698e-04;0.004154;-0.002052;0.833707;-9.8256e-04;9.8256e-04;0.001964
0.367682;-2.553239;0.890477;-0.778468;0.060239;-0.058153;0.782958;-6.520689e-04;0.00632;6.026191e-04;0.110444;0.103168;9.692975;9.054382;0.006372;-7.037683e-04;0.003538;157.653763;112.653763;0.004717;0.004501;-6.520689e-04;0.004668;-0.003462;0.00632;-0.00813;0.832324;0.005668;-0.005668;0.009846
0.434848;-2.553239;0.90426;-0.778693;0.059993;-0.053334;0.78282;1.303063e-04;0.007909;0.004479;0.192182;-0.016475;-60.697792;5.203406;0.009952;-0.001913;0.005932;136.848404;91.848404;0.00791;0.007356;1.303063e-04;0.009762;-8.028635e-04;0.007909;-0.010565;0.850926;0.00804;-0.00804;0.015506
0.502013;-2.553239;0.921068;-0.778882;0.060071;-0.054124;0.783067;-0.006746;0.007819;0.003884;0.877947;0.86279;1.159031;1.139021;0.00879;-0.007717;0.008254;160.920883;115.920876;0.011005;0.009537;-0.006746;0.0069;8.683489e-04;0.007819;-0.006031;0.866944;0.001073;-0.001073;0.029511
0.569178;-2.553239;0.936096;-0.778762;0.060166;-0.05817;0.783246;0.001563;0.002343;0.002675;0.161191;-0.667055;-1.499126;6.203814;0.004656;-7.504954e-04;0.002703;119.52771;74.52771;0.003604;0.003382;0.001563;0.005066;2.840472e-04;0.002343;-0.004782;0.877926;0.003905;-0.003905;0.047415
0.636344;-2.553239;0.947399;-0.778766;0.059987;-0.055138;0.783017;0.003594;2.142784e-04;2.68222e-04;-0.053419;-16.773066;-0.059619;-18.719809;0.003615;1.931248e-04;0.001711;70.218315;25.218315;0.002281;0.002348;0.003594;0.001948;-0.001412;2.142784e-04;-0.00336;0.892261;0.003808;-0.003808;0.051547
0.703509;-2.553239;0.979162;-0.77855;0.05989;-0.056181;0.782869;5.854078e-04;0.002209;-7.800295e-05;-0.262895;-0.265033;-3.77311;-3.803795;0.002213;5.816685e-04;8.154396e-04;157.358917;112.358925;0.001087;0.001324;5.854078e-04;0.001063;-0.001219;0.002209;-0.002281;0.922981;0.002794;-0.002794;0.035342
0.770674;-2.553239;0.972307;-0.77854;0.059963;-0.053406;0.78267;-0.009263;0.001735;-0.00425;3.36271;5.338578;0.187316;0.297379;0.003186;-0.010714;0.00695;84.552567;39.552563;0.009266;0.008408;-0.009263;-0.007569;-9.311727e-04;0.001735;0.006638;0.918901;-0.007528;0.007528;0.02961
0.83784;-2.553239;0.937185;-0.778629;0.0599;-0.049425;0.782492;-0.002128;0.001567;-0.005799;1.096583;1.3579;0.736431;0.911924;0.005806;-0.006367;0.006086;124.475204;79.475204;0.008115;0.00703;-0.002128;-0.010544;-0.001055;0.001567;0.009489;0.88776;-5.607506e-04;5.607506e-04;0.016706
0.905005;-2.553239;0.90099;-0.779013;0.059883;-0.054099;0.783182;0.003101;0.002152;-0.005113;0.323219;-1.441229;-0.693852;3.09388;0.007761;-0.002509;0.005135;152.226028;107.226028;0.006847;0.006182;0.003101;-0.009822;-4.036117e-04;0.002152;0.009419;0.846892;0.005253;-0.005253;0.009849
0.97217;-2.553239;0.91236;-0.778965;0.059871;-0.054106;0.783134;0.001349;0.002494;2.366282e-04;-0.512606;-0.541118;-1.848024;-1.950818;0.002541;0.001302;6.191243e-04;104.540169;59.540169;8.254991e-04;0.001467;0.001349;-0.001289;0.001762;0.002494;0.003051;0.858255;0.003843;-0.003843;0.012031
1.039336;-2.553239;0.897332;-0.778695;0.060042;-0.054326;0.782893;0.006069;0.00339;-0.00103;-0.473556;-1.790205;-0.558595;-2.111684;0.006419;0.00304;0.00169;21.953371;156.953369;0.002253;0.003708;0.006069;-0.00174;-3.203703e-04;0.00339;0.001419;0.843006;0.009459;-0.009459;0.034993
1.106501;-2.553239;0.833041;-0.778981;0.059832;-0.056485;0.783315;0.006984;0.002757;0.003981;-0.038669;-2.533532;-0.394706;-25.860275;0.009378;3.626409e-04;0.004508;98.584587;53.584591;0.00601;0.006135;0.006984;0.008874;-9.115341e-04;0.002757;-0.009786;0.776556;0.009741;-0.009741;0.048882
1.173667;-2.553239;0.807541;-0.779077;0.059849;-0.057936;0.783518;0.005591;0.002335;0.008497;0.371734;-2.394725;-0.417584;2.690097;0.012615;-0.004689;0.008652;116.821304;71.821304;0.011536;0.010334;0.005591;0.016801;1.936552e-04;0.002335;-0.016607;0.749604;0.007925;-0.007925;0.021818
1.240832;-2.553239;0.762846;-0.779283;0.060026;-0.058039;0.783744;0.00291;0.002635;0.012996;0.64839;-1.104607;-0.9053;1.542282;0.015769;-0.010225;0.012997;128.175919;83.175926;0.017329;0.015121;0.00291;0.024966;0.001027;0.002635;-0.023939;0.704807;0.005545;-0.005545;0.016558
1.307997;-2.553239;0.66327;-0.779502;0.060019;-0.058773;0.784016;-0.006871;0.004642;0.004109;1.374181;1.480286;0.675545;0.727706;0.005958;-0.008187;0.007073;169.667892;124.6679;0.00943;0.008201;-0.006871;0.008311;-9.260992e-05;0.004642;-0.008404;0.604497;-0.002229;0.002229;0.026723
1.375163;-2.553239;0.591766;-0.779675;0.059933;-0.055503;0.783943;-0.033105;0.004577;-0.010178;4.989706;7.232624;0.138262;0.200413;0.00715;-0.035678;0.021414;74.807976;29.807972;0.028552;0.026492;-0.033105;-0.018829;-0.001526;0.004577;0.017303;0.536262;-0.028528;0.028528;0.03677
1.442328;-2.553239;0.520763;-0.77971;0.059634;-0.047959;0.783457;0.033834;8.58696e-04;-0.015716;0.13537;-39.401226;-0.02538;7.38714;0.040124;-0.005432;0.022778;1.572966;136.572968;0.03037;0.028731;0.033834;-0.03202;5.883793e-04;8.58696e-04;0.032609;0.472805;0.034692;-0.034692;0.04012
1.509493;-2.553239;0.423714;-0.77947;0.059998;-0.06746;0.78468;0.107034;-0.001607;-0.015153;0.033738;66.60392;0.015014;29.640518;0.109108;-0.003681;0.056395;27.69066;162.690659;0.075193;0.073996;0.107034;-0.033337;0.00303;-0.001607;0.036366;0.356254;0.105427;-0.105427;0.021541
-0.236806;-2.620404;0.455721;-0.777807;0.060613;-0.053679;0.78201;0.005322;0.00248;-0.002714;-0.120256;-2.146161;-0.465948;-8.315612;0.006965;8.375322e-04;0.003064;1.359913;136.359909;0.004085;0.004391;0.005322;-0.004526;-9.015313e-04;0.00248;0.003625;0.402042;0.007802;-0.007802;0.011205
-0.169641;-2.620404;0.557928;-0.778044;0.0605;-0.052791;0.782177;-0.002012;0.001757;-3.066201e-04;1.143138;1.145157;0.873243;0.874785;0.001782;-0.002037;0.001909;9.335137;144.335144;0.002545;0.002206;-0.002012;4.612568e-04;-0.001074;0.001757;-0.001536;0.505137;-2.550008e-04;2.550008e-04;0.036331
-0.102475;-2.620404;0.63062;-0.778098;0.060382;-0.054677;0.78235;-0.007159;0.001364;0.002737;3.674192;5.249408;0.190498;0.272169;0.002167;-0.007962;0.005065;179.989182;134.989182;0.006753;0.006159;-0.007159;0.007252;-0.001778;0.001364;-0.00903;0.575943;-0.005795;0.005795;0.042806
-0.03531;-2.620404;0.693016;-0.777897;0.060188;-0.055506;0.782194;0.006805;0.004883;0.008115;0.166076;-1.393612;-0.71756;6.021348;0.014015;-0.002328;0.008172;116.228859;71.228859;0.010895;0.010208;0.006805;0.017923;-0.001693;0.004883;-0.019615;0.63751;0.011688;-0.011688;0.022756
0.031855;-2.620404;0.746089;-0.777831;0.060087;-0.053261;0.781964;0.004351;0.005455;0.008078;0.245709;-0.797632;-1.253712;4.06986;0.013;-0.003194;0.008097;121.286186;76.286186;0.010796;0.009904;0.004351;0.01613;2.591168e-05;0.005455;-0.016104;0.692828;0.009806;-0.009806;0.022771
0.099021;-2.620404;0.804058;-0.77802;0.060136;-0.054328;0.78223;-0.005205;0.003202;-0.001398;1.584351;1.625646;0.61514;0.631173;0.003428;-0.005431;0.004429;82.91671;37.91671;0.005906;0.005158;-0.005205;-0.002966;1.710195e-04;0.003202;0.003137;0.74973;-0.002003;0.002003;0.023788
0.166186;-2.620404;0.847352;-0.778162;0.06013;-0.055011;0.782418;0.004055;0.006321;-0.006879;0.146662;-0.641496;-1.558857;6.818412;0.012159;-0.001783;0.006971;149.776718;104.776718;0.009295;0.008761;0.004055;-0.013306;-4.507378e-04;0.006321;0.012856;0.792342;0.010376;-0.010376;0.027051
0.233352;-2.620404;0.873865;-0.778357;0.060092;-0.052847;0.78246;-0.001691;0.006184;-0.002307;0.340277;0.273487;3.656476;2.938781;0.00681;-0.002317;0.004564;121.052361;76.052361;0.006085;0.005478;-0.001691;-0.005938;0.001325;0.006184;0.007263;0.821019;0.004493;-0.004493;0.018764
0.300517;-2.620404;0.880521;-0.778314;0.060302;-0.05631;0.782675;-0.007283;0.004849;0.001936;1.472557;1.501942;0.665805;0.679091;0.005151;-0.007585;0.006368;14.196815;149.196808;0.00849;0.007398;-0.007283;0.003108;7.650428e-04;0.004849;-0.002343;0.824211;-0.002434;0.002434;0.017956
0.367682;-2.620404;0.892131;-0.778085;0.060085;-0.060895;0.782774;-0.003071;0.002089;-8.319685e-04;1.44278;1.470514;0.680034;0.693106;0.002219;-0.003202;0.002711;14.268696;149.268692;0.003614;0.003147;-0.003071;0.001777;-0.003441;0.002089;-0.005219;0.831236;-9.827438e-04;9.827438e-04;0.011945
0.434848;-2.620404;0.905781;-0.778384;0.059773;-0.058481;0.782863;-0.00661;-0.003138;0.003929;-15.84519;-2.106733;-0.474669;-0.063111;-5.786586e-04;-0.009169;0.004295;167.67804;122.678032;0.005727;0.005929;-0.00661;0.009435;-0.001578;-0.003138;-0.011013;0.8473;-0.009748;0.009748;0.013032
0.502013;-2.620404;0.923388;-0.778642;0.059971;-0.062105;0.783414;-0.006918;-0.006341;0.009768;5.217901;-1.091033;-0.916562;0.191648;0.003143;-0.016402;0.009773;155.22522;110.225212;0.01303;0.012119;-0.006918;0.018026;0.001511;-0.006341;-0.016515;0.861283;-0.013259;0.013259;0.046658
0.569178;-2.620404;0.941128;-0.778519;0.06009;-0.062692;0.783347;0.008857;-0.002674;-0.002327;0.335846;3.311629;0.301966;2.977556;0.009309;-0.003126;0.006217;9.730654;144.730652;0.00829;0.007469;0.008857;-0.005828;0.001175;-0.002674;0.007003;0.878436;0.006182;-0.006182;0.061323
0.636344;-2.620404;0.951831;-0.778726;0.060022;-0.055633;0.783014;0.005206;0.001974;-0.001587;-0.226233;-2.637547;-0.37914;-4.42023;0.005856;0.001325;0.002265;16.933432;151.933426;0.003021;0.003546;0.005206;-0.002327;-8.474149e-04;0.001974;0.00148;0.896198;0.00718;-0.00718;0.046824
0.703509;-2.620404;0.980636;-0.778656;0.059925;-0.057667;0.783084;-0.002082;0.002395;7.285654e-04;0.875325;0.869307;1.150342;1.142432;0.00251;-0.002197;0.002354;158.653473;113.653473;0.003138;0.00272;-0.002082;0.001069;3.877549e-04;0.002395;-6.81621e-04;0.922969;3.129591e-04;-3.129591e-04;0.025729
0.770674;-2.620404;0.985777;-0.778586;0.059967;-0.057949;0.783039;-0.001167;0.00983;-0.005004;0.263731;0.118726;8.42278;3.791739;0.011766;-0.003103;0.007435;132.977173;87.977173;0.009913;0.009058;-0.001167;-0.009544;-4.63495e-04;0.00983;0.009081;0.927828;0.008663;-0.008663;0.019814
0.83784;-2.620404;0.940594;-0.77871;0.059907;-0.056983;0.783087;0.004007;0.009105;-0.020872;0.524641;-0.440094;-2.27224;1.906066;0.027583;-0.014471;0.021027;141.846741;96.846741;0.028036;0.02467;0.004007;-0.038262;-0.003482;0.009105;0.03478;0.883611;0.013112;-0.013112;0.01591
0.905005;-2.620404;0.899968;-0.778812;0.05982;-0.05903;0.783334;-0.003101;0.004974;-0.010243;0.8432;0.623421;1.604053;1.185958;0.011946;-0.010073;0.01101;129.088974;84.088982;0.01468;0.012728;-0.003101;-0.015727;-0.004759;0.004974;0.010968;0.840937;0.001873;-0.001873;0.032703
0.97217;-2.620404;0.892427;-0.779107;0.059709;-0.056578;0.783437;-0.00425;0.006618;-0.001674;0.655244;0.64211;1.557365;1.526148;0.00687;-0.004502;0.005686;126.096474;81.096474;0.007582;0.006613;-0.00425;-0.002502;-8.472312e-04;0.006618;0.001654;0.835849;0.002369;-0.002369;0.019293
1.039336;-2.620404;0.875841;-0.779123;0.059766;-0.056555;0.783456;-0.004686;0.004298;1.952993e-04;1.090095;1.090184;0.917276;0.917351;0.004303;-0.00469;0.004497;80.322372;35.322376;0.005995;0.005194;-0.004686;-4.440286e-04;8.346271e-04;0.004298;0.001279;0.819286;-3.876552e-04;3.876552e-04;0.010172
1.106501;-2.620404;0.841366;-0.779173;0.059801;-0.055015;0.783398;-0.004465;0.001181;0.007317;1.529564;3.780264;0.264532;0.653781;0.006201;-0.009485;0.007843;152.108582;107.108582;0.010457;0.009122;-0.004465;0.014362;2.72788e-04;0.001181;-0.014089;0.786351;-0.003284;0.003284;0.048931
1.173667;-2.620404;0.803092;-0.779143;0.059743;-0.054698;0.783342;0.009312;-5.439515e-04;0.008603;0.386792;17.119488;0.058413;2.585368;0.014299;-0.005531;0.009915;105.740845;60.740845;0.01322;0.011816;0.009312;0.016606;6.002653e-04;-5.439515e-04;-0.016006;0.748394;0.008768;-0.008768;0.067381
1.240832;-2.620404;0.736183;-0.77929;0.059666;-0.05618;0.783588;0.011439;0.001359;-0.00206;-0.080572;-8.416651;-0.118812;-12.411245;0.011844;9.542996e-04;0.005445;28.413614;163.41362;0.00726;0.007598;0.011439;-0.003297;-8.233502e-04;0.001359;0.002474;0.680003;0.012798;-0.012798;0.027037
1.307997;-2.620404;0.671365;-0.779658;0.059556;-0.057229;0.784021;0.007199;-0.001028;-0.010579;0.572531;7.001074;0.142835;1.746629;0.014436;-0.008265;0.011351;153.365463;108.365456;0.015134;0.013267;0.007199;-0.021719;5.610671e-04;-0.001028;0.02228;0.614136;0.006171;-0.006171;0.018832
1.375163;-2.620404;0.617917;-0.779552;0.059688;-0.061651;0.784261;-0.017812;-0.003334;-0.014826;4.568717;-5.342626;-0.187174;0.21888;0.005926;-0.027072;0.016499;105.452576;60.452576;0.021998;0.020313;-0.017812;-0.031064;0.001413;-0.003334;0.032477;0.556265;-0.021147;0.021147;0.018307
1.442328;-2.620404;0.548263;-0.779585;0.059673;-0.056775;0.783924;0.020773;-0.00222;-0.012251;0.288514;9.358607;0.106854;3.466032;0.026077;-0.007523;0.0168;174.023102;129.023102;0.0224;0.020361;0.020773;-0.025565;0.001064;-0.00222;0.026629;0.491488;0.018553;-0.018553;0.034473
1.509493;-2.620404;0.440302;-0.779536;0.060019;-0.065649;0.784594;0.071212;4.102902e-05;0.003498;0.001828;-1735.640869;-5.761561e-04;547.102295;0.071383;-1.30475e-04;0.035757;48.656624;3.656624;0.047676;0.047632;0.071212;0.004555;0.002441;4.102902e-05;-0.002114;0.374653;0.071253;-0.071253;0.027013
-0.236806;-2.687569;0.459027;-0.777822;0.060421;-0.055868;0.782163;-0.001959;0.003839;0.021451;0.916764;0.510336;1.959493;1.090793;0.022586;-0.020706;0.021646;137.589691;92.589691;0.028862;0.025003;-0.001959;0.042825;7.670064e-05;0.003839;-0.042749;0.403159;0.00188;-0.00188;0.016439
-0.169641;-2.687569;0.563871;-0.777981;0.06041;-0.055268;0.782278;-0.00147;0.00256;0.021168;0.950042;0.574368;1.741046;1.052585;0.021808;-0.020719;0.021263;136.987152;91.98716;0.028351;0.024555;-0.00147;0.042493;-1.580538e-04;0.00256;-0.042651;0.508604;0.001089;-0.001089;0.075063
-0.102475;-2.687569;0.644179;-0.778099;0.060311;-0.056167;0.782452;-0.011289;9.931141e-04;0.016792;1.808649;11.367258;0.087972;0.552899;0.012732;-0.023028;0.01788;152.701309;107.701302;0.02384;0.020929;-0.011289;0.035591;-0.002006;9.931141e-04;-0.037597;0.588013;-0.010296;0.010296;0.083983
-0.03531;-2.687569;0.684906;-0.778065;0.059957;-0.058364;0.782551;0.004351;0.003436;0.012696;0.530845;-1.266529;-0.789559;1.883788;0.016597;-0.008811;0.012704;126.9459;81.9459;0.016939;0.014897;0.004351;0.028261;-0.00287;0.003436;-0.031131;0.626543;0.007787;-0.007787;0.038603
0.031855;-2.687569;0.723182;-0.778095;0.059921;-0.056399;0.782435;0.018453;0.003189;0.007778;0.003478;-5.786267;-0.172823;287.544403;0.021718;-7.552937e-05;0.010897;85.328751;40.328751;0.014529;0.014504;0.018453;0.015388;1.676425e-04;0.003189;-0.01522;0.666783;0.021643;-0.021643;0.032884
0.099021;-2.687569;0.789769;-0.778273;0.060017;-0.053985;0.782448;0.009636;0.001125;-0.00253;-0.041643;-8.561884;-0.116797;-24.01384;0.010331;4.30216e-04;0.00495;16.816015;151.81601;0.006601;0.006749;0.009636;-0.005112;5.226289e-05;0.001125;0.005164;0.735783;0.010761;-0.010761;0.032616
0.166186;-2.687569;0.838089;-0.778277;0.059849;-0.052181;0.782317;0.003714;0.002165;-0.004864;0.252518;-1.715418;-0.582948;3.960114;0.007864;-0.001986;0.004925;161.574615;116.574623;0.006567;0.006015;0.003714;-0.007896;-0.001831;0.002165;0.006065;0.785908;0.005878;-0.005878;0.027812
0.233352;-2.687569;0.869357;-0.77836;0.059699;-0.052033;0.782378;-0.005501;0.004598;-0.002739;1.170618;1.196413;0.835832;0.854249;0.005293;-0.006196;0.005745;97.766243;52.766243;0.00766;0.00664;-0.005501;-0.004704;-7.75049e-04;0.004598;0.003929;0.817324;-9.031383e-04;9.031383e-04;0.008044
0.300517;-2.687569;0.909798;-0.778262;0.059898;-0.054395;0.782457;-0.008043;0.008914;-0.002065;0.904892;0.902247;1.108344;1.105104;0.009162;-0.008291;0.008727;102.319191;57.319187;0.011635;0.010081;-0.008043;-0.004318;1.870746e-04;0.008914;0.004505;0.855403;8.713989e-04;-8.713989e-04;0.0042
0.367682;-2.687569;0.922757;-0.778183;0.059888;-0.05586;0.782481;-0.00564;0.011203;0.002215;0.515815;0.503432;1.986364;1.938679;0.011489;-0.005926;0.008708;153.189636;108.189644;0.01161;0.010224;-0.00564;0.005665;-0.001234;0.011203;-0.006898;0.866897;0.005563;-0.005563;0.004375
0.434848;-2.687569;0.917009;-0.778334;0.059589;-0.060717;0.78297;-0.014306;-0.001898;0.009818;5.615013;-7.535576;-0.132704;0.178094;0.003511;-0.019715;0.011613;168.660782;123.660782;0.015484;0.014457;-0.014306;0.021374;-0.001739;-0.001898;-0.023114;0.856292;-0.016204;0.016204;0.024577
0.502013;-2.687569;0.948878;-0.778186;0.05955;-0.067856;0.783406;-0.001929;-0.004424;0.008536;2.165701;-0.436033;-2.293407;0.461744;0.00545;-0.011803;0.008627;144.117386;99.117378;0.011502;0.010184;-0.001929;0.014893;0.002179;-0.004424;-0.012715;0.881022;-0.006353;0.006353;0.03953
0.569178;-2.687569;0.966464;-0.778131;0.059661;-0.06139;0.782826;0.015272;0.002986;-0.003831;-0.115434;-5.114652;-0.195517;-8.66298;0.016369;0.001889;0.00724;15.588152;150.58815;0.009653;0.01034;0.015272;-0.008458;7.962913e-04;0.002986;0.009254;0.905074;0.018258;-0.018258;0.034756
0.636344;-2.687569;0.959793;-0.778706;0.059761;-0.053167;0.782803;-0.005239;0.004017;1.995422e-04;1.303818;1.304144;0.766787;0.766978;0.004022;-0.005244;0.004633;72.913338;27.91334;0.006177;0.005365;-0.005239;-7.894554e-04;0.001189;0.004017;0.001978;0.906626;-0.001222;0.001222;0.023544
0.703509;-2.687569;0.948578;-0.779024;0.059727;-0.056661;0.783363;-0.001697;-0.004067;-9.755568e-04;-3.278533;-0.417301;-2.39635;-0.305014;-0.001347;-0.004417;0.001535;137.5168;92.516792;0.002046;0.002614;-0.001697;-0.003808;0.001857;-0.004067;0.005664;0.891917;-0.005764;0.005764;0.025591
0.770674;-2.687569;0.94879;-0.778978;0.059905;-0.059025;0.783504;0.006938;-0.003553;0.002682;0.553715;1.952489;0.512167;1.805982;0.007584;-0.004199;0.005891;79.525574;34.52557;0.007855;0.006896;0.006938;0.004204;0.00116;-0.003553;-0.003044;0.889765;0.003384;-0.003384;0.042315
0.83784;-2.687569;0.922353;-0.779044;0.059949;-0.06444;0.784;0.010578;0.002788;0.005138;-0.017919;-3.794347;-0.26355;-55.807476;0.01313;2.352732e-04;0.006447;95.423943;50.423943;0.008596;0.008676;0.010578;0.012563;-0.002287;0.002788;-0.01485;0.857913;0.013365;-0.013365;0.018134
0.905005;-2.687569;0.909576;-0.778913;0.059585;-0.063576;0.783771;-0.006805;0.004439;7.888186e-04;1.526322;1.532851;0.652379;0.65517;0.004494;-0.00686;0.005677;1.692122;136.692123;0.00757;0.006603;-0.006805;0.00667;-0.005092;0.004439;-0.011762;0.846;-0.002365;0.002365;0.012688
0.97217;-2.687569;0.901136;-0.778937;0.059326;-0.057502;0.783306;-0.007515;0.003313;-4.736071e-04;2.260086;2.267948;0.440927;0.442461;0.003334;-0.007536;0.005435;32.553852;167.553848;0.007246;0.00643;-0.007515;7.339207e-04;-0.001681;0.003313;-0.002415;0.843634;-0.004201;0.004201;0.006292
1.039336;-2.687569;0.873614;-0.778886;0.059389;-0.055748;0.783133;-0.010446;0.002863;2.118818e-04;3.645326;3.648442;0.27409;0.274324;0.002867;-0.010449;0.006658;53.397839;8.39784;0.008877;0.008093;-0.010446;-0.001066;0.001489;0.002863;0.002555;0.817866;-0.007583;0.007583;0.010377
1.106501;-2.687569;0.839075;-0.779177;0.059647;-0.0522;0.783198;-0.012603;0.001804;0.001392;6.572267;6.984043;0.143184;0.152155;0.001938;-0.012736;0.007337;45.100933;0.100933;0.009783;0.009205;-0.012603;3.290636e-04;0.002456;0.001804;0.002127;0.786875;-0.010798;0.010798;0.017487
1.173667;-2.687569;0.794205;-0.779285;0.05992;-0.05177;0.783298;0.017246;4.527843e-04;0.002165;-0.010175;-38.088795;-0.026254;-98.283958;0.017521;1.782644e-04;0.008671;55.955208;10.95521;0.011562;0.011621;0.017246;0.003323;0.001007;4.527843e-04;-0.002316;0.742435;0.017699;-0.017699;0.036174
1.240832;-2.687569;0.749648;-0.779124;0.059785;-0.060004;0.783715;0.028654;-0.003401;-0.001525;0.120923;8.42441;0.118703;8.269696;0.028727;-0.003474;0.0161;37.487038;172.487045;0.021467;0.020408;0.028654;-0.003659;6.084909e-04;-0.003401;0.004267;0.689643;0.025253;-0.025253;0.022029
1.307997;-2.687569;0.70801;-0.779467;0.059666;-0.062645;0.784253;0.006794;-0.002043;-0.004815;0.466783;3.326098;0.300653;2.142322;0.008911;-0.004159;0.006535;172.808334;127.808334;0.008713;0.00771;0.006794;-0.008462;-0.001168;-0.002043;0.007295;0.645365;0.004751;-0.004751;9.163328e-04
1.375163;-2.687569;0.640614;-0.779474;0.059561;-0.061144;0.784134;-0.019648;0.002914;3.38544e-04;6.733762;6.743757;0.148285;0.148505;0.002919;-0.019654;0.011286;40.612129;175.612122;0.015048;0.014176;-0.019648;0.001374;-6.972688e-04;0.002914;-0.002072;0.57947;-0.016735;0.016735;0.004179
1.442328;-2.687569;0.555335;-0.77966;0.059651;-0.055145;0.78388;0.00787;0.002851;0.004472;-0.022193;-2.760188;-0.362294;-45.05962;0.010489;2.327806e-04;0.005128;90.194115;45.194115;0.006837;0.006916;0.00787;0.007528;0.001416;0.002851;-0.006112;0.50019;0.010722;-0.010722;0.035855
1.509493;-2.687569;0.438052;-0.779496;0.059953;-0.062164;0.784266;0.044057;0.003211;0.010418;-0.015186;-13.7224;-0.072874;-65.848579;0.04656;7.070827e-04;0.022927;67.706398;22.706396;0.030569;0.030807;0.044057;0.018274;0.002562;0.003211;-0.015712;0.375888;0.047267;-0.047267;0.020113
-0.303971;-2.754735;0.360094;-0.777696;0.06;-0.057007;0.782088;-0.017958;0.002803;0.017775;2.165224;6.406608;0.156089;0.461846;0.013006;-0.028161;0.020584;162.540039;117.540031;0.027445;0.024299;-0.017958;0.034178;0.001371;0.002803;-0.032807;0.303087;-0.015155;0.015155;0.012127
-0.236806;-2.754735;0.467151;-0.777764;0.059955;-0.061466;0.78249;-0.004476;0.003502;0.012852;1.07515;1.278345;0.782261;0.930103;0.01297;-0.013944;0.013457;144.772873;99.772873;0.017943;0.015542;-0.004476;0.024971;7.333544e-04;0.003502;-0.024238;0.405685;-9.746642e-04;9.746642e-04;0.010073
-0.169641;-2.754735;0.56461;-0.777844;0.060044;-0.060108;0.78247;6.009311e-04;0.004128;0.010536;0.637573;-0.145591;-6.86854;1.568448;0.013047;-0.008318;0.010682;133.324799;88.324806;0.014243;0.012435;6.009311e-04;0.020899;1.727465e-04;0.004128;-0.020726;0.504502;0.004728;-0.004728;0.053052
-0.102475;-2.754735;0.646437;-0.777971;0.060077;-0.061247;0.782687;-0.008796;0.003492;0.003571;2.190474;2.518534;0.397056;0.456522;0.004455;-0.009758;0.007106;179.340683;134.340683;0.009475;0.008394;-0.008796;0.008385;-0.001243;0.003492;-0.009628;0.58519;-0.005303;0.005303;0.058596
-0.03531;-2.754735;0.693521;-0.777987;0.059869;-0.063569;0.782872;0.011771;0.001933;-0.002883;-0.091625;-6.089649;-0.164213;-10.914105;0.012553;0.00115;0.005702;23.471453;158.471451;0.007602;0.008013;0.011771;-0.004425;-0.001341;0.001933;0.003083;0.629952;0.013703;-0.013703;0.025471
0.031855;-2.754735;0.721058;-0.778113;0.059878;-0.056026;0.782422;0.030476;0.002281;-0.006252;-0.03009;-13.359829;-0.074851;-33.233639;0.0318;9.568675e-04;0.015422;22.92659;157.92659;0.020562;0.020888;0.030476;-0.012288;-2.168091e-04;0.002281;0.012071;0.665031;0.032757;-0.032757;0.018613
0.099021;-2.754735;0.787647;-0.778098;0.059908;-0.051978;0.78213;0.008949;0.001753;-0.003743;-0.015106;-5.104564;-0.195903;-66.197189;0.010543;1.592701e-04;0.005192;5.419887;140.419891;0.006923;0.006976;0.008949;-0.007222;-2.641604e-04;0.001753;0.006958;0.735669;0.010703;-0.010703;0.011385
0.166186;-2.754735;0.84642;-0.777957;0.059868;-0.052839;0.782044;-0.003434;0.002367;0.003069;1.289321;1.450931;0.689213;0.775602;0.003689;-0.004756;0.004223;159.600433;114.600441;0.00563;0.004889;-0.003434;0.008309;-0.002171;0.002367;-0.010479;0.793581;-0.001067;0.001067;0.009785
0.233352;-2.754735;0.867316;-0.778274;0.059459;-0.051816;0.78226;-0.006138;0.002788;0.004876;1.67884;2.201795;0.454175;0.595649;0.004935;-0.008285;0.00661;162.186584;117.186577;0.008814;0.007714;-0.006138;0.012819;-0.003066;0.002788;-0.015885;0.8155;-0.00335;0.00335;0.014376
0.300517;-2.754735;0.897151;-0.778395;0.059371;-0.053987;0.78252;-0.002822;0.004243;0.004559;0.780585;0.665018;1.503719;1.28109;0.006478;-0.005056;0.005767;148.258896;103.258896;0.007689;0.006676;-0.002822;0.008131;9.867194e-04;0.004243;-0.007144;0.843165;0.001421;-0.001421;0.013255
0.367682;-2.754735;0.928918;-0.77819;0.059575;-0.052491;0.78223;-0.009808;0.003087;0.002222;2.943171;3.177376;0.314725;0.33977;0.003459;-0.01018;0.00682;22.85166;157.851654;0.009093;0.008187;-0.009808;0.003809;6.343553e-04;0.003087;-0.003175;0.876427;-0.006721;0.006721;0.020655
0.434848;-2.754735;0.935861;-0.778406;0.059462;-0.062775;0.783193;-0.009063;6.720547e-04;0.003157;6.223613;13.484831;0.074157;0.160678;0.001606;-0.009997;0.005802;6.309195;141.309189;0.007735;0.007259;-0.009063;0.007267;-9.531591e-04;6.720547e-04;-0.00822;0.873086;-0.00839;0.00839;0.03539
0.502013;-2.754735;0.947845;-0.778401;0.059456;-0.075368;0.784298;-5.137684e-04;0.003439;0.001808;0.293645;0.149397;6.693563;3.405477;0.004141;-0.001216;0.002679;139.004349;94.004349;0.003572;0.003243;-5.137684e-04;0.00358;3.617114e-05;0.003439;-0.003544;0.872477;0.002925;-0.002925;0.012595
0.569178;-2.754735;0.952724;-0.778328;0.059479;-0.06254;0.783099;0.020366;0.006718;0.018709;0.190466;-3.031525;-0.329867;5.25027;0.033457;-0.006372;0.019915;105.804657;60.804657;0.026553;0.024704;0.020366;0.035825;0.001593;0.006718;-0.034232;0.890184;0.027085;-0.027085;0.006537
0.636344;-2.754735;0.954467;-0.778674;0.059382;-0.051258;0.782616;-0.003809;0.00559;0.004609;0.761622;0.681319;1.467742;1.312987;0.007473;-0.005692;0.006583;152.374115;107.374123;0.008777;0.007624;-0.003809;0.009276;-5.73703e-05;0.00559;-0.009333;0.903209;0.001781;-0.001781;0.007028
0.703509;-2.754735;0.944429;-0.778978;0.059379;-0.050966;0.782899;-0.002348;0.004029;-5.375692e-04;0.587273;0.582663;1.716258;1.702785;0.004074;-0.002393;0.003233;103.374352;58.374355;0.004311;0.003775;-0.002348;-0.003257;0.002182;0.004029;0.005439;0.893463;0.001681;-0.001681;0.02123
0.770674;-2.754735;0.952296;-0.779052;0.059635;-0.052064;0.783064;-0.001247;0.010393;0.001481;0.135398;0.11996;8.336119;7.38561;0.010579;-0.001432;0.006006;132.573547;87.57354;0.008008;0.007575;-0.001247;0.002241;7.220631e-04;0.010393;-0.001519;0.900233;0.009147;-0.009147;0.044463
0.83784;-2.754735;0.950517;-0.779067;0.059656;-0.054939;0.783277;0.006246;0.02013;0.010333;-0.028839;-0.310274;-3.222959;-34.67519;0.025636;7.393277e-04;0.012449;128.680771;83.680771;0.016598;0.01685;0.006246;0.022834;-0.002167;0.02013;-0.025001;0.895578;0.026376;-0.026376;0.030396
0.905005;-2.754735;0.916036;-0.779148;0.059434;-0.055418;0.783374;0.001436;0.009622;0.008037;0.239888;-0.149252;-6.700071;4.168605;0.014549;-0.00349;0.009019;134.268112;89.268105;0.012026;0.011048;0.001436;0.018241;-0.002167;0.009622;-0.020408;0.860618;0.011059;-0.011059;0.006452
0.97217;-2.754735;0.896401;-0.779064;0.059326;-0.056254;0.783342;0.001756;0.001352;-8.235513e-04;-0.29403;-1.298672;-0.770017;-3.401011;0.002402;7.063285e-04;8.479511e-04;176.469543;131.469543;0.001131;0.001426;0.001756;-0.001415;-2.319216e-04;0.001352;0.001183;0.840148;0.003109;-0.003109;0.012731
1.039336;-2.754735;0.880563;-0.779005;0.059336;-0.056758;0.783321;-0.005111;0.002019;-0.007688;1.446251;2.531531;0.395018;0.691443;0.006929;-0.010021;0.008475;117.720421;72.720421;0.011299;0.00984;-0.005111;-0.016748;0.001371;0.002019;0.018119;0.823805;-0.003092;0.003092;0.025057
1.106501;-2.754735;0.842502;-0.779353;0.059499;-0.05568;0.783601;-0.013439;3.569329e-04;-0.011115;3.00014;37.651089;0.02656;0.333318;0.006541;-0.019623;0.013082;106.13475;61.13475;0.017442;0.015722;-0.013439;-0.024581;0.002351;3.569329e-04;0.026933;0.786821;-0.013082;0.013082;0.011957
1.173667;-2.754735;0.815119;-0.779577;0.059777;-0.05349;0.783693;0.008509;-0.001647;-0.007369;0.445776;5.164578;0.193627;2.243279;0.01238;-0.005519;0.008949;164.31723;119.31723;0.011932;0.010584;0.008509;-0.015051;3.135903e-04;-0.001647;0.015365;0.76163;0.006861;-0.006861;0.029288
1.240832;-2.754735;0.792568;-0.779355;0.059436;-0.058051;0.783771;0.02446;0.003537;-9.058353e-04;-0.142786;-6.914908;-0.144615;-7.003477;0.024499;0.003498;0.0105;43.308872;178.308868;0.014001;0.015301;0.02446;-5.229902e-04;-0.001289;0.003537;-7.656902e-04;0.734517;0.027997;-0.027997;0.03667
1.307997;-2.754735;0.738753;-0.779434;0.05937;-0.060701;0.784045;0.001536;0.003879;0.007024;0.449096;-0.395986;-2.52534;2.226694;0.009828;-0.004414;0.007121;129.121292;84.1213;0.009495;0.008418;0.001536;0.013995;5.350006e-05;0.003879;-0.013941;0.678052;0.005414;-0.005414;0.019336
1.375163;-2.754735;0.657509;-0.779367;0.059412;-0.059784;0.783911;-0.012936;0.002789;0.004351;3.593187;4.637549;0.215631;0.278304;0.003913;-0.014059;0.008986;9.19408;144.194077;0.011981;0.010914;-0.012936;0.009025;-3.235655e-04;0.002789;-0.009348;0.597725;-0.010147;0.010147;0.018616
1.442328;-2.754735;0.559849;-0.77963;0.059285;-0.057313;0.783979;5.301664e-04;0.003635;3.25112e-04;-0.135332;-0.145851;-6.856332;-7.389242;0.003669;4.964887e-04;0.001586;115.903381;70.903381;0.002115;0.002298;5.301664e-04;-7.071105e-04;0.001357;0.003635;0.002064;0.502536;0.004165;-0.004165;0.050152
1.509493;-2.754735;0.458207;-0.779593;0.059632;-0.060802;0.784231;0.014106;0.002587;0.015178;0.320892;-5.452577;-0.1834;3.116312;0.024581;-0.007888;0.016234;107.121292;62.121292;0.021646;0.019554;0.014106;0.027108;0.003248;0.002587;-0.02386;0.397404;0.016693;-0.016693;0.072064
-0.303971;-2.8219;0.381416;-0.777478;0.059591;-0.061253;0.782161;-5.883705e-04;0.004647;-0.013035;0.735163;0.126616;7.897884;1.360242;0.015325;-0.011266;0.013295;133.188354;88.188354;0.017727;0.015412;-5.883705e-04;-0.027982;0.001912;0.004647;0.029894;0.320163;0.004059;-0.004059;0.051721
-0.236806;-2.8219;0.466952;-0.777946;0.059951;-0.059708;0.782533;0.001698;0.002317;-0.023059;0.839838;-0.732915;-1.364416;1.190705;0.025069;-0.021054;0.023061;137.014023;92.014023;0.030748;0.026662;0.001698;-0.046982;8.639018e-04;0.002317;0.047846;0.407244;0.004015;-0.004015;0.020218
-0.169641;-2.8219;0.55757;-0.777882;0.059901;-0.059426;0.782445;0.0022;-9.710519e-04;-0.024892;0.951906;2.265779;0.441349;1.050524;0.025557;-0.024328;0.024942;137.536209;92.536217;0.033256;0.028804;0.0022;-0.049552;-2.316162e-04;-9.710519e-04;0.049321;0.498144;0.001229;-0.001229;0.032175
-0.102475;-2.8219;0.625443;-0.778093;0.059887;-0.057958;0.782543;0.002448;-0.002868;-0.024963;1.016888;0.853411;1.171768;0.983392;0.024894;-0.025315;0.025104;137.787399;92.787399;0.033473;0.028988;0.002448;-0.048926;-0.001001;-0.002868;0.047926;0.567484;-4.204269e-04;4.204269e-04;0.030271
-0.03531;-2.8219;0.69476;-0.77804;0.05975;-0.05706;0.782415;0.010411;0.002073;-0.022586;0.572601;-5.021784;-0.199132;1.746415;0.02921;-0.016725;0.022968;148.349136;103.349136;0.030623;0.026845;0.010411;-0.044015;-0.001157;0.002073;0.042858;0.6377;0.012484;-0.012484;0.025651
0.031855;-2.8219;0.741063;-0.778095;0.059785;-0.053511;0.78222;0.012533;0.004311;-0.004457;-0.162806;-2.907548;-0.343932;-6.142264;0.014486;0.002358;0.006064;9.113078;144.113083;0.008085;0.008975;0.012533;-0.008289;-6.251801e-04;0.004311;0.007664;0.687553;0.016844;-0.016844;0.015879
0.099021;-2.8219;0.779613;-0.77809;0.059688;-0.051295;0.78206;-0.011733;0.002694;0.015321;1.728096;4.355386;0.229601;0.578672;0.012414;-0.021453;0.016934;155.246918;110.246918;0.022579;0.019784;-0.011733;0.031862;-0.00122;0.002694;-0.033082;0.728318;-0.009039;0.009039;0.007333
0.166186;-2.8219;0.827887;-0.778;0.059703;-0.055732;0.782275;-0.020088;0.008218;0.027294;1.478402;2.444266;0.409121;0.676406;0.02481;-0.03668;0.030745;154.941864;109.941872;0.040994;0.035721;-0.020088;0.054118;4.693493e-04;0.008218;-0.053649;0.772156;-0.011869;0.011869;0.004221
0.233352;-2.8219;0.876337;-0.778375;0.059447;-0.056833;0.782707;-0.001392;7.281743e-04;0.025837;1.026019;1.912113;0.522982;0.97464;0.025526;-0.02619;0.025858;136.521744;91.521736;0.034478;0.029859;-0.001392;0.05327;-0.001597;7.281743e-04;-0.054868;0.819504;-6.64177e-04;6.64177e-04;0.037429
0.300517;-2.8219;0.902744;-0.778647;0.059245;-0.056389;0.782931;0.00705;-0.004482;0.013288;0.837157;1.572925;0.635758;1.19452;0.015768;-0.013201;0.014485;120.695595;75.695595;0.019313;0.016747;0.00705;0.027528;-9.533762e-04;-0.004482;-0.028482;0.846355;0.002568;-0.002568;0.046322
0.367682;-2.8219;0.92398;-0.778476;0.059405;-0.056405;0.782774;-0.004323;-7.14234e-04;0.004712;2.993324;-6.052394;-0.165224;0.334077;0.002527;-0.007564;0.005045;163.24382;118.243813;0.006727;0.006063;-0.004323;0.008238;0.001185;-7.14234e-04;-0.007053;0.867575;-0.005037;0.005037;0.030225
0.434848;-2.8219;0.936405;-0.778506;0.059529;-0.059868;0.783071;-0.002237;0.004269;0.006381;0.751563;0.52403;1.908288;1.33056;0.008178;-0.006146;0.007162;144.137589;99.137581;0.00955;0.008298;-0.002237;0.012993;-2.304317e-04;0.004269;-0.013223;0.876537;0.002032;-0.002032;0.02706
0.502013;-2.8219;0.926307;-0.778586;0.059522;-0.071783;0.784151;0.001051;0.004189;0.001299;-0.125184;-0.250953;-3.984805;-7.988259;0.004657;5.83025e-04;0.002037;138.263474;93.263466;0.002716;0.00293;0.001051;0.004028;-0.001429;0.004189;-0.005457;0.854525;0.00524;-0.00524;0.011293
0.569178;-2.8219;0.928463;-0.778464;0.059256;-0.064818;0.783402;0.013382;0.003822;0.006541;-0.029948;-3.501569;-0.285586;-33.391407;0.016703;5.002163e-04;0.008101;96.782654;51.782654;0.010802;0.010972;0.013382;0.016692;-0.00361;0.003822;-0.020302;0.863645;0.017203;-0.017203;0.008514
0.636344;-2.8219;0.941341;-0.778448;0.059017;-0.054851;0.782606;0.005205;0.009881;0.007624;0.027774;-0.526797;-1.898265;36.004528;0.015517;-4.309777e-04;0.007974;116.965134;71.965134;0.010632;0.010491;0.005205;0.013283;0.001964;0.009881;-0.01132;0.88649;0.015086;-0.015086;0.018069
0.703509;-2.8219;0.946736;-0.778477;0.059138;-0.052861;0.782507;-0.002195;0.009831;0.003548;0.292936;0.223267;4.478936;3.413717;0.0108;-0.003164;0.006982;119.171532;74.171532;0.009309;0.008454;-0.002195;0.003474;0.003622;0.009831;1.48584e-04;0.893875;0.007636;-0.007636;0.021184
0.770674;-2.8219;0.956066;-0.77871;0.059464;-0.053243;0.78279;-0.002758;0.004525;0.003531;0.703272;0.609479;1.640746;1.421925;0.005956;-0.004189;0.005072;148.684906;103.684898;0.006763;0.005887;-0.002758;0.006169;8.925106e-04;0.004525;-0.005276;0.902823;0.001767;-0.001767;0.025142
0.83784;-2.8219;0.972998;-0.778792;0.059196;-0.054098;0.78291;4.877722e-04;0.004625;-0.002195;0.082482;-0.10546;-9.482257;12.123841;0.005573;-4.596392e-04;0.003016;162.06543;117.06543;0.004021;0.003877;4.877722e-04;-0.001861;-0.002529;0.004625;-6.673233e-04;0.9189;0.005113;-0.005113;0.03186
0.905005;-2.8219;0.921994;-0.778908;0.059046;-0.055335;0.7831;0.01016;0.004899;0.001998;-0.390123;-2.073968;-0.482168;-2.563292;0.010833;0.004226;0.003303;70.352592;25.352591;0.004404;0.006305;0.01016;0.003804;1.919861e-04;0.004899;-0.003612;0.866659;0.015059;-0.015059;0.050231
0.97217;-2.8219;0.890964;-0.778967;0.05925;-0.059519;0.783481;0.011624;0.002836;0.001173;-0.227711;-4.099091;-0.243957;-4.391533;0.011778;0.002682;0.004548;51.882847;6.882848;0.006064;0.007128;0.011624;0.001024;0.001321;0.002836;2.973575e-04;0.831445;0.01446;-0.01446;0.042755
1.039336;-2.8219;0.876655;-0.77912;0.059308;-0.06296;0.783906;0.001531;0.002658;-9.175953e-04;-0.320844;-0.575884;-1.736462;-3.116781;0.003171;0.001017;0.001077;142.853424;97.853424;0.001436;0.00187;0.001531;-0.002852;0.001017;0.002658;0.00387;0.813695;0.004189;-0.004189;0.004586
1.106501;-2.8219;0.840672;-0.779533;0.059401;-0.061512;0.784209;-0.007898;0.005602;-0.005604;1.301164;1.409925;0.709257;0.768542;0.007625;-0.009921;0.008773;104.95475;59.95475;0.011697;0.010159;-0.007898;-0.012258;0.00105;0.005602;0.013308;0.77916;-0.002296;0.002296;0.010279
1.173667;-2.8219;0.826461;-0.779599;0.059238;-0.058643;0.784043;0.001209;0.009572;-0.011932;0.402185;-0.126277;-7.919107;2.48642;0.018033;-0.007253;0.012643;138.009827;93.009819;0.016858;0.015035;0.001209;-0.023318;-5.454673e-04;0.009572;0.022772;0.767818;0.010781;-0.010781;0.051937
1.240832;-2.8219;0.780831;-0.77943;0.059088;-0.0598;0.78395;0.004231;0.007221;-0.009818;0.268576;-0.585891;-1.706802;3.72334;0.015657;-0.004205;0.009931;147.157974;102.157974;0.013241;0.012086;0.004231;-0.018643;-9.922014e-04;0.007221;0.017651;0.721031;0.011452;-0.011452;0.063657
1.307997;-2.8219;0.702399;-0.779611;0.059158;-0.05991;0.784144;-0.006823;0.002659;2.746773e-04;2.561213;2.56588;0.38973;0.39044;0.002667;-0.006831;0.004749;45.208122;0.208122;0.006332;0.005657;-0.006823;1.388753e-04;4.104792e-04;0.002659;2.716039e-04;0.64249;-0.004164;0.004164;0.031974
1.375163;-2.8219;0.618699;-0.779487;0.059197;-0.057176;0.783819;-0.002348;0.002256;-9.133362e-04;1.038059;1.041004;0.960611;0.963337;0.00243;-0.002523;0.002477;95.096817;50.096817;0.003302;0.00286;-0.002348;-0.001142;-6.849253e-04;0.002256;4.568219e-04;0.561523;-9.249807e-05;9.249807e-05;0.026136
1.442328;-2.8219;0.531515;-0.779434;0.059025;-0.060125;0.783975;-0.010729;8.739352e-04;7.640783e-04;11.664956;12.276358;0.081457;0.085727;9.240361e-04;-0.010779;0.005851;47.622555;2.622554;0.007802;0.007513;-0.010729;-3.507156e-04;0.001879;8.739352e-04;0.00223;0.47139;-0.009855;0.009855;0.066698
1.509493;-2.8219;0.436614;-0.779505;0.059628;-0.05414;0.783654;-0.030049;0.001101;0.016115;4.647453;27.305012;0.036623;0.215172;0.007937;-0.036885;0.022411;1.736539;136.736542;0.029881;0.027619;-0.030049;0.028499;0.00373;0.001101;-0.024769;0.382475;-0.028949;0.028949;0.127648
-0.303971;-2.889065;0.39417;-0.777646;0.059683;-0.054415;0.781829;0.01939;9.36927e-04;-0.015368;0.276332;-20.69511;-0.048321;3.618834;0.028088;-0.007762;0.017925;165.416672;120.416664;0.0239;0.021779;0.01939;-0.033075;0.002339;9.36927e-04;0.035414;0.339755;0.020327;-0.020327;0.027743
-0.236806;-2.889065;0.467398;-0.778058;0.059964;-0.051383;0.782055;0.010894;0.002494;-0.019189;0.491672;-4.367328;-0.228973;2.033878;0.026338;-0.012949;0.019644;150.486603;105.486603;0.026191;0.023117;0.010894;-0.039048;6.691998e-04;0.002494;0.039717;0.416015;0.013388;-0.013388;0.044008
-0.169641;-2.889065;0.547061;-0.778083;0.059774;-0.051616;0.782081;-9.181168e-04;0.002577;-0.021762;0.926817;0.356333;2.806364;1.078962;0.022662;-0.021003;0.021833;133.834854;88.834846;0.02911;0.025216;-9.181168e-04;-0.042772;-7.527483e-04;0.002577;0.042019;0.495445;0.001658;-0.001658;0.030993
-0.102475;-2.889065;0.610182;-0.778253;0.059669;-0.052612;0.782308;6.686436e-04;0.003925;-0.017416;0.767865;-0.170359;-5.869965;1.302313;0.019788;-0.015195;0.017491;136.309448;91.309448;0.023322;0.020255;6.686436e-04;-0.033842;-9.895178e-04;0.003925;0.032852;0.557569;0.004594;-0.004594;0.024529
-0.03531;-2.889065;0.683756;-0.778124;0.059492;-0.050703;0.782041;-0.004424;0.005301;-0.008924;0.917271;0.834563;1.198231;1.09019;0.010601;-0.009724;0.010163;122.257294;77.257294;0.01355;0.011739;-0.004424;-0.017017;-8.307738e-04;0.005301;0.016186;0.633053;8.770325e-04;-8.770325e-04;0.055415
0.031855;-2.889065;0.748671;-0.778092;0.059499;-0.054915;0.782293;-0.018663;0.003816;0.00455;4.157236;4.890329;0.204485;0.240544;0.004702;-0.019549;0.012126;17.678106;152.678101;0.016168;0.01485;-0.018663;0.009298;-1.978743e-04;0.003816;-0.009496;0.693756;-0.014847;0.014847;0.055644
0.099021;-2.889065;0.798675;-0.778194;0.059245;-0.059249;0.782691;-0.030245;2.225834e-05;0.014501;6.167491;1358.800659;7.359431e-04;0.16214;0.005849;-0.036071;0.02096;1.363624;136.363617;0.027946;0.026215;-0.030245;0.028839;1.640895e-04;2.225834e-05;-0.028675;0.739426;-0.030222;0.030222;0.014896
0.166186;-2.889065;0.832525;-0.778273;0.059367;-0.067562;0.783453;-0.024723;0.001593;0.014824;3.801441;15.518307;0.06444;0.263058;0.008256;-0.031387;0.019821;175.564911;130.564911;0.026429;0.024152;-0.024723;0.028835;8.130105e-04;0.001593;-0.028022;0.764963;-0.02313;0.02313;0.023513
0.233352;-2.889065;0.878818;-0.778452;0.059411;-0.069382;0.783793;0.010201;0.004297;0.008829;0.124448;-2.373754;-0.421274;8.035513;0.016559;-0.002061;0.00931;104.825195;59.825195;0.012413;0.011786;0.010201;0.016919;7.401527e-04;0.004297;-0.016178;0.809436;0.014498;-0.014498;0.057084
0.300517;-2.889065;0.917011;-0.778402;0.059436;-0.062672;0.783179;0.021413;0.002414;0.002194;-0.099883;-8.870605;-0.112732;-10.011697;0.021663;0.002164;0.00975;54.234173;9.234171;0.012999;0.013777;0.021413;0.003333;0.001055;0.002414;-0.002278;0.854339;0.023827;-0.023827;0.037559
0.367682;-2.889065;0.934098;-0.778393;0.059366;-0.057167;0.782744;0.002758;0.001539;-0.001824;-0.055427;-1.792201;-0.557973;-18.041815;0.004072;2.256956e-04;0.001923;165.405334;120.405342;0.002564;0.002643;0.002758;-0.004183;5.352669e-04;0.001539;0.004718;0.876931;0.004298;-0.004298;0.024015
0.434848;-2.889065;0.954973;-0.778445;0.059262;-0.05762;0.782821;-0.009448;0.002744;-8.29594e-04;3.394074;3.443102;0.290436;0.294631;0.0028;-0.009504;0.006152;48.606567;3.606566;0.008203;0.007447;-0.009448;-7.981874e-04;-8.610005e-04;0.002744;-6.281315e-05;0.897354;-0.006704;0.006704;0.039883
0.502013;-2.889065;0.948598;-0.778673;0.059092;-0.068061;0.783873;0.001084;0.006261;0.002679;0.007094;-0.173149;-5.775372;140.954651;0.007397;-5.247846e-05;0.003725;138.879944;93.879951;0.004966;0.004949;0.001084;0.007685;-0.002328;0.006261;-0.010014;0.880538;0.007345;-0.007345;0.038645
0.569178;-2.889065;0.936501;-0.778776;0.058723;-0.061937;0.783439;-0.005901;0.002616;-0.001005;2.201931;2.255631;0.443335;0.454147;0.002733;-0.006018;0.004376;31.863688;166.863693;0.005834;0.00517;-0.005901;3.515688e-04;-0.002361;0.002616;-0.002712;0.874563;-0.003285;0.003285;0.067336
0.636344;-2.889065;0.927531;-0.778651;0.058809;-0.056357;0.782899;-2.272016e-04;0.007436;0.004313;0.230935;0.030552;32.730705;4.330222;0.009374;-0.002165;0.005769;136.90799;91.90799;0.007693;0.007082;-2.272016e-04;0.00896;-3.33557e-04;0.007436;-0.009293;0.871173;0.007209;-0.007209;0.07643
0.703509;-2.889065;0.932179;-0.778689;0.058954;-0.059203;0.783158;-0.001779;0.013949;0.007538;0.28317;0.127502;7.843002;3.531453;0.016978;-0.004808;0.010893;139.063339;94.063347;0.014524;0.013216;-0.001779;0.015302;-2.269565e-04;0.013949;-0.015529;0.872976;0.01217;-0.01217;0.034986
0.770674;-2.889065;0.954824;-0.779011;0.059086;-0.058891;0.783465;0.00383;0.008734;0.006856;0.073683;-0.438521;-2.280391;13.571614;0.013563;-9.993458e-04;0.007281;123.060295;78.060295;0.009708;0.009393;0.00383;0.013462;2.496932e-04;0.008734;-0.013212;0.895933;0.012563;-0.012563;0.002375
0.83784;-2.889065;0.964762;-0.779155;0.058892;-0.054816;0.783298;-0.005516;0.005692;-0.00169;0.970372;0.969075;1.031912;1.030532;0.005941;-0.005765;0.005853;115.999115;70.999115;0.007804;0.006759;-0.005516;-0.001815;-0.001565;0.005692;2.493786e-04;0.909946;1.760236e-04;-1.760236e-04;0.001865
0.905005;-2.889065;0.917323;-0.779189;0.058726;-0.054033;0.783264;0.007023;0.003223;-0.001223;-0.387835;-2.178881;-0.458951;-2.578416;0.007383;0.002863;0.00226;19.313591;154.313599;0.003013;0.004298;0.007023;-0.002947;4.997888e-04;0.003223;0.003447;0.863289;0.010246;-0.010246;0.049961
0.97217;-2.889065;0.895648;-0.77886;0.059007;-0.055149;0.783037;0.007862;0.003243;0.003737;-0.116528;-2.424421;-0.41247;-8.581658;0.009946;0.001159;0.004393;81.218788;36.218784;0.005858;0.00628;0.007862;0.005137;0.002337;0.003243;-0.0028;0.840499;0.011105;-0.011105;0.04638
1.039336;-2.889065;0.869386;-0.778961;0.059069;-0.056766;0.783257;0.004302;0.004641;0.00672;0.201116;-0.926963;-1.078791;4.972249;0.011194;-0.002251;0.006722;117.42646;72.42646;0.008963;0.008315;0.004302;0.012742;6.979624e-04;0.004641;-0.012045;0.81262;0.008942;-0.008942;0.016687
1.106501;-2.889065;0.836303;-0.779607;0.059054;-0.059869;0.78413;0.006077;0.003995;0.002386;-0.318465;-1.521084;-0.657426;-3.140061;0.007639;0.002433;0.002603;97.141068;52.141068;0.003471;0.004506;0.006077;0.0063;-0.001528;0.003995;-0.007827;0.776434;0.010072;-0.010072;0.033631
1.173667;-2.889065;0.814395;-0.779406;0.058834;-0.062882;0.784149;0.003153;0.003533;-6.536143e-04;-0.66169;-0.892411;-1.12056;-1.511283;0.004024;0.002663;6.806924e-04;173.033859;128.033859;9.075899e-04;0.002363;0.003153;-5.203307e-04;-7.86898e-04;0.003533;-2.665673e-04;0.751513;0.006687;-0.006687;0.03977
1.240832;-2.889065;0.75864;-0.779281;0.059015;-0.062157;0.78398;-0.007779;0.001999;0.00169;3.531696;3.89108;0.256998;0.28315;0.002283;-0.008063;0.005173;32.967201;167.967194;0.006897;0.006276;-0.007779;0.001943;0.001437;0.001999;-5.05556e-04;0.696484;-0.00578;0.00578;0.03463
1.307997;-2.889065;0.699845;-0.779642;0.059119;-0.059118;0.784112;-0.004748;0.002945;-0.002207;1.510429;1.612359;0.620209;0.662063;0.003533;-0.005336;0.004435;94.390022;49.390018;0.005913;0.005156;-0.004748;-0.004548;1.343774e-04;0.002945;0.004682;0.640727;-0.001803;0.001803;0.021043
1.375163;-2.889065;0.642031;-0.779685;0.059083;-0.05987;0.784209;8.573808e-04;6.359739e-04;-0.006648;0.798072;-1.348138;-0.741764;1.25302;0.007395;-0.005902;0.006649;138.770203;93.77021;0.008865;0.007693;8.573808e-04;-0.013115;-1.81082e-04;6.359739e-04;0.012934;0.582162;0.001493;-0.001493;0.035577
1.442328;-2.889065;0.57974;-0.779755;0.059105;-0.060603;0.784336;-0.014216;6.529024e-04;-0.002104;15.354062;21.774292;0.045926;0.065129;9.449301e-04;-0.014509;0.007727;67.953568;22.953566;0.010302;0.010002;-0.014216;-0.006036;0.001828;6.529024e-04;0.007864;0.519137;-0.013564;0.013564;0.056963
1.509493;-2.889065;0.484162;-0.779206;0.059806;-0.05339;0.783319;-0.021303;-0.003297;-0.011599;11.323435;-6.460749;-0.154781;0.088312;0.002383;-0.026983;0.014683;95.327484;50.327484;0.019577;0.018833;-0.021303;-0.025488;0.00229;-0.003297;0.027778;0.430773;-0.0246;0.0246;0.087446
-0.303971;-2.956231;0.377312;-0.777788;0.059598;-0.055655;0.782051;0.013029;0.004007;0.012734;0.226601;-3.251795;-0.307522;4.413033;0.022027;-0.004991;0.013509;108.294777;63.294777;0.018012;0.016601;0.013029;0.025408;5.925027e-05;0.004007;-0.025349;0.321657;0.017036;-0.017036;0.009006
-0.236806;-2.956231;0.46424;-0.777971;0.059435;-0.053383;0.782062;0.014447;0.002467;0.013653;0.276122;-5.856453;-0.170752;3.621594;0.023366;-0.006452;0.014909;107.767517;62.767521;0.019879;0.018115;0.014447;0.027854;-5.48253e-04;0.002467;-0.028402;0.410857;0.016914;-0.016914;0.031412
-0.169641;-2.956231;0.538078;-0.778062;0.059346;-0.050189;0.781935;0.002352;0.002441;0.008936;0.577082;-0.963829;-1.037529;1.732856;0.011333;-0.00654;0.008936;128.229187;83.229187;0.011915;0.010442;0.002352;0.018675;-8.021467e-04;0.002441;-0.019477;0.48789;0.004793;-0.004793;0.033529
-0.102475;-2.956231;0.619596;-0.778098;0.059286;-0.052291;0.782103;-0.005067;0.002436;0.00633;1.435414;2.080129;0.48074;0.696663;0.006043;-0.008674;0.007358;155.624252;110.624252;0.009811;0.008541;-0.005067;0.013362;-7.019901e-04;0.002436;-0.014064;0.567305;-0.002631;0.002631;0.037724
-0.03531;-2.956231;0.699607;-0.778099;0.059123;-0.052537;0.782109;-0.01057;0.001872;0.008442;2.417292;5.64678;0.177092;0.413686;0.006137;-0.014835;0.010486;166.239319;121.239311;0.013982;0.012451;-0.01057;0.017323;-4.395609e-04;0.001872;-0.017762;0.64707;-0.008698;0.008698;0.058625
0.031855;-2.956231;0.760807;-0.778324;0.059173;-0.05535;0.78253;-0.02236;0.002741;0.004174;6.741465;8.156968;0.122595;0.148336;0.003417;-0.023036;0.013227;22.394167;157.394165;0.017635;0.016614;-0.02236;0.009133;-7.848737e-04;0.002741;-0.009917;0.705457;-0.019619;0.019619;0.054623
0.099021;-2.956231;0.813016;-0.778408;0.058957;-0.058964;0.782861;-0.02152;0.006685;-0.006022;2.873791;3.2191;0.310646;0.347972;0.007917;-0.022752;0.015334;74.920532;29.920532;0.020446;0.018384;-0.02152;-0.011554;-4.896899e-04;0.006685;0.011065;0.754052;-0.014835;0.014835;0.026943
0.166186;-2.956231;0.845639;-0.778398;0.058964;-0.063302;0.783191;-0.008246;0.014553;-0.017435;0.737041;0.566628;1.764825;1.356776;0.023985;-0.017678;0.020831;123.016647;78.016647;0.027775;0.024145;-0.008246;-0.03688;0.00201;0.014553;0.038891;0.782337;0.006307;-0.006307;0.026328
0.233352;-2.956231;0.868086;-0.778371;0.059029;-0.06218;0.783079;0.010475;0.007692;-0.021251;0.402001;-1.361738;-0.734355;2.487554;0.03038;-0.012213;0.021296;147.318878;102.318878;0.028395;0.025325;0.010475;-0.045048;0.002547;0.007692;0.047595;0.805906;0.018167;-0.018167;0.045182
0.300517;-2.956231;0.891157;-0.77813;0.059089;-0.056853;0.782439;0.011246;0.002263;-0.007723;0.138947;-4.96995;-0.201209;7.197013;0.015688;-0.00218;0.008934;168.876373;123.876366;0.011912;0.011256;0.011246;-0.016502;0.001057;0.002263;0.017559;0.834304;0.013508;-0.013508;0.046217
0.367682;-2.956231;0.910773;-0.778248;0.059103;-0.055022;0.782426;-4.035915e-04;0.002738;0.001195;0.256821;0.147401;6.784226;3.893769;0.003141;-8.067213e-04;0.001974;138.722275;93.722267;0.002632;0.002408;-4.035915e-04;0.002351;3.969297e-05;0.002738;-0.002311;0.855752;0.002334;-0.002334;0.047194
0.434848;-2.956231;0.934268;-0.778521;0.059155;-0.057648;0.78289;-0.01026;0.001719;-7.583499e-04;5.833816;5.968271;0.167553;0.171414;0.001767;-0.010308;0.006037;50.488407;5.488405;0.00805;0.00753;-0.01026;-0.001039;-4.776386e-04;0.001719;5.614226e-04;0.876621;-0.008541;0.008541;0.035131
0.502013;-2.956231;0.945321;-0.778734;0.059243;-0.065275;0.783708;-0.002122;0.002845;7.110655e-04;0.754407;0.745794;1.340853;1.325544;0.002945;-0.002222;0.002583;169.501007;124.501015;0.003444;0.002993;-0.002122;0.004827;-0.003405;0.002845;-0.008232;0.880046;7.232715e-04;-7.232715e-04;0.03272
0.569178;-2.956231;0.939977;-0.778961;0.058902;-0.061239;0.783581;-0.005586;0.001075;6.536098e-04;4.961047;5.195076;0.19249;0.20157;0.001139;-0.005649;0.003394;16.046621;151.046616;0.004525;0.004198;-0.005586;0.003056;-0.001748;0.001075;-0.004804;0.878739;-0.004511;0.004511;0.047992
0.636344;-2.956231;0.915467;-0.778958;0.05889;-0.061531;0.783601;-0.001406;-1.260273e-04;-1.217871e-04;-12.378171;-11.159392;-0.089611;-0.080787;-1.14546e-04;-0.001418;6.516619e-04;42.745712;177.745712;8.688825e-04;9.094722e-04;-0.001406;8.753245e-05;-3.311066e-04;-1.260273e-04;-4.186391e-04;0.853937;-0.001532;0.001532;0.038643
0.703509;-2.956231;0.912706;-0.778959;0.058774;-0.06176;0.78361;0.005224;0.002092;-6.791232e-04;-0.363744;-2.496634;-0.400539;-2.749184;0.005365;0.001951;0.001707;40.708717;175.70871;0.002276;0.003135;0.005224;2.918843e-04;-0.00165;0.002092;-0.001942;0.850946;0.007316;-0.007316;0.013804
0.770674;-2.956231;0.949449;-0.778894;0.058609;-0.057279;0.783193;0.007871;0.003305;-0.002018;-0.294248;-2.381615;-0.419883;-3.398489;0.008635;0.002541;0.003047;15.146291;150.146286;0.004063;0.005124;0.007871;-0.003859;-1.772358e-04;0.003305;0.003682;0.89217;0.011176;-0.011176;0.005598
0.83784;-2.956231;0.953275;-0.779106;0.058798;-0.055793;0.783311;-0.00212;0.003113;-0.001386;0.712895;0.681129;1.468151;1.402731;0.003458;-0.002465;0.002961;114.550652;69.550652;0.003948;0.003435;-0.00212;-0.002666;-1.058725e-04;0.003113;0.002561;0.897482;9.926943e-04;-9.926943e-04;0.005638
0.905005;-2.956231;0.919076;-0.779424;0.058629;-0.057584;0.783745;0.009051;0.001056;-0.006983;0.228439;-8.568922;-0.116701;4.377534;0.0131;-0.002992;0.008046;166.104553;121.104553;0.010728;0.009883;0.009051;-0.01494;9.741338e-04;0.001056;0.015914;0.861492;0.010107;-0.010107;0.022084
0.97217;-2.956231;0.909762;-0.779067;0.058861;-0.059206;0.783528;1.129577e-04;-1.157091e-04;-0.003971;1.000693;0.976222;1.024357;0.999308;0.003971;-0.003974;0.003973;135.818039;90.818039;0.005297;0.004587;1.129577e-04;-0.009958;0.002016;-1.157091e-04;0.011973;0.850557;-2.751319e-06;2.751319e-06;0.015179
1.039336;-2.956231;0.884268;-0.77914;0.059022;-0.057026;0.78345;-0.003122;0.004089;-2.118032e-04;0.763834;0.763475;1.3098;1.309185;0.004095;-0.003128;0.003611;150.456848;105.456841;0.004815;0.004182;-0.003122;4.045703e-05;-4.640634e-04;0.004089;-5.045204e-04;0.827242;9.670577e-04;-9.670577e-04;0.012789
1.106501;-2.956231;0.844117;-0.779649;0.058796;-0.059744;0.784143;0.008814;0.005878;0.005497;-0.127042;-1.499448;-0.666912;-7.87139;0.013036;0.001656;0.00569;103.667198;58.667194;0.007587;0.008195;0.008814;0.012178;-0.001184;0.005878;-0.013362;0.784373;0.014692;-0.014692;0.031733
1.173667;-2.956231;0.812783;-0.779428;0.0587;-0.060209;0.78395;-7.038986e-04;0.003899;0.010772;0.746656;0.180519;5.539587;1.339304;0.012613;-0.009418;0.011015;136.190659;91.190659;0.014687;0.012764;-7.038986e-04;0.020139;0.001405;0.003899;-0.018735;0.752574;0.003195;-0.003195;0.040279
1.240832;-2.956231;0.743411;-0.779279;0.05885;-0.058142;0.783658;-0.002308;0.001854;0.010066;1.045169;1.244955;0.803242;0.956783;0.010052;-0.010506;0.010279;141.57663;96.576637;0.013705;0.01187;-0.002308;0.01888;0.001252;0.001854;-0.017628;0.685268;-4.540294e-04;4.540294e-04;0.0297
1.307997;-2.956231;0.684129;-0.779568;0.05888;-0.059487;0.784048;0.012481;0.002584;-0.003026;-0.129901;-4.830329;-0.207025;-7.698197;0.013333;0.001732;0.0058;23.174879;158.174881;0.007734;0.008371;0.012481;-0.004655;-0.001397;0.002584;0.003258;0.624642;0.015065;-0.015065;0.014215
1.375163;-2.956231;0.664279;-0.779578;0.058528;-0.06362;0.784357;-0.009134;0.004329;-0.005902;1.733586;2.109998;0.473934;0.576839;0.00655;-0.011355;0.008953;97.66317;52.66317;0.011937;0.010461;-0.009134;-0.010846;-9.586836e-04;0.004329;0.009887;0.600659;-0.004805;0.004805;0.031042
1.442328;-2.956231;0.617162;-0.779712;0.058611;-0.056898;0.783979;1.491926e-04;0.005998;-0.005195;0.319613;-0.024872;-40.205635;3.128786;0.009035;-0.002888;0.005962;130.921112;85.92112;0.007949;0.007182;1.491926e-04;-0.013111;0.002721;0.005998;0.015833;0.560264;0.006148;-0.006148;0.050945
1.509493;-2.956231;0.505433;-0.779328;0.059203;-0.063378;0.784139;0.024859;0.008552;-0.02364;0.199011;-2.906792;-0.344022;5.024858;0.041712;-0.008301;0.025007;160.275681;115.275681;0.033342;0.030949;0.024859;-0.050878;0.003597;0.008552;0.054475;0.442055;0.033411;-0.033411;0.067122
-0.236806;-3.023396;0.491342;-0.777829;0.059313;-0.057229;0.782183;0.015051;-0.005313;0.008973;0.47192;2.833012;0.352981;2.119001;0.01844;-0.008702;0.013571;98.256454;53.256458;0.018095;0.016004;0.015051;0.019473;-0.001527;-0.005313;-0.021;0.434113;0.009738;-0.009738;0.030781
-0.169641;-3.023396;0.564426;-0.778003;0.059212;-0.054931;0.782184;0.00868;-0.003195;0.008223;0.574346;2.716392;0.368135;1.741111;0.012885;-0.0074;0.010143;109.436905;64.436905;0.013524;0.011854;0.00868;0.018251;-0.001805;-0.003195;-0.020056;0.509495;0.005485;-0.005485;0.046923
-0.102475;-3.023396;0.644818;-0.778014;0.058996;-0.054044;0.782117;-0.00588;6.556127e-04;0.007479;1.941448;8.968928;0.111496;0.515079;0.005549;-0.010774;0.008162;155.536438;110.536438;0.010882;0.009584;-0.00588;0.015779;-8.211037e-04;6.556127e-04;-0.0166;0.590775;-0.005225;0.005225;0.051743
-0.03531;-3.023396;0.706665;-0.777919;0.058982;-0.055796;0.782144;-0.010907;0.002361;0.007898;2.414663;4.620482;0.216428;0.414136;0.006041;-0.014587;0.010314;169.037643;124.037643;0.013752;0.012246;-0.010907;0.015918;-1.22221e-04;0.002361;-0.016041;0.650869;-0.008546;0.008546;0.036579
0.031855;-3.023396;0.765714;-0.778235;0.05895;-0.056755;0.782525;-0.011525;0.002243;0.00321;4.141192;5.137939;0.194631;0.241476;0.002955;-0.012237;0.007596;13.360231;148.360229;0.010128;0.009301;-0.011525;0.006873;-4.519172e-04;0.002243;-0.007325;0.70896;-0.009282;0.009282;0.026191
0.099021;-3.023396;0.819304;-0.778371;0.058912;-0.057494;0.782711;0.003463;-5.211748e-04;-0.005425;0.594267;6.644516;0.1505;1.682745;0.007251;-0.004309;0.00578;153.062149;108.062157;0.007706;0.006745;0.003463;-0.010568;-2.832583e-04;-5.211748e-04;0.010284;0.761811;0.002942;-0.002942;0.035324
0.166186;-3.023396;0.85038;-0.778236;0.058857;-0.053068;0.78226;0.013763;-0.001047;-0.014673;0.442139;13.140174;0.076102;2.261732;0.022794;-0.010078;0.016436;159.797836;114.797844;0.021915;0.019446;0.013763;-0.029786;4.396239e-04;-0.001047;0.030226;0.797312;0.012716;-0.012716;0.066083
0.233352;-3.023396;0.87779;-0.778043;0.058918;-0.052504;0.782035;-0.008174;0.007087;-0.01191;1.079893;1.153333;0.867052;0.926017;0.013602;-0.014688;0.014145;117.542801;72.542801;0.01886;0.016337;-0.008174;-0.025625;0.001804;0.007087;0.027429;0.825286;-0.001087;0.001087;0.087685
0.300517;-3.023396;0.901867;-0.778211;0.058977;-0.058325;0.782619;-0.019428;0.002503;0.005303;5.552241;7.761723;0.128837;0.180107;0.003718;-0.020642;0.01218;19.694429;154.694427;0.01624;0.015154;-0.019428;0.009213;0.001392;0.002503;-0.007821;0.843542;-0.016925;0.016925;0.074556
0.367682;-3.023396;0.944537;-0.778337;0.059025;-0.061677;0.783005;-6.672936e-06;-0.003344;0.007598;1.549018;0;0;0.64557;0.006104;-0.009455;0.007779;136.209595;91.209587;0.010372;0.009052;-6.672936e-06;0.013937;0.00126;-0.003344;-0.012677;0.88286;-0.003351;0.003351;0.049516
0.434848;-3.023396;0.951838;-0.778566;0.059052;-0.056147;0.782818;-0.001868;0.003439;5.858521e-04;0.551499;0.543166;1.841058;1.813239;0.003503;-0.001932;0.002718;152.494888;107.494896;0.003623;0.003181;-0.001868;0.001441;-2.696294e-04;0.003439;-0.001711;0.895691;0.001571;-0.001571;0.017056
0.502013;-3.023396;0.947364;-0.778807;0.059027;-0.055812;0.783032;-0.00219;0.002968;-0.001336;0.763629;0.737711;1.355545;1.309536;0.003293;-0.002515;0.002904;127.778511;82.778511;0.003872;0.003364;-0.00219;-0.001684;-9.874651e-04;0.002968;6.96708e-04;0.891553;7.784715e-04;-7.784715e-04;0.018566
0.569178;-3.023396;0.950484;-0.778814;0.058815;-0.059592;0.783302;2.065342e-06;0.006882;0.001745;0.056891;0;0;17.577604;0.0073;-4.152776e-04;0.003857;112.306351;67.306351;0.005143;0.005011;2.065342e-06;5.941867e-04;0.002896;0.006882;0.002302;0.890892;0.006884;-0.006884;0.027267
0.636344;-3.023396;0.925059;-0.77884;0.058898;-0.06074;0.783422;-0.004289;0.019466;-0.002275;0.228896;0.220343;4.538379;4.368797;0.019682;-0.004505;0.012094;127.59623;82.59623;0.016125;0.014853;-0.004289;-0.005919;0.001369;0.019466;0.007288;0.864319;0.015177;-0.015177;0.020609
0.703509;-3.023396;0.925739;-0.779029;0.058634;-0.056757;0.783292;0.004262;0.022857;-0.011442;0.041813;-0.18647;-5.362784;23.915796;0.028303;-0.001183;0.014743;149.205856;104.205849;0.019658;0.019275;0.004262;-0.017056;-0.005828;0.022857;0.011228;0.868982;0.027119;-0.027119;0.028509
0.770674;-3.023396;0.946382;-0.77892;0.0583;-0.054657;0.783008;0.001135;0.006602;-0.003508;0.069669;-0.171894;-5.817552;14.353554;0.008316;-5.793498e-04;0.004448;147.849777;102.849777;0.00593;0.005747;0.001135;-0.005427;-0.00159;0.006602;0.003837;0.891725;0.007736;-0.007736;0.006941
0.83784;-3.023396;0.956174;-0.779027;0.058584;-0.056015;0.783232;0.003538;0.002665;0.001416;-0.353431;-1.327554;-0.753265;-2.82941;0.004583;0.00162;0.001482;80.116188;35.116184;0.001976;0.002684;0.003538;0.001273;0.001559;0.002665;2.855001e-04;0.900159;0.006203;-0.006203;0.00455
0.905005;-3.023396;0.925056;-0.779292;0.058615;-0.060486;0.783831;0.013395;0.002509;-4.711356e-04;-0.185524;-5.338318;-0.187325;-5.390151;0.013415;0.002489;0.005463;41.012817;176.012817;0.007284;0.00824;0.013395;-8.916569e-04;-5.061436e-05;0.002509;8.410426e-04;0.864569;0.015904;-0.015904;4.045328e-04
0.97217;-3.023396;0.908612;-0.77914;0.058556;-0.06276;0.783854;-0.004424;0.003643;-0.001823;1.193584;1.21447;0.823405;0.837812;0.004036;-0.004817;0.004426;93.367691;48.367695;0.005902;0.005118;-0.004424;-0.003056;-5.913218e-04;0.003643;0.002464;0.845851;-7.812739e-04;7.812739e-04;0.007288
1.039336;-3.023396;0.891605;-0.779121;0.058419;-0.0556;0.783284;-0.012326;0.004591;-0.001038;2.661819;2.684798;0.372468;0.375683;0.004655;-0.01239;0.008522;51.739834;6.739833;0.011363;0.010173;-0.012326;-0.001478;-5.988425e-04;0.004591;8.788269e-04;0.836005;-0.007735;0.007735;0.031911
1.106501;-3.023396;0.843911;-0.779487;0.058379;-0.056754;0.783728;0.006876;0.002751;6.074679e-04;-0.382532;-2.499071;-0.400149;-2.614163;0.006963;0.002664;0.00215;53.077965;8.077967;0.002866;0.004057;0.006876;5.857973e-04;6.291385e-04;0.002751;4.334118e-05;0.787157;0.009627;-0.009627;0.042565
1.173667;-3.023396;0.822525;-0.779612;0.058609;-0.057817;0.783946;-0.002334;9.54114e-04;-3.873717e-04;2.380793;2.445951;0.408839;0.420028;9.991375e-04;-0.002379;0.001689;88.30661;43.30661;0.002252;0.002004;-0.002334;-0.002694;0.00192;9.54114e-04;0.004614;0.764708;-0.00138;0.00138;0.029097
1.240832;-3.023396;0.76025;-0.779603;0.058831;-0.056871;0.783886;5.063862e-04;0.002263;0.003965;0.491499;-0.223777;-4.468734;2.034593;0.005446;-0.002677;0.004061;125.633202;80.633202;0.005415;0.00478;5.063862e-04;0.00625;0.001681;0.002263;-0.004569;0.703379;0.002769;-0.002769;0.010809
1.307997;-3.023396;0.694969;-0.779709;0.058865;-0.061651;0.784354;0.015826;0.006518;0.010802;0.025727;-2.427992;-0.411863;38.869221;0.022934;-5.900207e-04;0.011762;102.702568;57.702568;0.015682;0.01549;0.015826;0.023524;-0.00192;0.006518;-0.025445;0.633318;0.022344;-0.022344;0.015668
1.375163;-3.023396;0.66476;-0.779615;0.058252;-0.064142;0.784415;-0.015484;4.254853e-04;0.018121;2.228259;36.392307;0.027478;0.448781;0.01226;-0.027319;0.01979;157.591125;112.591125;0.026386;0.023396;-0.015484;0.037254;-0.001013;4.254853e-04;-0.038267;0.600618;-0.015059;0.015059;0.033789
1.442328;-3.023396;0.582028;-0.779692;0.058422;-0.057879;0.784017;0.006515;-0.003836;0.021879;0.887555;1.698278;0.588832;1.12669;0.023822;-0.021143;0.022483;126.42067;81.42067;0.029977;0.025976;0.006515;0.041781;0.001977;-0.003836;-0.039803;0.524149;0.002679;-0.002679;0.029347
1.509493;-3.023396;0.48556;-0.779639;0.058506;-0.066043;0.784616;0.04749;-0.004105;0.028636;0.279737;11.569054;0.086437;3.574786;0.060235;-0.01685;0.038543;94.818893;49.818893;0.05139;0.046796;0.04749;0.056057;0.001215;-0.004105;-0.054842;0.419517;0.043385;-0.043385;0.046623
-0.236806;-3.090561;0.527298;-0.777996;0.059311;-0.05618;0.782273;0.021863;0.003216;2.554154e-04;-0.146937;-6.797137;-0.147121;-6.805625;0.021866;0.003213;0.009327;50.819191;5.81919;0.012436;0.013633;0.021863;0.002482;-0.001971;0.003216;-0.004453;0.471118;0.025079;-0.025079;0.035338
-0.169641;-3.090561;0.600828;-0.777892;0.058995;-0.054513;0.782028;0.009968;0.003352;-0.002774;-0.213436;-2.973463;-0.336308;-4.685237;0.010977;0.002343;0.004317;23.918261;158.918259;0.005756;0.006676;0.009968;-0.003027;-0.002521;0.003352;5.064539e-04;0.546315;0.01332;-0.01332;0.052703
-0.102475;-3.090561;0.647099;-0.777999;0.058751;-0.054283;0.782101;-0.01041;0.003722;9.063272e-04;2.769573;2.797098;0.357513;0.361066;0.00378;-0.010468;0.007124;32.04393;167.04393;0.009498;0.008523;-0.01041;0.002032;-2.192855e-04;0.003722;-0.002251;0.592816;-0.006688;0.006688;0.052283
-0.03531;-3.090561;0.683741;-0.778036;0.059046;-0.057282;0.782373;-0.009005;0.00342;0.003737;2.252952;2.632889;0.379811;0.443862;0.004458;-0.010043;0.00725;4.872313;139.872314;0.009667;0.008576;-0.009005;0.006975;4.980869e-04;0.00342;-0.006477;0.626459;-0.005585;0.005585;0.016293
0.031855;-3.090561;0.743814;-0.778198;0.058938;-0.056515;0.782471;-0.007376;0.003006;0.002674;2.195956;2.453992;0.407499;0.455383;0.003654;-0.008024;0.005839;3.926722;138.926727;0.007785;0.006898;-0.007376;0.005782;-4.331013e-04;0.003006;-0.006215;0.687298;-0.00437;0.00437;0.011078
0.099021;-3.090561;0.800506;-0.778176;0.058908;-0.058755;0.782611;0.008853;0.004839;0.005715;-0.061166;-1.829664;-0.546549;-16.348942;0.012903;7.892176e-04;0.006057;99.103638;54.103642;0.008076;0.008351;0.008853;0.010979;4.49706e-04;0.004839;-0.01053;0.741751;0.013692;-0.013692;0.012306
0.166186;-3.090561;0.830281;-0.778218;0.058963;-0.052588;0.782218;0.023226;0.006049;0.009414;-0.069173;-3.839729;-0.260435;-14.456574;0.027381;0.001894;0.012743;84.861351;39.861351;0.016991;0.017656;0.023226;0.018595;2.337339e-04;0.006049;-0.018361;0.777693;0.029275;-0.029275;0.021051
0.233352;-3.090561;0.880855;-0.778304;0.058806;-0.049897;0.782116;-0.017278;0.005673;0.00434;2.794822;3.045856;0.328315;0.357805;0.006466;-0.018072;0.012269;12.424798;147.424805;0.016359;0.014686;-0.017278;0.010029;-0.001348;0.005673;-0.011378;0.830958;-0.011606;0.011606;0.045362
0.300517;-3.090561;0.918593;-0.77861;0.058667;-0.059391;0.783072;-0.031112;0.005118;-7.962064e-04;6.061321;6.078615;0.164511;0.164981;0.005136;-0.03113;0.018133;44.458492;179.458496;0.024177;0.02266;-0.031112;2.142068e-05;-0.001614;0.005118;-0.001635;0.859202;-0.025994;0.025994;0.042014
0.367682;-3.090561;0.943513;-0.778618;0.058682;-0.064379;0.783475;0.001344;0.00296;1.393452e-04;-0.448186;-0.454022;-2.202537;-2.231216;0.002972;0.001332;8.19937e-04;128.113007;83.113014;0.001093;0.001719;0.001344;-1.072236e-05;2.894127e-04;0.00296;3.001351e-04;0.879134;0.004304;-0.004304;0.058741
0.434848;-3.090561;0.936156;-0.778727;0.058707;-0.058436;0.78312;-0.002336;0.002168;0.00497;1.031253;1.077456;0.928112;0.969694;0.005372;-0.00554;0.005456;147.852814;102.852821;0.007275;0.0063;-0.002336;0.008578;0.001361;0.002168;-0.007217;0.87772;-1.678958e-04;1.678958e-04;0.04504
0.502013;-3.090561;0.928017;-0.778881;0.058646;-0.055324;0.783042;-0.002266;0.004145;-0.00176;0.591285;0.546784;1.828877;1.691231;0.004596;-0.002718;0.003657;122.503067;77.503067;0.004876;0.004269;-0.002266;-0.003041;-4.783944e-04;0.004145;0.002563;0.872694;0.001879;-0.001879;0.019443
0.569178;-3.090561;0.951301;-0.778715;0.058613;-0.059188;0.783158;-0.001592;0.006368;-0.001317;0.274195;0.249996;4.000069;3.647034;0.006581;-0.001804;0.004192;151.151581;106.151581;0.00559;0.005096;-0.001592;-7.223119e-04;-0.001912;0.006368;-0.00119;0.892113;0.004776;-0.004776;0.013156
0.636344;-3.090561;0.964641;-0.778857;0.058712;-0.054061;0.782935;0.00102;0.012101;-0.008769;0.225118;-0.084268;-11.866843;4.442123;0.016933;-0.003812;0.010373;144.762833;99.762833;0.01383;0.012751;0.00102;-0.013929;-0.003609;0.012101;0.01032;0.91058;0.013121;-0.013121;0.012767
0.703509;-3.090561;0.969243;-0.779125;0.058522;-0.049974;0.782916;-5.654705e-04;0.008212;-0.003357;0.18207;0.068863;14.521555;5.492393;0.009348;-0.001702;0.005525;144.195618;99.195625;0.007367;0.00687;-5.654705e-04;-0.004675;-0.002039;0.008212;0.002636;0.91927;0.007646;-0.007646;0.021029
0.770674;-3.090561;0.95365;-0.778965;0.058291;-0.053628;0.782982;0.001799;0.001661;9.74899e-04;-0.278072;-1.082811;-0.923523;-3.596195;0.002708;7.52889e-04;9.77323e-04;99.074699;54.074699;0.001303;0.001614;0.001799;0.00168;2.693176e-04;0.001661;-0.001411;0.900022;0.00346;-0.00346;0.025667
0.83784;-3.090561;0.944689;-0.778945;0.058394;-0.05414;0.783005;0.005478;0.002599;0.001338;-0.345424;-2.107291;-0.474543;-2.894989;0.006003;0.002074;0.001965;65.052734;20.052732;0.00262;0.003521;0.005478;0.00114;0.001535;0.002599;3.953429e-04;0.890548;0.008077;-0.008077;0.013264
0.905005;-3.090561;0.934448;-0.779057;0.05838;-0.058149;0.783403;0.013875;0.001347;0.001001;-0.090808;-10.303772;-0.097052;-11.012292;0.013955;0.001267;0.006344;52.183521;7.183523;0.008458;0.008911;0.013875;0.001706;2.958918e-04;0.001347;-0.00141;0.8763;0.015222;-0.015222;0.003394
0.97217;-3.090561;0.908372;-0.779028;0.058358;-0.060539;0.783553;-0.003027;-3.175415e-04;8.13125e-04;-35.254787;-9.532644;-0.104903;-0.028365;-9.225131e-05;-0.003252;0.00158;4.337149;139.337143;0.002107;0.002138;-0.003027;0.002831;-0.001205;-3.175415e-04;-0.004036;0.847834;-0.003345;0.003345;0.030773
1.039336;-3.090561;0.888494;-0.779103;0.05822;-0.057593;0.783395;-0.008841;7.449026e-04;-0.002717;6.540384;11.868311;0.084258;0.152896;0.001461;-0.009557;0.005509;77.215492;32.215488;0.007346;0.00691;-0.008841;-0.005539;1.058897e-04;7.449026e-04;0.005645;0.830901;-0.008096;0.008096;0.054591
1.106501;-3.090561;0.848213;-0.7795;0.058503;-0.058383;0.783869;0.007861;-0.001365;-0.005101;0.35846;5.759848;0.173616;2.78971;0.010126;-0.00363;0.006878;168.609924;123.609932;0.00917;0.008231;0.007861;-0.012035;0.001832;-0.001365;0.013868;0.78983;0.006496;-0.006496;0.049059
1.173667;-3.090561;0.820284;-0.779527;0.058583;-0.062393;0.784211;-0.00412;2.918888e-04;-0.005932;1.867046;14.113768;0.070853;0.535606;0.004415;-0.008242;0.006329;116.832649;71.832649;0.008438;0.007418;-0.00412;-0.012634;7.706962e-04;2.918888e-04;0.013405;0.75789;-0.003828;0.003828;0.046166
1.240832;-3.090561;0.767422;-0.779585;0.058604;-0.057308;0.783883;-0.018992;0.002623;-2.835345e-04;7.231535;7.240369;0.138114;0.138283;0.002627;-0.018995;0.010811;44.161266;179.16127;0.014415;0.013624;-0.018992;1.712161e-04;-7.38285e-04;0.002623;-9.09501e-04;0.710113;-0.016369;0.016369;0.028874
1.307997;-3.090561;0.713091;-0.779778;0.05852;-0.054496;0.783867;-0.00288;0.006537;0.013124;0.768137;0.440562;2.269827;1.301852;0.015771;-0.012114;0.013943;141.550339;96.550346;0.018591;0.016146;-0.00288;0.028843;-0.002596;0.006537;-0.031439;0.658595;0.003657;-0.003657;0.019754
1.375163;-3.090561;0.658501;-0.779596;0.058088;-0.054494;0.783655;-0.010158;9.665307e-04;0.021313;1.527266;10.50932;0.095154;0.654765;0.017432;-0.026623;0.022027;148.801132;103.801125;0.029369;0.025618;-0.010158;0.041257;0.00137;9.665307e-04;-0.039887;0.604006;-0.009191;0.009191;0.043616
1.442328;-3.090561;0.553926;-0.779577;0.05858;-0.050956;0.783433;4.299343e-04;-0.001956;0.020115;1.078693;0.219849;4.548581;0.927048;0.019387;-0.020913;0.02015;134.564484;89.564484;0.026867;0.023273;4.299343e-04;0.037431;0.002799;-0.001956;-0.034631;0.502971;-0.001526;0.001526;0.028968
1.509493;-3.090561;0.452949;-0.77975;0.058684;-0.055667;0.783934;0.019044;-0.002071;0.030451;0.58314;9.194282;0.108763;1.714854;0.040715;-0.023743;0.032229;117.249229;72.249229;0.042972;0.037642;0.019044;0.059322;0.001579;-0.002071;-0.057743;0.397283;0.016972;-0.016972;0.029109
-0.236806;-3.157727;0.50146;-0.778095;0.058919;-0.05846;0.782509;0.036047;-0.003445;-0.012989;0.183634;10.464269;0.095563;5.445612;0.039936;-0.007334;0.023635;10.071384;145.071381;0.031513;0.029376;0.036047;-0.02506;-9.168857e-04;-0.003445;0.024143;0.443;0.032603;-0.032603;0.037738
-0.169641;-3.157727;0.555991;-0.777968;0.05868;-0.052847;0.781965;0.015459;-0.006911;-0.014307;0.618991;2.236792;0.447069;1.615533;0.022434;-0.013886;0.01816;163.51442;118.51442;0.024214;0.021162;0.015459;-0.026711;-0.001903;-0.006911;0.024808;0.503145;0.008548;-0.008548;0.054062
-0.102475;-3.157727;0.598021;-0.77806;0.05857;-0.054874;0.782189;-0.017784;-0.003993;-0.01475;5.037348;-4.454093;-0.224513;0.198517;0.005394;-0.02717;0.016282;104.440071;59.440067;0.02171;0.020154;-0.017784;-0.029701;2.017037e-04;-0.003993;0.029903;0.543148;-0.021777;0.021777;0.042238
-0.03531;-3.157727;0.674213;-0.778121;0.058741;-0.057725;0.782467;-0.016925;0.002232;-0.005815;4.807101;7.581748;0.131896;0.208026;0.003859;-0.018552;0.011205;81.611832;36.611835;0.014941;0.013835;-0.016925;-0.012421;7.90874e-04;0.002232;0.013212;0.616488;-0.014692;0.014692;0.038565
0.031855;-3.157727;0.739687;-0.778332;0.058718;-0.056874;0.782613;-0.009364;0.003054;0.001237;2.986589;3.065938;0.326164;0.33483;0.003176;-0.009486;0.006331;24.070652;159.070648;0.008441;0.007607;-0.009364;0.003102;-6.28404e-04;0.003054;-0.00373;0.682813;-0.00631;0.00631;0.032796
0.099021;-3.157727;0.778789;-0.778225;0.058709;-0.060558;0.782783;0.006345;0.004065;0.001057;-0.540126;-1.560806;-0.640695;-1.85142;0.006759;0.003651;0.001554;75.310013;30.310011;0.002072;0.003907;0.006345;0.002727;-6.140613e-04;0.004065;-0.003341;0.718232;0.01041;-0.01041;0.014191
0.166186;-3.157727;0.820004;-0.778035;0.05865;-0.057782;0.78238;0.019361;0.004282;0.003474;-0.174921;-4.521693;-0.221156;-5.716856;0.020122;0.00352;0.008301;68.136612;23.13661;0.011068;0.012409;0.019361;0.008139;-0.001191;0.004282;-0.009329;0.762222;0.023642;-0.023642;0.006418
0.233352;-3.157727;0.864222;-0.778246;0.058477;-0.055785;0.782431;-0.008503;0.004535;0.00331;1.744928;1.875073;0.533313;0.573089;0.005327;-0.009296;0.007312;176.651794;131.651794;0.009749;0.008546;-0.008503;0.008696;-0.002076;0.004535;-0.010772;0.808437;-0.003968;0.003968;0.018923
0.300517;-3.157727;0.897729;-0.77854;0.058281;-0.058907;0.782937;-0.012509;0.001699;-0.006963;3.380282;7.364243;0.135791;0.295833;0.004542;-0.015352;0.009947;90.508812;45.508812;0.013263;0.012038;-0.012509;-0.012677;-0.001248;0.001699;0.011429;0.838822;-0.010811;0.010811;0.034164
0.367682;-3.157727;0.923333;-0.778655;0.058258;-0.058377;0.78301;0.004146;-0.007302;-0.003896;1.590288;0.567814;1.761141;0.628817;0.005346;-0.008502;0.006924;152.741501;107.741508;0.009232;0.008064;0.004146;-0.008167;3.750044e-04;-0.007302;0.008542;0.864956;-0.003156;0.003156;0.057363
0.434848;-3.157727;0.925546;-0.778852;0.058317;-0.053149;0.782839;0.002401;9.750171e-05;-0.002106;0.315399;-24.628746;-0.040603;3.170588;0.00365;-0.001151;0.002401;163.872406;118.872414;0.003201;0.002894;0.002401;-0.004354;1.412989e-04;9.750171e-05;0.004495;0.872397;0.002499;-0.002499;0.047245
0.502013;-3.157727;0.936742;-0.778798;0.058263;-0.053338;0.782793;-0.008381;0.004283;-7.449742e-06;1.956905;1.956905;0.511011;0.511011;0.004283;-0.008381;0.006332;33.551849;168.551849;0.008442;0.007438;-0.008381;8.607874e-04;-8.756869e-04;0.004283;-0.001736;0.883404;-0.004098;0.004098;0.004387
0.569178;-3.157727;0.962126;-0.778773;0.058306;-0.058284;0.783125;-0.00153;0.003396;5.420814e-04;0.459862;0.450485;2.21983;2.174564;0.003455;-0.001589;0.002522;118.425514;73.425514;0.003362;0.002977;-0.00153;1.888689e-04;8.952939e-04;0.003396;7.06425e-04;0.903842;0.001866;-0.001866;0.012572
0.636344;-3.157727;0.973724;-0.778908;0.058377;-0.055264;0.783046;0.002496;0.004009;-2.230635e-04;-0.609515;-0.622434;-1.606595;-1.64065;0.004042;0.002463;7.891025e-04;139.280197;94.280197;0.001052;0.002352;0.002496;-6.720676e-04;2.259405e-04;0.004009;8.980082e-04;0.91846;0.006505;-0.006505;0.051299
0.703509;-3.157727;0.973135;-0.778898;0.058322;-0.054037;0.782946;-4.085381e-04;0.003001;-0.00111;0.221603;0.136125;7.346193;4.51258;0.003331;-7.381075e-04;0.002034;174.133026;129.133026;0.002713;0.002503;-4.085381e-04;1.951167e-04;-0.002415;0.003001;-0.00261;0.919098;0.002593;-0.002593;0.038215
0.770674;-3.157727;0.972114;-0.778848;0.05805;-0.056906;0.783079;0.00186;0.001331;7.278259e-04;-0.346442;-1.3977;-0.715461;-2.886482;0.00237;8.210465e-04;7.744448e-04;109.243645;64.243645;0.001033;0.00139;0.00186;0.003328;-0.001873;0.001331;-0.005201;0.915208;0.003191;-0.003191;0.028709
0.83784;-3.157727;0.959588;-0.778946;0.058107;-0.055315;0.783067;0.007257;0.001357;0.001693;-0.117581;-5.345965;-0.187057;-8.504807;0.007708;9.06343e-04;0.003401;54.793385;9.793385;0.004535;0.004865;0.007257;9.12894e-04;0.002472;0.001357;0.00156;0.904273;0.008615;-0.008615;0.030234
0.905005;-3.157727;0.929021;-0.779097;0.058445;-0.060449;0.783621;0.003655;-8.920166e-04;0.006595;0.669369;4.097709;0.244039;1.493945;0.008357;-0.005594;0.006976;115.122292;70.122292;0.009301;0.008107;0.003655;0.010245;0.002945;-8.920166e-04;-0.0073;0.868572;0.002763;-0.002763;0.041188
0.97217;-3.157727;0.885915;-0.779144;0.058629;-0.059093;0.783578;-0.002082;-0.009012;0.009704;3.332188;-0.231038;-4.328285;0.300103;0.004757;-0.015851;0.010304;140.198456;95.198456;0.013738;0.012459;-0.002082;0.019293;1.142514e-04;-0.009012;-0.019179;0.826823;-0.011094;0.011094;0.052042
1.039336;-3.157727;0.880371;-0.779192;0.058351;-0.06058;0.783719;0.00112;-0.003323;0.003568;1.710461;0.337003;2.967331;0.584638;0.003101;-0.005304;0.004203;127.062363;82.062363;0.005603;0.004908;0.00112;0.0074;-2.653532e-04;-0.003323;-0.007666;0.819791;-0.002203;0.002203;0.03838
1.106501;-3.157727;0.858115;-0.779415;0.058657;-0.059401;0.783873;0.00246;0.001128;0.004496;0.433929;-2.181288;-0.458445;2.304524;0.006339;-0.002751;0.004545;116.263748;71.263748;0.00606;0.005382;0.00246;0.007727;0.001265;0.001128;-0.006462;0.798714;0.003588;-0.003588;0.019624
1.173667;-3.157727;0.812911;-0.779383;0.058633;-0.061331;0.783988;-0.006399;0.003717;0.009456;1.285781;1.721353;0.580938;0.777738;0.009383;-0.012065;0.010724;152.931656;107.931648;0.014299;0.012416;-0.006399;0.019346;-4.334482e-04;0.003717;-0.01978;0.75158;-0.002682;0.002682;0.01619
1.240832;-3.157727;0.76459;-0.779493;0.058453;-0.058419;0.783862;-0.020403;0.004275;0.004661;4.145956;4.772041;0.209554;0.241199;0.005126;-0.021254;0.01319;14.547931;149.547928;0.017587;0.016151;-0.020403;0.011478;-0.002156;0.004275;-0.013634;0.706172;-0.016127;0.016127;0.003899
1.307997;-3.157727;0.721191;-0.779749;0.058226;-0.053758;0.783765;-0.012134;0.002076;-3.991711e-04;5.819721;5.845735;0.171065;0.17183;0.002087;-0.012146;0.007116;43.33511;178.335114;0.009488;0.008875;-0.012134;1.778802e-04;-9.762224e-04;0.002076;-0.001154;0.667433;-0.010059;0.010059;0.004882
1.375163;-3.157727;0.654501;-0.779564;0.058331;-0.054219;0.783621;-9.056178e-04;6.060239e-04;4.926985e-04;1.398167;1.49436;0.669183;0.715222;7.52432e-04;-0.001052;9.022289e-04;68.504616;23.50462;0.001203;0.001047;-9.056178e-04;-3.663467e-04;0.001352;6.060239e-04;0.001718;0.600282;-2.995938e-04;2.995938e-04;0.026108
1.442328;-3.157727;0.572978;-0.779445;0.058619;-0.055679;0.783627;0.001093;0.001532;-0.002234;0.262236;-0.713467;-1.401607;3.813364;0.003557;-9.328012e-04;0.002245;141.18248;96.18248;0.002993;0.002736;0.001093;-0.006279;0.00181;0.001532;0.008089;0.517299;0.002624;-0.002624;0.013594
1.509493;-3.157727;0.482503;-0.779663;0.058806;-0.053605;0.783713;0.002383;0.001515;-0.001222;-0.200884;-1.572349;-0.635991;-4.978007;0.003246;6.521115e-04;0.001297;164.43866;119.43866;0.001729;0.001983;0.002383;-0.0036;0.001155;0.001515;0.004755;0.428898;0.003898;-0.003898;0.025033
-0.236806;-3.224892;0.482109;-0.778051;0.05874;-0.052319;0.782017;0.032489;0.001756;-0.012623;0.074682;-18.506113;-0.054036;13.390021;0.037009;-0.002764;0.019886;6.695868;141.695862;0.026515;0.025644;0.032489;-0.025623;3.780414e-04;0.001756;0.026001;0.42979;0.034245;-0.034245;0.029584
-0.169641;-3.224892;0.547853;-0.778046;0.058609;-0.04757;0.781699;0.014778;0.002228;-0.00643;0.027528;-6.632113;-0.150781;36.326332;0.017488;-4.814112e-04;0.008985;5.350816;140.350815;0.01198;0.011822;0.014778;-0.012079;-7.812236e-04;0.002228;0.011298;0.500282;0.017006;-0.017006;0.057291
-0.102475;-3.224892;0.601493;-0.778269;0.058508;-0.046367;0.781841;-0.029151;0.001828;-0.003363;13.481686;15.945074;0.062715;0.074175;0.002189;-0.029511;0.01585;59.172134;14.172135;0.021134;0.020443;-0.029151;-0.007305;5.792842e-04;0.001828;0.007884;0.555126;-0.027322;0.027322;0.040508
-0.03531;-3.224892;0.688301;-0.778345;0.058635;-0.054804;0.782472;-0.036607;9.949627e-05;0.005113;46.730274;367.926636;0.002718;0.021399;7.983296e-04;-0.037306;0.019052;30.623108;165.623108;0.025403;0.025141;-0.036607;0.00939;8.355792e-04;9.949627e-05;-0.008554;0.633497;-0.036508;0.036508;0.051147
0.031855;-3.224892;0.751246;-0.778427;0.058603;-0.058525;0.782821;-0.008332;8.443759e-04;0.00672;2.704413;9.867363;0.101344;0.369766;0.004393;-0.01188;0.008137;164.519119;119.519112;0.010849;0.009721;-0.008332;0.014854;-0.001415;8.443759e-04;-0.016268;0.692721;-0.007487;0.007487;0.038118
0.099021;-3.224892;0.786667;-0.778524;0.058344;-0.05776;0.78284;0.012536;0.003047;0.001183;-0.228827;-4.114052;-0.243069;-4.370115;0.012682;0.002902;0.00489;60.253082;15.253081;0.00652;0.007672;0.012536;0.003492;-0.001125;0.003047;-0.004617;0.728906;0.015583;-0.015583;0.016226
0.166186;-3.224892;0.840219;-0.778334;0.058324;-0.053897;0.782375;0.013521;0.002675;-4.554134e-04;-0.196176;-5.053949;-0.197865;-5.097456;0.01354;0.002656;0.005442;44.229752;179.229752;0.007256;0.008284;0.013521;5.848739e-06;-9.166756e-04;0.002675;-9.225243e-04;0.786323;0.016196;-0.016196;0.027578
0.233352;-3.224892;0.890944;-0.778365;0.058205;-0.055469;0.782507;-4.720789e-04;0.001756;-0.002755;0.644731;0.268882;3.719107;1.551035;0.003613;-0.002329;0.002971;141.478378;96.478371;0.003962;0.003458;-4.720789e-04;-0.003672;-0.001837;0.001756;0.001835;0.835475;0.001284;-0.001284;0.02438
0.300517;-3.224892;0.899196;-0.778564;0.058019;-0.054544;0.782626;-3.863994e-05;0.00135;-0.003472;0.687504;0.028623;34.936588;1.454538;0.004196;-0.002885;0.003541;134.475098;89.475105;0.004721;0.004112;-3.863994e-05;-0.007094;1.507381e-04;0.00135;0.007245;0.844652;0.001311;-0.001311;0.033999
0.367682;-3.224892;0.910616;-0.778723;0.0582;-0.052163;0.782635;0.002119;9.490056e-04;-1.836654e-04;-0.428902;-2.232687;-0.447891;-2.331537;0.002147;9.208475e-04;6.130714e-04;12.023858;147.023865;8.174286e-04;0.001244;0.002119;-0.001919;0.001551;9.490056e-04;0.00347;0.858453;0.003068;-0.003068;0.036565
0.434848;-3.224892;0.920659;-0.778874;0.058351;-0.050148;0.782665;-0.001608;0.001243;0.00161;1.185343;1.293419;0.773144;0.843638;0.001968;-0.002333;0.00215;160.214386;115.214378;0.002867;0.002486;-0.001608;0.002774;4.462973e-04;0.001243;-0.002327;0.870511;-3.647601e-04;3.647601e-04;0.017108
0.502013;-3.224892;0.951887;-0.778638;0.058278;-0.055986;0.782821;-0.012987;0.001411;0.002165;7.694232;9.204895;0.108638;0.129967;0.001729;-0.013305;0.007517;21.849228;156.849228;0.010023;0.009499;-0.012987;0.005448;-0.001119;0.001411;-0.006567;0.895901;-0.011576;0.011576;0.001895
0.569178;-3.224892;0.969884;-0.778678;0.058054;-0.059796;0.783125;-0.001366;0.002684;1.587405e-04;0.510084;0.508951;1.964827;1.96046;0.00269;-0.001372;0.002031;164.018417;119.018417;0.002708;0.002386;-0.001366;0.001426;-0.001108;0.002684;-0.002534;0.910088;0.001318;-0.001318;0.033093
0.636344;-3.224892;0.963913;-0.778904;0.058114;-0.054259;0.782951;-2.582494e-04;0.001556;-1.829848e-04;0.175708;0.166023;6.023261;5.691254;0.001574;-2.765261e-04;9.251531e-04;136.266663;91.266663;0.001234;0.001152;-2.582494e-04;-2.842597e-04;-8.171001e-05;0.001556;2.025497e-04;0.909654;0.001297;-0.001297;0.068049
0.703509;-3.224892;0.966888;-0.778994;0.058085;-0.052414;0.782913;-8.561757e-04;0.00167;-4.308347e-04;0.532724;0.512727;1.950357;1.877146;0.001741;-9.276366e-04;0.001334;175.562241;130.562241;0.001779;0.001565;-8.561757e-04;3.437163e-04;-0.001205;0.00167;-0.001549;0.914474;8.136723e-04;-8.136723e-04;0.073381
0.770674;-3.224892;0.98517;-0.779136;0.057848;-0.054332;0.783167;5.518679e-06;0.001158;1.777765e-04;0.017957;0;0;55.689346;0.001185;-2.127778e-05;6.031118e-04;158.237274;113.237274;8.041491e-04;7.971512e-04;5.518679e-06;0.001351;-9.952466e-04;0.001158;-0.002346;0.930838;0.001164;-0.001164;0.045133
0.83784;-3.224892;0.969174;-0.779088;0.057993;-0.0563;0.783269;0.005852;0.00173;0.00606;0.256028;-3.382346;-0.295653;3.905823;0.010192;-0.002609;0.006401;98.132713;53.132713;0.008534;0.007811;0.005852;0.008719;0.0034;0.00173;-0.005319;0.912874;0.007582;-0.007582;0.044648
0.905005;-3.224892;0.916366;-0.779315;0.058319;-0.057498;0.783606;-0.016931;0.001996;0.015513;2.395204;8.482621;0.117888;0.417501;0.010704;-0.025639;0.018172;167.939865;122.939857;0.024229;0.021566;-0.016931;0.02638;0.004646;0.001996;-0.021734;0.858868;-0.014935;0.014935;0.052335
0.97217;-3.224892;0.874943;-0.7794;0.058742;-0.049043;0.783148;-0.004027;0.001419;0.011432;1.249584;2.837106;0.352472;0.800266;0.010448;-0.013055;0.011752;145.31459;100.31459;0.015669;0.013597;-0.004027;0.021709;0.001155;0.001419;-0.020554;0.8259;-0.002608;0.002608;0.024204
1.039336;-3.224892;0.879947;-0.779243;0.058565;-0.055115;0.783382;0.006925;0.003455;0.003153;-0.181072;-2.00431;-0.498925;-5.522668;0.008789;0.001591;0.003599;98.646698;53.646702;0.004798;0.005407;0.006925;0.00855;-0.002244;0.003455;-0.010793;0.824832;0.01038;-0.01038;0.010777
1.106501;-3.224892;0.867098;-0.779364;0.058472;-0.058587;0.783748;-0.002887;0.005943;0.005808;0.653614;0.485723;2.058786;1.529955;0.008824;-0.005767;0.007295;147.099655;102.099648;0.009727;0.008485;-0.002887;0.012406;-7.899518e-04;0.005943;-0.013196;0.808511;0.003056;-0.003056;0.013445
1.173667;-3.224892;0.819116;-0.779399;0.058336;-0.054184;0.783455;-0.015073;0.008693;0.012021;1.465257;1.73393;0.576725;0.682474;0.013713;-0.020093;0.016903;163.975006;118.975006;0.022537;0.019633;-0.015073;0.025536;-0.001494;0.008693;-0.02703;0.764932;-0.00638;0.00638;0.033137
1.240832;-3.224892;0.779902;-0.779485;0.058232;-0.054473;0.783553;-0.008555;0.008099;0.015037;1.02691;1.056354;0.946652;0.973795;0.01696;-0.017417;0.017188;149.903305;104.903297;0.022918;0.019848;-0.008555;0.030798;-7.245151e-04;0.008099;-0.031522;0.72543;-4.564047e-04;4.564047e-04;0.024538
1.307997;-3.224892;0.734923;-0.779711;0.058148;-0.056146;0.783889;-0.011651;0.005229;0.017421;1.397685;2.227965;0.44884;0.715469;0.016147;-0.022568;0.019358;153.728317;108.72831;0.02581;0.022455;-0.011651;0.033052;0.00179;0.005229;-0.031262;0.678777;-0.006421;0.006421;0.007818
1.375163;-3.224892;0.64972;-0.779536;0.058313;-0.052701;0.783488;5.35898e-04;0.005416;0.018832;0.729031;-0.098944;-10.106709;1.371684;0.021966;-0.016014;0.01899;134.101654;89.101662;0.02532;0.022017;5.35898e-04;0.037249;4.159136e-04;0.005416;-0.036833;0.597019;0.005952;-0.005952;9.325542e-04
1.442328;-3.224892;0.572184;-0.779636;0.0581;-0.053701;0.78364;0.012398;0.004544;0.011778;0.188849;-2.72829;-0.36653;5.29524;0.020887;-0.003944;0.012416;106.84243;61.842426;0.016554;0.015409;0.012398;0.022669;8.873692e-04;0.004544;-0.021782;0.518483;0.016942;-0.016942;0.011267
1.509493;-3.224892;0.473994;-0.77996;0.058473;-0.055652;0.784126;0.009781;0.004327;0.001593;-0.38144;-2.260683;-0.442344;-2.621643;0.010212;0.003895;0.003159;56.413956;11.413954;0.004211;0.005951;0.009781;6.690472e-04;0.002517;0.004327;0.001848;0.418342;0.014108;-0.014108;0.026772
-0.303971;-3.292058;0.355173;-0.778666;0.058411;-0.057994;0.783005;0.026325;0.005092;0.00294;-0.175572;-5.170217;-0.193415;-5.695655;0.026725;0.004692;0.011016;58.026691;13.02669;0.014688;0.016477;0.026325;0.005873;7.499717e-06;0.005092;-0.005865;0.29718;0.031417;-0.031417;0.020251
-0.236806;-3.292058;0.472457;-0.778077;0.058355;-0.052633;0.782035;0.014472;0.00393;0.017343;0.326609;-3.681999;-0.271592;3.061765;0.027327;-0.008925;0.018126;112.499565;67.499565;0.024168;0.021811;0.014472;0.034577;1.088551e-04;0.00393;-0.034469;0.419825;0.018402;-0.018402;0.02279
-0.169641;-3.292058;0.564216;-0.777906;0.05846;-0.05268;0.781876;0.008635;-0.001132;0.023999;0.734334;7.626558;0.131121;1.361778;0.028242;-0.020739;0.02449;124.629784;79.629784;0.032654;0.028389;0.008635;0.047064;9.328339e-04;-0.001132;-0.046131;0.511536;0.007503;-0.007503;0.047477
-0.102475;-3.292058;0.627837;-0.77811;0.058574;-0.050836;0.781966;-0.025156;-0.002706;0.021088;3.797857;-9.296851;-0.107563;0.263306;0.009958;-0.03782;0.023889;166.386215;121.386215;0.031852;0.029106;-0.025156;0.041172;0.001003;-0.002706;-0.040168;0.577;-0.027862;0.027862;0.022923
-0.03531;-3.292058;0.696984;-0.778223;0.058697;-0.06068;0.782788;-0.03769;0.001907;0.010902;8.596698;19.762226;0.050602;0.116324;0.00471;-0.040493;0.022602;14.26613;149.266129;0.030135;0.028695;-0.03769;0.022356;-5.525708e-04;0.001907;-0.022909;0.636304;-0.035783;0.035783;0.02881
0.031855;-3.292058;0.74916;-0.77824;0.058393;-0.062075;0.782892;9.7559e-04;0.004382;4.735069e-04;-0.204887;-0.222651;-4.491331;-4.880733;0.004446;9.109896e-04;0.001768;150.159073;105.159065;0.002357;0.002712;9.7559e-04;0.003233;-0.002286;0.004382;-0.00552;0.687085;0.005357;-0.005357;0.048869
0.099021;-3.292058;0.786903;-0.778413;0.058194;-0.059886;0.782879;0.015117;0.003615;-0.002601;-0.1948;-4.182051;-0.239117;-5.133468;0.015677;0.003054;0.006312;27.22603;162.226028;0.008416;0.009597;0.015117;-0.004458;-7.437338e-04;0.003615;0.003714;0.727017;0.018731;-0.018731;0.040807
0.166186;-3.292058;0.816048;-0.778508;0.058294;-0.05728;0.782786;0.007505;0.002699;0.002808;-0.159853;-2.780571;-0.359638;-6.255741;0.008798;0.001406;0.003696;83.665146;38.66515;0.004928;0.005457;0.007505;0.005508;1.07899e-04;0.002699;-0.0054;0.758769;0.010204;-0.010204;0.003166
0.233352;-3.292058;0.864304;-0.778517;0.058269;-0.055418;0.782659;0.00498;0.002433;0.004996;0.163466;-2.046658;-0.488601;6.117478;0.008862;-0.001449;0.005156;110.798988;65.798988;0.006874;0.006446;0.00498;0.01047;-4.788876e-04;0.002433;-0.010949;0.808886;0.007414;-0.007414;0.013136
0.300517;-3.292058;0.900216;-0.778499;0.058112;-0.053974;0.782529;0.001012;4.806053e-04;0.001979;0.455748;-2.10588;-0.474861;2.194196;0.002743;-0.00125;0.001996;122.872894;77.872894;0.002662;0.002358;0.001012;0.004481;-5.243355e-04;4.806053e-04;-0.005006;0.846242;0.001493;-0.001493;0.054727
0.367682;-3.292058;0.914239;-0.778551;0.058106;-0.056868;0.782785;-0.002596;-8.906676e-04;0.002334;5.705188;-2.915172;-0.343033;0.175279;7.411217e-04;-0.004228;0.002485;168.145813;123.145813;0.003313;0.003096;-0.002596;0.004005;6.626349e-04;-8.906676e-04;-0.003342;0.857371;-0.003487;0.003487;0.047432
0.434848;-3.292058;0.926189;-0.778726;0.058158;-0.056515;0.782937;-0.002419;-2.482718e-04;0.004201;1.887336;-9.741894;-0.102649;0.529847;0.003006;-0.005672;0.004339;149.788681;104.788689;0.005785;0.005088;-0.002419;0.009145;-7.430192e-04;-2.482718e-04;-0.009888;0.869674;-0.002667;0.002667;0.01919
0.502013;-3.292058;0.951055;-0.778841;0.058014;-0.055558;0.782972;-0.00544;0.002823;0.001718;1.826649;1.927152;0.5189;0.547451;0.003166;-0.005783;0.004474;179.059479;134.059479;0.005966;0.00524;-0.00544;0.00518;-0.001743;0.002823;-0.006924;0.895497;-0.002617;0.002617;0.00729
0.569178;-3.292058;0.968241;-0.778857;0.057824;-0.056754;0.78306;-0.003112;0.002258;0.001048;1.347901;1.378278;0.725543;0.741894;0.002455;-0.003309;0.002882;22.674574;157.674576;0.003843;0.00334;-0.003112;0.001232;8.633262e-04;0.002258;-3.684467e-04;0.911486;-8.540496e-04;8.540496e-04;0.024435
0.636344;-3.292058;0.98381;-0.778832;0.058089;-0.058472;0.783181;-0.001544;-0.004695;0.001828;-7.830561;-0.328856;-3.040841;-0.127705;-7.065301e-04;-0.005533;0.002413;153.614761;108.614754;0.003217;0.003477;-0.001544;0.002491;0.001164;-0.004695;-0.001327;0.925338;-0.006239;0.006239;0.042402
0.703509;-3.292058;0.975292;-0.778899;0.058049;-0.05917;0.783298;-0.003484;-0.003851;-0.005588;4.812854;-0.904778;-1.105243;0.207777;0.001924;-0.009259;0.005592;112.596077;67.596077;0.007455;0.006904;-0.003484;-0.009046;-0.002131;-0.003851;0.006916;0.916122;-0.007335;0.007335;0.064844
0.770674;-3.292058;0.964671;-0.779076;0.057957;-0.053709;0.783073;-0.002121;0.0112;-0.003507;0.247617;0.189381;5.280367;4.038497;0.012067;-0.002988;0.007528;125.119766;80.119766;0.010037;0.009204;-0.002121;-0.008466;0.001452;0.0112;0.009919;0.910962;0.009079;-0.009079;0.05923
0.83784;-3.292058;0.962272;-0.778977;0.0579;-0.054242;0.783007;-0.002669;0.006042;-0.006223;0.636656;0.441796;2.263486;1.570706;0.009282;-0.005909;0.007596;124.072861;79.072861;0.010127;0.008842;-0.002669;-0.013449;0.001004;0.006042;0.014453;0.908029;0.003372;-0.003372;0.050617
0.905005;-3.292058;0.916917;-0.779126;0.057939;-0.053347;0.783096;-0.024433;0.002743;-0.004148;7.450644;8.90626;0.112281;0.134217;0.003362;-0.025052;0.014207;69.17704;24.177036;0.018943;0.017927;-0.024433;-0.010762;0.002466;0.002743;0.013228;0.86357;-0.021689;0.021689;0.053267
0.97217;-3.292058;0.879808;-0.779228;0.058311;-0.047589;0.782855;-0.002109;0.004693;-0.004329;0.61983;0.449366;2.225358;1.613344;0.006797;-0.004213;0.005505;122.386131;77.386131;0.00734;0.006415;-0.002109;-0.009959;0.001301;0.004693;0.01126;0.83222;0.002584;-0.002584;0.021562
1.039336;-3.292058;0.878645;-0.779194;0.058175;-0.053453;0.783189;0.007552;0.006222;-0.002498;-0.454169;-1.213661;-0.823954;-2.201824;0.009472;0.004302;0.002585;3.919146;138.919144;0.003447;0.005476;0.007552;-0.003351;-0.001645;0.006222;0.001706;0.825192;0.013774;-0.013774;0.022689
1.106501;-3.292058;0.866217;-0.779373;0.057975;-0.058174;0.783689;-0.003683;0.004926;3.202767e-04;0.748282;0.747674;1.337482;1.336395;0.004938;-0.003695;0.004317;166.703156;121.703156;0.005755;0.005001;-0.003683;0.001833;-0.001192;0.004926;-0.003025;0.808043;0.001243;-0.001243;0.04172
1.173667;-3.292058;0.826078;-0.779471;0.057938;-0.053438;0.783446;-0.015223;0.004177;-0.003478;3.310009;3.644478;0.274388;0.302114;0.004782;-0.015828;0.010305;67.256378;22.256374;0.01374;0.012456;-0.015223;-0.006029;-9.280551e-04;0.004177;0.005101;0.772641;-0.011046;0.011046;0.032308
1.240832;-3.292058;0.775709;-0.77973;0.057857;-0.050492;0.783503;-0.012657;0.004581;-0.006538;2.191112;2.762861;0.361944;0.456389;0.00678;-0.014856;0.010818;92.865311;47.865307;0.014424;0.012779;-0.012657;-0.01314;6.436586e-05;0.004581;0.013204;0.725217;-0.008076;0.008076;0.00719
1.307997;-3.292058;0.72684;-0.779901;0.057936;-0.047857;0.783513;-0.016197;0.003354;0.001239;4.742558;4.829806;0.207048;0.210857;0.003432;-0.016275;0.009853;43.43161;178.43161;0.013138;0.012156;-0.016197;7.800764e-04;0.001697;0.003354;9.173604e-04;0.678983;-0.012843;0.012843;0.011211
1.375163;-3.292058;0.672354;-0.779614;0.058171;-0.046242;0.783148;0.010963;0.002209;0.001353;-0.179493;-4.96307;-0.201488;-5.571263;0.011167;0.002004;0.004581;58.804028;13.804028;0.006108;0.006875;0.010963;0.002565;1.413619e-04;0.002209;-0.002424;0.626112;0.013172;-0.013172;0.024657
1.442328;-3.292058;0.599359;-0.779846;0.057945;-0.051783;0.783708;0.018596;0.001743;-0.001285;-0.08803;-10.668653;-0.093733;-11.359716;0.018693;0.001646;0.008524;34.779568;169.779572;0.011365;0.011952;0.018596;-0.003404;8.333836e-04;0.001743;0.004237;0.547576;0.020339;-0.020339;0.039645
1.509493;-3.292058;0.455629;-0.780036;0.058287;-0.055446;0.784173;0.007719;0.002129;0.007453;0.235659;-3.625509;-0.275823;4.243419;0.012884;-0.003036;0.00796;103.283295;58.283295;0.010613;0.00976;0.007719;0.012756;0.002151;0.002129;-0.010605;0.400183;0.009848;-0.009848;0.013965
-0.303971;-3.359223;0.357732;-0.77861;0.057986;-0.056309;0.782794;0.03049;0.002325;0.010267;0.030163;-13.116322;-0.076241;33.153633;0.033835;-0.001021;0.017428;77.322754;32.32275;0.023237;0.022905;0.03049;0.019195;0.001339;0.002325;-0.017856;0.301423;0.032815;-0.032815;0.024086
-0.236806;-3.359223;0.485324;-0.777928;0.058175;-0.056777;0.782164;0.014295;0.002706;-0.004779;-0.061799;-5.281878;-0.189327;-16.181528;0.016012;9.894969e-04;0.007511;9.25813;144.258133;0.010015;0.01036;0.014295;-0.010084;5.251089e-04;0.002706;0.010609;0.428548;0.017001;-0.017001;0.026765
-0.169641;-3.359223;0.578176;-0.77776;0.058071;-0.05788;0.78207;-0.005093;0.004457;-0.00274;1.122741;1.142853;0.875003;0.890678;0.005187;-0.005823;0.005505;100.481186;55.481186;0.00734;0.00636;-0.005093;-0.004776;-7.036958e-04;0.004457;0.004072;0.520296;-6.366346e-04;6.366346e-04;0.029847
-0.102475;-3.359223;0.640634;-0.777916;0.058058;-0.055928;0.782082;-0.013328;0.006526;0.002238;2.003787;2.042114;0.489689;0.499055;0.006776;-0.013577;0.010176;20.518927;155.518921;0.013568;0.011967;-0.013328;0.004732;-2.558064e-04;0.006526;-0.004988;0.584705;-0.006801;0.006801;0.021213
-0.03531;-3.359223;0.711607;-0.778158;0.058032;-0.058847;0.782535;-0.017848;0.007919;-0.011135;1.823027;2.253835;0.443688;0.548538;0.012064;-0.021994;0.017029;97.773224;52.77322;0.022705;0.01994;-0.017848;-0.021643;-6.278227e-04;0.007919;0.021015;0.65276;-0.009929;0.009929;0.012834
0.031855;-3.359223;0.750005;-0.778255;0.057864;-0.059896;0.782698;0.006082;0.008475;-0.014956;0.346694;-0.717631;-1.393474;2.884387;0.022282;-0.007725;0.015004;146.15799;101.157997;0.020005;0.017992;0.006082;-0.029309;-6.030087e-04;0.008475;0.028706;0.690109;0.014557;-0.014557;0.027243
0.099021;-3.359223;0.794201;-0.778264;0.057929;-0.055134;0.782362;0.012615;0.009345;-0.012965;0.086823;-1.349896;-0.740798;11.517707;0.024047;-0.002088;0.013068;159.205719;114.205719;0.017424;0.016771;0.012615;-0.025496;-4.336549e-04;0.009345;0.025063;0.739067;0.02196;-0.02196;0.020547
0.166186;-3.359223;0.842346;-0.778461;0.057934;-0.055654;0.782595;-0.007066;0.008948;-0.005648;0.824735;0.789637;1.266404;1.212511;0.01074;-0.008857;0.009798;111.645134;66.645134;0.013065;0.011332;-0.007066;-0.01227;9.735224e-04;0.008948;0.013244;0.786692;0.001882;-0.001882;0.020187
0.233352;-3.359223;0.873074;-0.778467;0.058017;-0.059436;0.782886;-7.196446e-04;0.004565;0.001305;0.210324;0.157642;6.343478;4.754562;0.00487;-0.001024;0.002947;136.40123;91.40123;0.003929;0.003636;-7.196446e-04;0.002374;2.353681e-04;0.004565;-0.002139;0.813638;0.003845;-0.003845;0.049818
0.300517;-3.359223;0.907424;-0.778392;0.057999;-0.055718;0.782536;0.004375;0.003614;0.002638;-0.199538;-1.210825;-0.825883;-5.011572;0.00666;0.001329;0.002666;104.973198;59.973198;0.003554;0.00407;0.004375;0.005777;-5.008983e-04;0.003614;-0.006278;0.851706;0.007989;-0.007989;0.04531
0.367682;-3.359223;0.927432;-0.778348;0.057862;-0.056708;0.782554;-0.002568;0.003687;-4.994505e-04;0.699804;0.696578;1.43559;1.428971;0.003727;-0.002608;0.003167;166.404099;121.404091;0.004223;0.003676;-0.002568;2.630313e-04;-0.001262;0.003687;-0.001525;0.870724;0.001119;-0.001119;0.051642
0.434848;-3.359223;0.941733;-0.778328;0.057764;-0.058011;0.782621;-0.004297;0.004916;-4.582019e-04;0.874569;0.87399;1.144179;1.14342;0.004939;-0.00432;0.004629;173.184723;128.184723;0.006173;0.00535;-0.004297;4.258144e-04;-0.001342;0.004916;-0.001768;0.883722;6.19528e-04;-6.19528e-04;0.041642
0.502013;-3.359223;0.956162;-0.778558;0.057745;-0.058685;0.7829;-0.00463;0.004284;0.002568;1.069675;1.08085;0.925198;0.934863;0.004971;-0.005317;0.005144;166.952026;121.952019;0.006858;0.005941;-0.00463;0.005137;-5.492625e-07;0.004284;-0.005138;0.897477;-3.463341e-04;3.463341e-04;0.008243
0.569178;-3.359223;0.965816;-0.778754;0.05783;-0.057747;0.783031;-0.0027;0.003296;0.006557;0.920541;0.819001;1.220999;1.086318;0.007508;-0.006912;0.00721;145.221451;100.221458;0.009613;0.008328;-0.0027;0.010692;0.002422;0.003296;-0.008269;0.90807;5.965937e-04;-5.965937e-04;0.001026
0.636344;-3.359223;1.009034;-0.778879;0.057928;-0.058705;0.783234;-0.006637;0.001272;0.003563;3.032208;5.217838;0.19165;0.329793;0.00264;-0.008005;0.005323;176.026688;131.026688;0.007097;0.006401;-0.006637;0.007529;-4.044028e-04;0.001272;-0.007934;0.950329;-0.005365;0.005365;0.031331
0.703509;-3.359223;0.9962;-0.778976;0.057602;-0.062286;0.783582;0.004766;-0.003104;-0.006387;0.800513;1.535525;0.651243;1.249199;0.008333;-0.00667;0.007502;175.3358;130.3358;0.010002;0.00868;0.004766;-0.007108;-0.005665;-0.003104;0.001443;0.933913;0.001662;-0.001662;0.051244
0.770674;-3.359223;0.951686;-0.779078;0.057531;-0.062613;0.783705;-0.003285;-0.001642;-0.009779;1.67041;-2.00113;-0.499718;0.598656;0.007349;-0.012277;0.009813;125.161789;80.161789;0.013084;0.01145;-0.003285;-0.019055;-5.018226e-04;-0.001642;0.018554;0.889073;-0.004927;0.004927;0.055672
0.83784;-3.359223;0.955023;-0.778982;0.057777;-0.063048;0.783662;-0.009138;4.901304e-05;-0.00452;5.783186;186.444748;0.005364;0.172915;0.0019;-0.010989;0.006445;97.655083;52.655083;0.008593;0.008035;-0.009138;-0.012642;0.003601;4.901304e-05;0.016243;0.891975;-0.009089;0.009089;0.045526
0.905005;-3.359223;0.93121;-0.77906;0.057905;-0.056502;0.78325;-0.019728;-0.001496;-0.00659;34.309189;-13.190452;-0.075812;0.029147;6.371659e-04;-0.021861;0.011249;79.468369;34.468369;0.014999;0.014791;-0.019728;-0.013501;3.198184e-04;-0.001496;0.013821;0.874708;-0.021223;0.021223;0.037634
0.97217;-3.359223;0.888805;-0.779078;0.05779;-0.054437;0.783113;0.002248;-0.002207;-0.008386;0.995184;1.018982;0.981371;1.004839;0.008698;-0.008656;0.008677;142.520996;97.520996;0.011569;0.010019;0.002248;-0.01557;-0.001202;-0.002207;0.014368;0.834368;4.18856e-05;-4.18856e-05;0.033954
1.039336;-3.359223;0.874306;-0.779187;0.057719;-0.057505;0.783435;2.652075e-04;0.003425;-9.204371e-04;-0.004535;-0.077426;-12.91561;-220.488724;0.003674;1.666236e-05;0.001829;142.297714;97.297714;0.002438;0.002444;2.652075e-04;-0.001437;-4.042977e-04;0.003425;0.001032;0.816801;0.003691;-0.003691;0.038636
1.106501;-3.359223;0.863786;-0.779352;0.057855;-0.055612;0.783473;-0.005487;0.004577;0.005505;1.129948;1.198822;0.834152;0.884997;0.007003;-0.007913;0.007458;158.36525;113.365257;0.009944;0.008617;-0.005487;0.011559;-5.496225e-04;0.004577;-0.012109;0.808174;-9.100456e-04;9.100456e-04;0.021018
1.173667;-3.359223;0.829137;-0.779347;0.057759;-0.055732;0.783469;0.010515;0.003212;7.874516e-04;-0.295115;-3.273829;-0.305453;-3.388512;0.010599;0.003128;0.003736;57.447792;12.447791;0.004981;0.006288;0.010515;0.002338;-7.627205e-04;0.003212;-0.0031;0.773405;0.013727;-0.013727;0.004106
1.240832;-3.359223;0.774127;-0.779655;0.057681;-0.060309;0.784109;-0.003153;-0.001356;-0.017572;1.293968;-2.325235;-0.430064;0.772817;0.01534;-0.01985;0.017595;129.761795;84.761803;0.02346;0.020372;-0.003153;-0.034586;-5.576407e-04;-0.001356;0.034029;0.713818;-0.00451;0.00451;0.016129
1.307997;-3.359223;0.716686;-0.780017;0.057782;-0.054503;0.784051;-0.024163;-0.003327;-0.024741;3.098432;-7.262507;-0.137693;0.322744;0.0131;-0.04059;0.026845;109.412376;64.412376;0.035793;0.032324;-0.024163;-0.050225;7.426025e-04;-0.003327;0.050967;0.662184;-0.02749;0.02749;0.015523
1.375163;-3.359223;0.656984;-0.779969;0.05798;-0.051861;0.783838;0.008693;0.002019;-0.025523;0.655519;-4.3052;-0.232277;1.525509;0.031096;-0.020384;0.02574;144.430145;99.430145;0.03432;0.029936;0.008693;-0.052058;0.001012;0.002019;0.05307;0.605123;0.010712;-0.010712;0.050184
1.442328;-3.359223;0.588173;-0.779822;0.057937;-0.056708;0.784025;0.002633;0.002659;-0.017088;0.731835;-0.989883;-1.010221;1.366429;0.019734;-0.014442;0.017088;139.145676;94.145683;0.022784;0.01981;0.002633;-0.035145;9.691213e-04;0.002659;0.036114;0.531465;0.005292;-0.005292;0.068893
1.509493;-3.359223;0.455299;-0.779791;0.058148;-0.051718;0.783664;-0.01738;0.001231;-0.002104;12.014029;14.115612;0.070844;0.083236;0.001466;-0.017615;0.00954;64.846176;19.846172;0.01272;0.012261;-0.01738;-0.006209;0.002001;0.001231;0.008211;0.403581;-0.016148;0.016148;0.008576
-0.303971;-3.426388;0.35722;-0.778081;0.057969;-0.063882;0.782848;0.082473;0.001556;0.043365;0.170675;-53.009762;-0.018864;5.85908;0.101322;-0.017293;0.059308;91.311989;46.311993;0.079077;0.073989;0.082473;0.086326;4.032865e-04;0.001556;-0.085923;0.293338;0.084029;-0.084029;0.048835
-0.236806;-3.426388;0.50303;-0.777902;0.058144;-0.048271;0.781564;0.053322;0.002406;-8.75918e-05;-0.045116;-22.163872;-0.045118;-22.165321;0.053322;0.002406;0.025458;45.031422;0.031423;0.033944;0.034774;0.053322;3.884061e-05;-2.140242e-04;0.002406;-2.528648e-04;0.454759;0.055727;-0.055727;0.054155
-0.169641;-3.426388;0.563427;-0.777988;0.057887;-0.050526;0.781773;-0.020935;7.567662e-04;-0.015941;3.195204;27.663303;0.036149;0.312969;0.009192;-0.02937;0.019281;100.277725;55.277729;0.025708;0.023257;-0.020935;-0.030235;-0.001647;7.567662e-04;0.028588;0.512901;-0.020178;0.020178;0.027507
-0.102475;-3.426388;0.625729;-0.778329;0.057635;-0.056245;0.782484;-0.014413;0.001942;-0.004105;5.279131;7.421788;0.134738;0.189425;0.002914;-0.015386;0.00915;72.616867;27.616867;0.0122;0.011354;-0.014413;-0.007502;-7.080371e-04;0.001942;0.006794;0.569484;-0.012471;0.012471;0.015022
-0.03531;-3.426388;0.701001;-0.778459;0.057602;-0.052827;0.782373;0.007423;0.002384;-0.008258;0.275558;-3.114264;-0.321103;3.628994;0.013537;-0.00373;0.008633;159.21817;114.218163;0.011511;0.010491;0.007423;-0.016269;-2.458252e-04;0.002384;0.016023;0.648173;0.009807;-0.009807;0.015225
0.031855;-3.426388;0.751541;-0.778457;0.057675;-0.054806;0.782512;0.005282;0.005704;-0.01762;0.524717;-0.925933;-1.079992;1.905789;0.023115;-0.012129;0.017622;143.438583;98.438583;0.023496;0.020675;0.005282;-0.034974;-2.66475e-04;0.005704;0.034708;0.696736;0.010986;-0.010986;0.013549
0.099021;-3.426388;0.810938;-0.77836;0.057715;-0.054292;0.782383;0.004126;0.00624;-0.012603;0.418645;-0.661195;-1.512414;2.388659;0.01783;-0.007464;0.012647;144.716812;99.71682;0.016863;0.015007;0.004126;-0.02412;-0.001086;0.00624;0.023034;0.756645;0.010366;-0.010366;0.007847
0.166186;-3.426388;0.851432;-0.778518;0.057586;-0.05233;0.782396;-0.010633;0.004058;-0.005714;2.092522;2.620375;0.381625;0.477892;0.006019;-0.012594;0.009306;93.343864;48.343868;0.012408;0.010967;-0.010633;-0.011145;-2.830217e-04;0.004058;0.010862;0.799102;-0.006575;0.006575;0.011036
0.233352;-3.426388;0.867493;-0.778532;0.057526;-0.057393;0.782761;-0.005203;0.004041;-0.006134;1.163662;1.287505;0.776696;0.859356;0.007099;-0.008261;0.00768;114.03112;69.03112;0.01024;0.008877;-0.005203;-0.01286;5.925058e-04;0.004041;0.013452;0.8101;-0.001162;0.001162;0.054707
0.300517;-3.426388;0.89665;-0.77862;0.057701;-0.057026;0.782835;0.005854;0.004758;-0.006895;0.131793;-1.230178;-0.81289;7.587631;0.012223;-0.001611;0.006917;155.680923;110.680923;0.009222;0.008735;0.005854;-0.013982;1.921291e-04;0.004758;0.014174;0.839623;0.010612;-0.010612;0.031954
0.367682;-3.426388;0.920213;-0.778685;0.057704;-0.055622;0.782799;-0.004233;0.00471;-0.003093;0.915889;0.898651;1.112779;1.091836;0.005676;-0.005198;0.005437;111.244293;66.244293;0.007249;0.00628;-0.004233;-0.004831;-0.001355;0.00471;0.003476;0.864591;4.773758e-04;-4.773758e-04;0.022902
0.434848;-3.426388;0.937717;-0.778648;0.057387;-0.055123;0.782703;-0.009495;0.004849;0.001219;1.93835;1.958263;0.510657;0.515903;0.004951;-0.009598;0.007275;15.122838;150.122833;0.009699;0.008542;-0.009495;0.003998;-0.00156;0.004849;-0.005558;0.882595;-0.004646;0.004646;0.019406
0.502013;-3.426388;0.954117;-0.778633;0.05728;-0.060547;0.783081;-0.005882;0.007154;0.003321;0.839992;0.822155;1.216315;1.190488;0.007951;-0.006679;0.007315;160.394928;115.394928;0.009754;0.008457;-0.005882;0.006262;3.809232e-04;0.007154;-0.005881;0.89357;0.001272;-0.001272;0.011695
0.569178;-3.426388;0.961044;-0.778776;0.057746;-0.063582;0.783498;0.004436;0.004862;0.004305;-0.037821;-0.912227;-1.096218;-26.440624;0.008959;3.388377e-04;0.00431;111.363983;66.363983;0.005747;0.005863;0.004436;0.008191;4.190617e-04;0.004862;-0.007772;0.897462;0.009298;-0.009298;0.022336
0.636344;-3.426388;0.98965;-0.779032;0.057679;-0.059592;0.783434;-0.005555;-0.001965;-0.005811;4.237927;-2.826545;-0.353789;0.235964;0.002322;-0.009842;0.006082;105.326424;60.326424;0.00811;0.007457;-0.005555;-0.00996;-0.001663;-0.001965;0.008297;0.930058;-0.00752;0.00752;0.027859
0.703509;-3.426388;1.011009;-0.779167;0.057436;-0.064786;0.783963;0.012374;-5.28891e-04;-0.003724;0.114166;23.396162;0.042742;8.759189;0.013372;-0.001527;0.007449;19.912989;154.912994;0.009932;0.009464;0.012374;-0.005901;-0.001548;-5.28891e-04;0.004353;0.946222;0.011845;-0.011845;0.027653
0.770674;-3.426388;0.97775;-0.779087;0.057269;-0.067688;0.784116;-0.006623;0.002411;-4.991185e-04;2.728008;2.747716;0.363939;0.366568;0.002438;-0.006651;0.004544;65.100204;20.100206;0.006059;0.005432;-0.006623;-0.001914;9.160926e-04;0.002411;0.00283;0.910063;-0.004213;0.004213;0.040262
0.83784;-3.426388;0.964399;-0.778937;0.057444;-0.0595;0.783315;-0.012026;0.001597;0.005573;3.907725;7.529642;0.132808;0.255903;0.003587;-0.014016;0.008801;15.497854;150.497849;0.011735;0.010741;-0.012026;0.007442;0.003705;0.001597;-0.003737;0.904899;-0.010429;0.010429;0.019893
0.905005;-3.426388;0.952969;-0.779127;0.057883;-0.053007;0.78307;-0.014135;0.008569;0.009873;1.453965;1.649606;0.606205;0.687774;0.012262;-0.017828;0.015045;171.036377;126.036377;0.02006;0.017471;-0.014135;0.016403;0.003344;0.008569;-0.013059;0.899962;-0.005566;0.005566;0.001421
0.97217;-3.426388;0.906185;-0.779308;0.057692;-0.057525;0.783555;0.00986;0.00966;0.01108;0.063338;-1.020742;-0.97968;15.788426;0.02084;-0.00132;0.01108;115.831024;70.831024;0.014774;0.014354;0.00986;0.023654;-0.001494;0.00966;-0.025148;0.848659;0.01952;-0.01952;0.013739
1.039336;-3.426388;0.882961;-0.779228;0.057574;-0.055691;0.783335;-0.007515;0.007663;0.00197;0.981298;0.980684;1.019696;1.019059;0.007915;-0.007767;0.007841;172.201279;127.201279;0.010454;0.009054;-0.007515;0.006015;-0.002075;0.007663;-0.00809;0.82727;1.480239e-04;-1.480239e-04;0.033883
1.106501;-3.426388;0.867387;-0.779336;0.057611;-0.049266;0.783014;-0.012257;0.010913;0.005826;1.109271;1.123112;0.890383;0.901493;0.012295;-0.013639;0.012967;170.591385;125.591393;0.01729;0.01498;-0.012257;0.01068;9.715343e-04;0.010913;-0.009708;0.818121;-0.001344;0.001344;0.040005
1.173667;-3.426388;0.833221;-0.779503;0.057473;-0.052034;0.783349;0.026034;0.014012;0.021902;0.062937;-1.858037;-0.538203;15.888813;0.042735;-0.00269;0.022712;105.73819;60.738194;0.030283;0.029428;0.026034;0.043242;5.628497e-04;0.014012;-0.042679;0.781187;0.040045;-0.040045;0.026118
1.240832;-3.426388;0.793377;-0.779665;0.057522;-0.060872;0.78415;0.020685;0.010871;0.016187;0.034758;-1.902745;-0.525556;28.770311;0.032692;-0.001136;0.016914;103.114296;58.114296;0.022552;0.022183;0.020685;0.030948;0.001426;0.010871;-0.029522;0.732505;0.031556;-0.031556;0.041741
1.307997;-3.426388;0.751548;-0.779753;0.057834;-0.059024;0.78412;-0.014327;0.00339;-0.0025;3.926927;4.225596;0.236653;0.254652;0.003736;-0.014673;0.009205;68.781357;23.781361;0.012273;0.011236;-0.014327;-0.005891;8.910471e-04;0.00339;0.006782;0.692523;-0.010936;0.010936;0.055977
1.375163;-3.426388;0.678873;-0.779634;0.05785;-0.055848;0.78377;0.002812;0.002147;-0.011091;0.634698;-1.309392;-0.763713;1.575552;0.013575;-0.008616;0.011096;142.296265;97.296257;0.014794;0.012919;0.002812;-0.021937;-2.444742e-04;0.002147;0.021693;0.623025;0.004959;-0.004959;0.062938
1.442328;-3.426388;0.572987;-0.779651;0.057793;-0.058517;0.783977;-0.009209;0.003784;-0.00561;1.923976;2.433527;0.410926;0.519757;0.005871;-0.011296;0.008584;99.437271;54.437271;0.011445;0.010075;-0.009209;-0.012345;0.001125;0.003784;0.01347;0.514471;-0.005425;0.005425;0.028168
1.509493;-3.426388;0.457646;-0.779834;0.05811;-0.053711;0.783838;-0.033403;0.003249;-3.206006e-04;10.273005;10.281008;0.097267;0.097343;0.003252;-0.033405;0.018329;50.353539;5.353539;0.024438;0.02343;-0.033403;-0.002899;0.002258;0.003249;0.005157;0.403935;-0.030154;0.030154;0.009936
-0.303971;-3.493554;0.349516;-0.778182;0.05804;-0.076018;0.784037;0.1274;0.006413;0.036771;0.028218;-19.86512;-0.050339;35.438171;0.137699;-0.003886;0.070792;75.355453;30.355453;0.09439;0.093122;0.1274;0.074498;-9.562948e-04;0.006413;-0.075454;0.273498;0.133814;-0.133814;0.011889
-0.236806;-3.493554;0.498645;-0.777851;0.057668;-0.05313;0.781793;0.093097;0.004417;0.00456;-0.044825;-21.075123;-0.047449;-22.309183;0.09333;0.004184;0.044573;50.906544;5.906545;0.059431;0.060874;0.093097;0.009634;-5.13957e-04;0.004417;-0.010148;0.445515;0.097514;-0.097514;0.054288
-0.169641;-3.493554;0.549794;-0.778095;0.057734;-0.047063;0.781652;-0.017731;2.051976e-04;-0.008498;5.878924;86.409546;0.011573;0.170099;0.003592;-0.021118;0.012355;87.747391;42.747391;0.016473;0.015416;-0.017731;-0.016398;-5.982259e-04;2.051976e-04;0.0158;0.502732;-0.017526;0.017526;0.040346
-0.102475;-3.493554;0.618627;-0.778494;0.05763;-0.057955;0.782772;-0.029315;7.931748e-04;-0.010315;8.152331;36.959129;0.027057;0.122664;0.003988;-0.03251;0.018249;78.670555;33.670555;0.024332;0.023117;-0.029315;-0.019549;-0.00108;7.931748e-04;0.018468;0.560672;-0.028522;0.028522;0.017599
-0.03531;-3.493554;0.704501;-0.778488;0.057603;-0.056237;0.782639;0.024094;0.002562;-0.005675;-0.045406;-9.404686;-0.10633;-22.023539;0.025498;0.001158;0.01217;21.759052;156.759048;0.016227;0.016626;0.024094;-0.010183;-0.001167;0.002562;0.009016;0.648264;0.026656;-0.026656;0.024541
0.031855;-3.493554;0.758611;-0.778403;0.057571;-0.04852;0.782036;0.016047;0.004105;-0.013439;0.186823;-3.909442;-0.255791;5.352672;0.024781;-0.00463;0.014705;166.646362;121.646355;0.019607;0.018261;0.016047;-0.025733;-0.001144;0.004105;0.024589;0.710091;0.020152;-0.020152;0.028793
0.099021;-3.493554;0.808179;-0.778411;0.057334;-0.050214;0.782133;-0.014201;0.002827;-0.008899;2.715667;5.022457;0.199106;0.368234;0.006629;-0.018003;0.012316;97.231079;52.231079;0.016421;0.014718;-0.014201;-0.018069;2.71752e-04;0.002827;0.018341;0.757965;-0.011373;0.011373;0.014231
0.166186;-3.493554;0.838391;-0.778506;0.057512;-0.052975;0.782423;-0.015502;0.002262;9.609254e-04;6.722833;6.85398;0.145901;0.148747;0.002314;-0.015554;0.008934;38.102291;173.102295;0.011911;0.01122;-0.015502;0.001847;7.521008e-05;0.002262;-0.001771;0.785416;-0.01324;0.01324;0.012761
0.233352;-3.493554;0.866868;-0.77847;0.057344;-0.054497;0.78248;9.187754e-04;0.001578;3.451211e-05;-0.580599;-0.582406;-1.717016;-1.722359;0.001579;9.169723e-04;3.311914e-04;159.905151;114.905151;4.415886e-04;9.157817e-04;9.187754e-04;0.001871;-0.001802;0.001578;-0.003672;0.812371;0.002496;-0.002496;0.035879
0.300517;-3.493554;0.898974;-0.778747;0.057133;-0.049704;0.78242;0.004628;0.003609;-0.001725;-0.392141;-1.282318;-0.779837;-2.550102;0.005917;0.00232;0.001798;3.259464;138.25946;0.002398;0.003443;0.004628;-0.002446;-0.001003;0.003609;0.001443;0.849271;0.008238;-0.008238;0.05081
0.367682;-3.493554;0.923343;-0.778881;0.057128;-0.050623;0.782613;-0.014347;0.002714;0.003977;4.234982;5.285419;0.1892;0.236129;0.003596;-0.015228;0.009412;19.246712;154.246719;0.012549;0.011539;-0.014347;0.006878;0.001075;0.002714;-0.005803;0.872719;-0.011632;0.011632;0.040092
0.434848;-3.493554;0.939817;-0.778799;0.057276;-0.061222;0.783299;-0.012775;-3.684577e-05;0.004977;8.639786;-346.728271;-0.002884;0.115744;0.001677;-0.014489;0.008083;6.029983;141.029984;0.010778;0.010264;-0.012775;0.01034;-3.862752e-04;-3.684577e-05;-0.010726;0.878595;-0.012812;0.012812;0.016059
0.502013;-3.493554;0.946245;-0.77886;0.057109;-0.065459;0.78369;-6.00522e-04;-7.193947e-04;0.001802;2.154489;-0.83476;-1.197949;0.464147;0.001143;-0.002463;0.001803;144.07811;99.07811;0.002404;0.002128;-6.00522e-04;0.003611;-6.523274e-06;-7.193947e-04;-0.003618;0.880786;-0.00132;0.00132;0.022929
0.569178;-3.493554;0.951946;-0.779072;0.057273;-0.059017;0.783401;0.015065;0.00562;-0.007781;-0.063794;-2.680686;-0.373039;-15.675575;0.019444;0.00124;0.009102;176.866592;131.866592;0.012136;0.012569;0.015065;-0.015723;1.613798e-04;0.00562;0.015884;0.892929;0.020684;-0.020684;0.022128
0.636344;-3.493554;0.959731;-0.779144;0.057129;-0.051406;0.782925;-4.154538e-04;0.003729;-0.006775;0.620932;0.111409;8.975908;1.610482;0.008741;-0.005428;0.007085;134.890198;89.890205;0.009446;0.008255;-4.154538e-04;-0.012267;-0.001283;0.003729;0.010984;0.908325;0.003314;-0.003314;0.025674
0.703509;-3.493554;0.978131;-0.778877;0.057329;-0.059664;0.78326;0.012953;-0.00776;-0.003412;0.615382;1.669099;0.599126;1.625006;0.0135;-0.008308;0.010904;18.951715;153.951721;0.014539;0.012709;0.012953;-0.005154;-0.00167;-0.00776;0.003484;0.918467;0.005192;-0.005192;0.040122
0.770674;-3.493554;0.957169;-0.778862;0.057415;-0.066898;0.783836;-0.006521;-0.005972;0.009633;4.684793;-1.091861;-0.915867;0.213457;0.003391;-0.015884;0.009637;151.629807;106.629807;0.01285;0.011882;-0.006521;0.019776;-5.092295e-04;-0.005972;-0.020285;0.890272;-0.012493;0.012493;0.053679
0.83784;-3.493554;0.930298;-0.778865;0.057266;-0.058032;0.783121;-0.008716;-0.002644;0.010809;3.047873;-3.296146;-0.303385;0.328098;0.005547;-0.016907;0.011227;158.689377;113.689377;0.01497;0.013506;-0.008716;0.020009;0.001609;-0.002644;-0.0184;0.872266;-0.01136;0.01136;0.036507
0.905005;-3.493554;0.945974;-0.779082;0.05746;-0.046329;0.78257;-0.01;0.003522;0.004168;2.377311;2.839243;0.352207;0.420643;0.004703;-0.011181;0.007942;2.056345;137.056351;0.01059;0.009422;-0.01;0.008665;-3.29597e-04;0.003522;-0.008994;0.899645;-0.006478;0.006478;0.026445
0.97217;-3.493554;0.914975;-0.779303;0.057277;-0.048585;0.782914;0.019848;0.005296;0.004894;-0.178202;-3.748062;-0.266805;-5.611618;0.021341;0.003803;0.008769;74.663795;29.663795;0.011692;0.013144;0.019848;0.010864;-0.001077;0.005296;-0.011941;0.86639;0.025144;-0.025144;0.012203
1.039336;-3.493554;0.887135;-0.77916;0.057307;-0.054607;0.78317;-0.005068;0.002769;0.001446;1.759726;1.830571;0.546278;0.56827;0.003027;-0.005326;0.004177;17.734987;152.734985;0.005569;0.004883;-0.005068;0.002229;6.619499e-04;0.002769;-0.001567;0.832529;-0.0023;0.0023;0.007381
1.106501;-3.493554;0.881265;-0.779395;0.05735;-0.049283;0.783055;-0.022485;-6.721381e-05;0.00472;26.44985;-334.522064;-0.002989;0.037807;8.861237e-04;-0.023438;0.012162;24.05353;159.053528;0.016216;0.015929;-0.022485;0.008615;8.252526e-04;-6.721381e-05;-0.00779;0.831982;-0.022552;0.022552;0.012287
1.173667;-3.493554;0.851196;-0.77954;0.057267;-0.043709;0.782861;0.024201;-0.002172;0.001999;0.095362;11.144507;0.08973;10.486399;0.024351;-0.002322;0.013337;52.919388;7.919388;0.017782;0.017061;0.024201;0.003394;6.037537e-04;-0.002172;-0.00279;0.807487;0.022029;-0.022029;0.033164
1.240832;-3.493554;0.811434;-0.779753;0.057174;-0.052523;0.783609;0.045319;0.002446;-0.001265;-0.053109;-18.526779;-0.053976;-18.82918;0.045357;0.002409;0.021474;41.187702;176.187698;0.028632;0.029468;0.045319;-0.003039;5.082634e-04;0.002446;0.003547;0.758911;0.047766;-0.047766;0.061636
1.307997;-3.493554;0.769683;-0.77966;0.05736;-0.056939;0.783838;0.006089;0.005399;-0.011212;0.32271;-1.127737;-0.886731;3.098756;0.016961;-0.005474;0.011217;148.856247;103.856247;0.014956;0.013507;0.006089;-0.023014;5.901568e-04;0.005399;0.023604;0.712744;0.011488;-0.011488;0.0881
1.375163;-3.493554;0.699565;-0.779241;0.057386;-0.056472;0.783389;0.002075;0.007669;-0.015585;0.529412;-0.270556;-3.696088;1.888887;0.020707;-0.010962;0.015834;138.702911;93.702919;0.021113;0.01857;0.002075;-0.030963;-2.08405e-04;0.007669;0.030754;0.643093;0.009744;-0.009744;0.081796
1.442328;-3.493554;0.576958;-0.779706;0.057391;-0.058169;0.783976;-0.019951;0.006573;-0.006264;2.676826;3.035207;0.329467;0.373577;0.007978;-0.021356;0.014667;82.226486;37.22649;0.019556;0.017513;-0.019951;-0.014005;0.001477;0.006573;0.015482;0.518789;-0.013378;0.013378;0.040083
1.509493;-3.493554;0.452539;-0.780121;0.057783;-0.051729;0.783967;-0.050263;0.004288;0.009057;8.99194;11.721277;0.085315;0.111211;0.005753;-0.051727;0.02874;28.426825;163.426819;0.03832;0.036554;-0.050263;0.015121;0.002994;0.004288;-0.012127;0.40081;-0.045975;0.045975;0.014249
-0.236806;-3.560719;0.460267;-0.777908;0.057335;-0.053887;0.781877;0.082436;-5.363661e-04;-0.009966;0.020529;153.692993;0.006506;48.711571;0.083616;-0.001717;0.042666;31.256544;166.256546;0.056888;0.056325;0.082436;-0.02016;2.285272e-04;-5.363661e-04;0.020388;0.406379;0.081899;-0.081899;0.035002
-0.169641;-3.560719;0.535513;-0.778274;0.057676;-0.043831;0.781638;-0.002428;2.442061e-04;0.002813;2.08027;9.944407;0.100559;0.480707;0.002022;-0.004206;0.003114;162.594437;117.594429;0.004152;0.003669;-0.002428;0.004722;9.040326e-04;2.442061e-04;-0.003818;0.491682;-0.002184;0.002184;0.038178
-0.102475;-3.560719;0.627376;-0.77823;0.057648;-0.051746;0.782076;-0.031572;0.001734;-0.009864;7.725895;18.205559;0.054928;0.129435;0.004436;-0.034274;0.019355;74.820129;29.820129;0.025807;0.024463;-0.031572;-0.018134;-0.001594;0.001734;0.01654;0.575631;-0.029838;0.029838;0.012858
-0.03531;-3.560719;0.713987;-0.778234;0.057268;-0.054908;0.782268;0.012723;0.002676;-0.002589;-0.153424;-4.753671;-0.210364;-6.517878;0.013351;0.002048;0.005651;30.013157;165.013153;0.007535;0.008302;0.012723;-0.002953;-0.002226;0.002676;7.273533e-04;0.659079;0.015399;-0.015399;0.007494
0.031855;-3.560719;0.751224;-0.778242;0.057169;-0.046388;0.781716;0.018474;0.005883;0.009222;-0.043392;-3.140097;-0.318461;-23.045622;0.023344;0.001013;0.011165;92.743362;47.743362;0.014887;0.015236;0.018474;0.019371;-9.27535e-04;0.005883;-0.020298;0.704836;0.024357;-0.024357;0.038912
0.099021;-3.560719;0.798797;-0.77826;0.05711;-0.048679;0.78187;-0.020275;0.005342;0.006002;3.235634;3.794988;0.263505;0.309058;0.006679;-0.021611;0.014145;12.355369;147.355362;0.01886;0.017075;-0.020275;0.012307;-3.025516e-04;0.005342;-0.01261;0.750118;-0.014932;0.014932;0.027011
0.166186;-3.560719;0.846783;-0.778275;0.057384;-0.05638;0.782422;-0.027516;0.002416;0.004844;8.892926;11.390145;0.087795;0.112449;0.00318;-0.02828;0.01573;26.342731;161.342728;0.020974;0.019998;-0.027516;0.009258;4.289675e-04;0.002416;-0.008829;0.790403;-0.0251;0.0251;0.00571
0.233352;-3.560719;0.882718;-0.778281;0.057287;-0.058362;0.782566;-6.028902e-04;-0.002758;0.007382;1.581406;-0.218611;-4.574341;0.632349;0.00578;-0.009141;0.007461;136.032501;91.032501;0.009948;0.008687;-6.028902e-04;0.016566;-0.001801;-0.002758;-0.018368;0.824356;-0.003361;0.003361;0.014577
0.300517;-3.560719;0.911861;-0.77857;0.057164;-0.05545;0.782632;0.002237;-0.005352;0.00673;1.504926;0.418043;2.392098;0.664484;0.006169;-0.009284;0.007726;126.031647;81.031647;0.010302;0.008982;0.002237;0.014398;-9.379876e-04;-0.005352;-0.015336;0.856411;-0.003115;0.003115;0.046778
0.367682;-3.560719;0.928887;-0.778768;0.05709;-0.057275;0.782955;-0.014641;-0.002205;0.007799;11.860305;-6.638336;-0.15064;0.084315;0.001551;-0.018397;0.009974;177.249512;132.249512;0.013299;0.012813;-0.014641;0.015951;-3.529098e-04;-0.002205;-0.016304;0.871612;-0.016846;0.016846;0.073887
0.434848;-3.560719;0.947449;-0.778713;0.057206;-0.062513;0.78331;-0.011586;3.168554e-04;0.006356;4.667169;36.565914;0.027348;0.214263;0.003073;-0.014342;0.008708;179.291946;134.291946;0.01161;0.010733;-0.011586;0.0119;8.129712e-04;3.168554e-04;-0.011087;0.884937;-0.011269;0.011269;0.0491
0.502013;-3.560719;0.960237;-0.778682;0.057344;-0.064385;0.783441;0.009298;0.004363;-0.005975;-0.027537;-2.131197;-0.46922;-36.315277;0.013295;3.660995e-04;0.006464;166.793945;121.793938;0.008619;0.008744;0.009298;-0.013792;0.001842;0.004363;0.015634;0.895852;0.013661;-0.013661;0.035274
0.569178;-3.560719;0.984929;-0.778653;0.05734;-0.058157;0.782924;0.018808;0.004687;-0.017559;0.234011;-4.013188;-0.249178;4.273305;0.030673;-0.007178;0.018925;164.060287;119.060287;0.025233;0.023214;0.018808;-0.033601;-0.001516;0.004687;0.032085;0.926772;0.023495;-0.023495;0.004263
0.636344;-3.560719;0.988041;-0.778781;0.057057;-0.050914;0.782526;-0.001126;0.004628;-0.001783;0.318021;0.243226;4.111408;3.144443;0.005136;-0.001633;0.003384;151.752441;106.752441;0.004513;0.004079;-0.001126;-0.00173;-0.001835;0.004628;-1.051299e-04;0.937127;0.003502;-0.003502;0.015565
0.703509;-3.560719;0.975207;-0.778735;0.057139;-0.056099;0.782841;0.01222;0.005702;0.006725;-0.090566;-2.143034;-0.466628;-11.041615;0.016434;0.001488;0.007473;93.142899;48.142899;0.009964;0.010495;0.01222;0.012355;0.001094;0.005702;-0.011261;0.919107;0.017922;-0.017922;0.04573
0.770674;-3.560719;0.959613;-0.778927;0.057094;-0.059663;0.783292;-0.00617;0.009936;0.007975;0.715043;0.62096;1.61041;1.398518;0.013217;-0.00945;0.011333;151.359695;106.359695;0.015111;0.013147;-0.00617;0.016427;-4.77352e-04;0.009936;-0.016904;0.89995;0.003766;-0.003766;0.040032
0.83784;-3.560719;0.936748;-0.77916;0.056893;-0.052277;0.782981;-0.005535;0.004151;-0.003401;1.264785;1.333337;0.749998;0.790649;0.005226;-0.006609;0.005918;101.449471;56.449474;0.00789;0.006849;-0.005535;-0.006607;-1.94526e-04;0.004151;0.006412;0.884471;-0.001384;0.001384;0.033101
0.905005;-3.560719;0.943425;-0.779045;0.057067;-0.049596;0.782705;-7.811771e-04;-0.00321;-0.005959;1.976868;-0.243332;-4.109612;0.505851;0.004086;-0.008078;0.006082;130.773087;85.773087;0.008109;0.007148;-7.811771e-04;-0.01145;-4.681344e-04;-0.00321;0.010982;0.893829;-0.003992;0.003992;0.036256
0.97217;-3.560719;0.913301;-0.779114;0.056969;-0.05253;0.782958;0.013176;-6.388755e-04;-0.017766;0.505047;20.623838;0.048488;1.980015;0.02533;-0.012793;0.019061;155.315796;110.315788;0.025415;0.022403;0.013176;-0.035581;4.947169e-05;-6.388755e-04;0.035631;0.860771;0.012537;-0.012537;0.016637
1.039336;-3.560719;0.878783;-0.779142;0.057156;-0.056364;0.783266;-0.016232;0.002683;-0.004479;4.671653;6.049409;0.165305;0.214057;0.00369;-0.017239;0.010464;81.878952;36.878952;0.013953;0.0129;-0.016232;-0.012114;0.003156;0.002683;0.01527;0.822418;-0.013549;0.013549;0.002735
1.106501;-3.560719;0.84816;-0.779392;0.057577;-0.048577;0.783024;-0.027527;0.005043;0.002987;5.230036;5.457848;0.183222;0.191203;0.005315;-0.027798;0.016557;31.87542;166.875412;0.022076;0.020534;-0.027527;0.00618;-2.062835e-04;0.005043;-0.006386;0.799583;-0.022483;0.022483;0.002348
1.173667;-3.560719;0.803008;-0.779335;0.057463;-0.046686;0.782844;0.020707;0.006192;-0.013195;0.056439;-3.344012;-0.299042;17.718103;0.028509;-0.001609;0.015059;176.874252;131.874252;0.020078;0.019564;0.020707;-0.022635;-0.003755;0.006192;0.01888;0.756321;0.0269;-0.0269;0.013186
1.240832;-3.560719;0.801384;-0.779373;0.057292;-0.061136;0.783864;0.047016;-8.039243e-04;-0.007508;0.040588;58.483276;0.017099;24.638086;0.048167;-0.001955;0.025061;28.861561;163.861557;0.033415;0.032783;0.047016;-0.013632;-0.001384;-8.039243e-04;0.012248;0.740248;0.046212;-0.046212;0.043852
1.307997;-3.560719;0.757769;-0.779583;0.056968;-0.064762;0.78434;0.004804;0.001254;-0.012685;0.61747;-3.831611;-0.260987;1.619512;0.015838;-0.009779;0.012808;146.06134;101.061333;0.017078;0.014927;0.004804;-0.024695;-6.745356e-04;0.001254;0.02402;0.693007;0.006058;-0.006058;0.041828
1.375163;-3.560719;0.669333;-0.779591;0.056899;-0.061034;0.784044;-0.001674;0.003103;-0.010311;0.873545;0.539541;1.853427;1.14476;0.011298;-0.00987;0.010584;130.508331;85.508324;0.014112;0.012231;-0.001674;-0.020378;-2.436447e-04;0.003103;0.020135;0.608299;0.001429;-0.001429;0.039284
1.442328;-3.560719;0.554052;-0.779858;0.056968;-0.062427;0.784424;-0.026661;0.002424;-0.014226;3.946816;10.999223;0.090916;0.253369;0.008225;-0.032462;0.020344;93.746109;48.746109;0.027125;0.024841;-0.026661;-0.03038;0.001928;0.002424;0.032308;0.491625;-0.024237;0.024237;0.021457
1.509493;-3.560719;0.437708;-0.780101;0.057624;-0.048013;0.783699;-0.070844;-3.062245e-04;-0.019456;16.124355;-231.347961;-0.004322;0.062018;0.004704;-0.075855;0.04028;75.739868;30.73987;0.053706;0.052209;-0.070844;-0.042204;0.003292;-3.062245e-04;0.045496;0.389695;-0.071151;0.071151;0.013588
-0.236806;-3.627884;0.446925;-0.778061;0.057494;-0.051926;0.781908;0.012984;0.002503;0.003824;-0.088264;-5.187257;-0.19278;-11.329604;0.01423;0.001256;0.006487;68.568436;23.568436;0.00865;0.009097;0.012984;0.005332;0.002317;0.002503;-0.003015;0.394999;0.015487;-0.015487;0.032499
-0.169641;-3.627884;0.538713;-0.77842;0.057775;-0.051364;0.782249;-0.004289;-1.20576e-04;0.017675;1.282789;-35.569519;-0.028114;0.779552;0.015593;-0.020002;0.017797;142.036957;97.036949;0.02373;0.020603;-0.004289;0.034769;5.802786e-04;-1.20576e-04;-0.034189;0.487348;-0.004409;0.004409;0.046309
-0.102475;-3.627884;0.645426;-0.778138;0.057594;-0.05187;0.781988;-0.020049;1.284692e-04;0.018785;2.75315;156.058838;0.006408;0.36322;0.011363;-0.031283;0.021323;161.79895;116.798943;0.02843;0.025501;-0.020049;0.039799;-0.002229;1.284692e-04;-0.042028;0.593556;-0.01992;0.01992;0.05041
-0.03531;-3.627884;0.729025;-0.778036;0.057101;-0.054886;0.782057;-0.00708;0.001024;0.015204;1.47664;6.913498;0.144645;0.677213;0.012706;-0.018762;0.015734;147.14357;102.143562;0.020979;0.01828;-0.00708;0.033569;-0.003162;0.001024;-0.036731;0.674139;-0.006056;0.006056;0.02426
0.031855;-3.627884;0.740547;-0.778223;0.056973;-0.057009;0.782385;0.014128;0.004327;0.014873;0.258431;-3.264794;-0.306298;3.869502;0.024887;-0.006432;0.015659;111.475044;66.475044;0.020879;0.0191;0.014128;0.031649;-0.001903;0.004327;-0.033551;0.683538;0.018456;-0.018456;0.021735
0.099021;-3.627884;0.780836;-0.778406;0.057063;-0.052004;0.782225;0.003497;0.004525;0.007812;0.322402;-0.772851;-1.293911;3.101716;0.01184;-0.003817;0.007828;119.990631;74.990631;0.010438;0.009427;0.003497;0.013807;0.001816;0.004525;-0.011992;0.728832;0.008023;-0.008023;0.012436
0.166186;-3.627884;0.84701;-0.778371;0.057071;-0.054076;0.782331;-0.027712;0.001764;-0.006718;9.050282;15.705953;0.06367;0.110494;0.003223;-0.029171;0.016197;70.464256;25.464258;0.021596;0.020606;-0.027712;-0.013165;-2.703546e-04;0.001764;0.012895;0.792934;-0.025948;0.025948;0.00628
0.233352;-3.627884;0.899142;-0.778532;0.056982;-0.060115;0.782926;-0.011122;7.413964e-04;-0.005771;4.364009;15.001353;0.066661;0.229147;0.003086;-0.013466;0.008276;87.812805;42.812809;0.011035;0.010164;-0.011122;-0.010349;-0.001194;7.413964e-04;0.009155;0.839026;-0.010381;0.010381;0.003826
0.300517;-3.627884;0.923816;-0.778682;0.056995;-0.057295;0.782864;0.00152;0.001641;-0.001532;-0.01498;-0.926624;-1.079187;-66.753723;0.003114;4.664877e-05;0.001534;161.158234;116.158234;0.002045;0.002061;0.00152;-0.002657;-4.079825e-04;0.001641;0.002249;0.866521;0.003161;-0.003161;0.007369
0.367682;-3.627884;0.935519;-0.778792;0.05685;-0.057462;0.782975;-0.015755;0.002417;-0.001335;6.304468;6.518594;0.153407;0.158618;0.002514;-0.015852;0.009183;50.884193;5.884192;0.012244;0.011498;-0.015755;-0.001732;-9.377688e-04;0.002417;7.945505e-04;0.878056;-0.013338;0.013338;0.03735
0.434848;-3.627884;0.96122;-0.778874;0.056825;-0.06378;0.783544;-0.011572;0.00391;0.002447;2.786781;2.959246;0.337924;0.358837;0.004288;-0.011949;0.008119;21.914663;156.914658;0.010825;0.009716;-0.011572;0.004538;3.553881e-04;0.00391;-0.004183;0.89744;-0.007661;0.007661;0.029509
0.502013;-3.627884;0.976235;-0.778714;0.057072;-0.062107;0.783269;0.0197;0.006461;-0.001366;-0.318637;-3.049083;-0.327967;-3.138365;0.01984;0.006322;0.006759;33.061348;168.061356;0.009012;0.011703;0.0197;-0.004199;0.001468;0.006461;0.005666;0.914127;0.026161;-0.026161;0.030986
0.569178;-3.627884;1.002654;-0.778676;0.057166;-0.0549;0.7827;0.01305;0.005205;-6.564322e-04;-0.393008;-2.507334;-0.39883;-2.544478;0.013105;0.00515;0.003977;38.756767;173.756775;0.005303;0.007624;0.01305;-0.001133;-1.802158e-04;0.005205;9.524329e-04;0.947753;0.018255;-0.018255;0.007556
0.636344;-3.627884;0.995715;-0.778935;0.056988;-0.052184;0.782758;-4.205249e-04;0.003365;-9.753391e-04;0.182434;0.12497;8.001932;5.481426;0.003602;-6.570424e-04;0.002129;169.674805;124.674805;0.002839;0.002647;-4.205249e-04;3.543589e-04;-0.002305;0.003365;-0.002659;0.943531;0.002944;-0.002944;0.003549
0.703509;-3.627884;0.968853;-0.779109;0.056781;-0.054408;0.783068;0.004048;5.934698e-04;-4.09341e-04;-0.133216;-6.820874;-0.146609;-7.506629;0.004096;5.456277e-04;0.001775;50.865307;5.865307;0.002367;0.002568;0.004048;6.759456e-04;-0.001495;5.934698e-04;-0.002171;0.914445;0.004641;-0.004641;0.009523
0.770674;-3.627884;0.966184;-0.779187;0.056861;-0.053991;0.783123;-0.002061;-0.001396;-0.00128;-7.522869;-1.476757;-0.677159;-0.132928;-4.055728e-04;-0.003051;0.001323;115.804909;70.804909;0.001764;0.001913;-0.002061;-0.005195;0.002634;-0.001396;0.007829;0.912193;-0.003457;0.003457;0.018232
0.83784;-3.627884;0.958934;-0.779215;0.057077;-0.054456;0.783198;0.002933;-0.008411;-0.003275;2.437645;0.348688;2.867896;0.410232;0.003811;-0.009289;0.00655;153.280762;108.280762;0.008733;0.007781;0.002933;-0.009595;0.003044;-0.008411;0.012639;0.904478;-0.005478;0.005478;0.026088
0.905005;-3.627884;0.952978;-0.778977;0.057038;-0.059975;0.783362;0.006474;-0.004405;-0.009782;0.830795;1.469631;0.680443;1.203667;0.012227;-0.010158;0.011193;152.347778;107.347778;0.014923;0.012942;0.006474;-0.0203;7.369469e-04;-0.004405;0.021037;0.893003;0.002069;-0.002069;0.027475
0.97217;-3.627884;0.93402;-0.779217;0.056887;-0.06193;0.783742;-0.009566;-0.001405;-0.010068;3.039826;-6.810145;-0.14684;0.328966;0.005378;-0.016348;0.010863;110.245926;65.245926;0.014484;0.013066;-0.009566;-0.020629;4.939194e-04;-0.001405;0.021123;0.87209;-0.01097;0.01097;0.001059
1.039336;-3.627884;0.886286;-0.779427;0.057231;-0.057212;0.783616;-0.033416;8.436779e-04;-6.354384e-04;39.07621;39.607937;0.025247;0.025591;8.554597e-04;-0.033428;0.017142;52.388077;7.388079;0.022856;0.022576;-0.033416;-0.004291;0.00302;8.436779e-04;0.007312;0.829073;-0.032573;0.032573;0.012885
1.106501;-3.627884;0.826891;-0.779323;0.057614;-0.049303;0.783004;-0.018053;4.579419e-04;-0.006305;8.327192;39.421272;0.025367;0.120088;0.002401;-0.019996;0.011199;77.177071;32.177067;0.014932;0.014199;-0.018053;-0.011403;-0.001207;4.579419e-04;0.010196;0.777588;-0.017595;0.017595;0.030082
1.173667;-3.627884;0.815681;-0.779181;0.057023;-0.050231;0.782878;0.004891;-0.002882;0.00273;0.650932;1.696818;0.589338;1.536259;0.005754;-0.003745;0.004749;103.067139;58.067139;0.006333;0.005525;0.004891;0.009106;-0.003646;-0.002882;-0.012752;0.76545;0.002008;-0.002008;0.022073
1.240832;-3.627884;0.84539;-0.779467;0.056803;-0.057419;0.78364;0.031142;0.002366;0.009598;0.015907;-13.164172;-0.075964;62.867325;0.03405;-5.41609e-04;0.017296;76.592621;31.592617;0.023061;0.022882;0.031142;0.019069;1.263152e-04;0.002366;-0.018943;0.787971;0.033508;-0.033508;0.003878
1.307997;-3.627884;0.784386;-0.779773;0.057063;-0.06246;0.784349;0.00161;-1.965041e-04;0.011286;0.882462;8.194854;0.122028;1.133193;0.012029;-0.010615;0.011322;130.66925;85.669243;0.015096;0.013082;0.00161;0.021184;0.001387;-1.965041e-04;-0.019798;0.721925;0.001414;-0.001414;0.005349
1.375163;-3.627884;0.677161;-0.779861;0.057102;-0.058877;0.784162;-0.002786;-0.00168;0.008473;1.713588;-1.657795;-0.603211;0.583571;0.006258;-0.010724;0.008491;144.011093;99.011093;0.011322;0.009917;-0.002786;0.01724;-2.929545e-04;-0.00168;-0.017533;0.618283;-0.004466;0.004466;0.025739
1.442328;-3.627884;0.57691;-0.779821;0.057007;-0.062292;0.78438;-0.005983;-0.00138;-0.002633;-38.839081;-4.335012;-0.23068;-0.025747;-1.848169e-04;-0.007178;0.003497;96.132309;51.132305;0.004662;0.004725;-0.005983;-0.007594;0.002329;-0.00138;0.009923;0.514618;-0.007363;0.007363;0.034793
1.509493;-3.627884;0.486669;-0.779798;0.057535;-0.061001;0.784294;-0.033732;-0.004528;-0.022904;5.762617;-7.45022;-0.134224;0.173532;0.008033;-0.046292;0.027163;101.627441;56.627438;0.036217;0.033859;-0.033732;-0.051025;0.005216;-0.004528;0.056241;0.425668;-0.038259;0.038259;0.00411
-0.236806;-3.69505;0.487416;-0.777994;0.057046;-0.051272;0.781766;0.01089;0.003791;0.016335;0.389743;-2.872547;-0.348123;2.565794;0.024057;-0.009376;0.016716;116.619026;71.619026;0.022289;0.019913;0.01089;0.03244;2.303116e-04;0.003791;-0.03221;0.436144;0.014681;-0.014681;0.042399
-0.169641;-3.69505;0.586101;-0.778347;0.057095;-0.052825;0.782224;-0.020852;0.002093;0.01578;2.851802;9.963651;0.100365;0.350655;0.01013;-0.028889;0.01951;169.039276;124.039268;0.026013;0.02338;-0.020852;0.030755;8.053349e-04;0.002093;-0.02995;0.533276;-0.018759;0.018759;0.051988
-0.102475;-3.69505;0.654302;-0.778211;0.057077;-0.058993;0.782529;-0.022098;0.002309;0.025373;2.083687;9.570945;0.104483;0.479919;0.018261;-0.03805;0.028155;157.789978;112.78997;0.03754;0.033173;-0.022098;0.052714;-0.001968;0.002309;-0.054682;0.595309;-0.019789;0.019789;0.049639
-0.03531;-3.69505;0.726432;-0.778006;0.056797;-0.059847;0.782369;-0.00446;0.005282;0.018403;0.957738;0.844382;1.184298;1.044126;0.019448;-0.018626;0.019037;141.850082;96.850082;0.025383;0.021984;-0.00446;0.039355;-0.002548;0.005282;-0.041903;0.666585;8.218996e-04;-8.218996e-04;0.052341
0.031855;-3.69505;0.754805;-0.778137;0.056507;-0.059802;0.782475;0.020503;0.002125;0.010135;0.094684;-9.649879;-0.103628;10.561497;0.024994;-0.002367;0.01368;91.055664;46.05566;0.01824;0.017505;0.020503;0.021179;-9.098305e-04;0.002125;-0.022089;0.695003;0.022627;-0.022627;0.044824
0.099021;-3.69505;0.794263;-0.778441;0.056686;-0.051018;0.782168;0.019508;0.002026;0.011531;0.146733;-9.630694;-0.103835;6.815084;0.025237;-0.003703;0.01447;93.377396;48.377392;0.019293;0.018185;0.019508;0.021899;0.001163;0.002026;-0.020736;0.743244;0.021534;-0.021534;0.02022
0.166186;-3.69505;0.826197;-0.778461;0.056865;-0.050993;0.7822;-0.012092;0.003565;0.003728;2.934972;3.39223;0.294791;0.340719;0.004407;-0.012935;0.008671;14.171455;149.171448;0.011561;0.010408;-0.012092;0.006848;6.083786e-04;0.003565;-0.00624;0.775204;-0.008528;0.008528;0.042182
0.233352;-3.69505;0.861177;-0.778637;0.056897;-0.055394;0.782676;-0.007375;-0.003141;-0.008099;4.378321;-2.348127;-0.425871;0.228398;0.003113;-0.013629;0.008371;108.951859;63.951859;0.011161;0.010282;-0.007375;-0.014964;-0.001233;-0.003141;0.013731;0.805783;-0.010516;0.010516;0.048357
0.300517;-3.69505;0.905663;-0.778533;0.056892;-0.054941;0.78254;-0.001254;-0.002218;-0.007362;1.615469;-0.56565;-1.767878;0.619015;0.005641;-0.009113;0.007377;129.028931;84.028931;0.009836;0.008597;-0.001254;-0.013544;-0.001179;-0.002218;0.012364;0.850722;-0.003472;0.003472;0.044836
0.367682;-3.69505;0.923267;-0.778527;0.056857;-0.056542;0.782646;-0.019612;-5.292341e-04;-0.006713;13.620875;-37.05711;-0.026985;0.073417;0.001596;-0.021737;0.011666;75.343231;30.343229;0.015555;0.015051;-0.019612;-0.011529;-0.001898;-5.292341e-04;0.009631;0.866724;-0.020141;0.020141;0.032856
0.434848;-3.69505;0.952771;-0.778779;0.056657;-0.065983;0.783621;-0.020573;0.00177;-0.00344;9.220755;11.626104;0.086013;0.108451;0.002287;-0.021091;0.011689;60.352005;15.352007;0.015585;0.014882;-0.020573;-0.005713;-0.001168;0.00177;0.004544;0.886789;-0.018803;0.018803;0.043816
0.502013;-3.69505;0.975282;-0.778891;0.056386;-0.06335;0.783494;0.014692;0.009339;0.010245;-0.063117;-1.573282;-0.635614;-15.843647;0.022604;0.001427;0.010589;99.362152;54.362148;0.014118;0.014617;0.014692;0.018158;0.002332;0.009339;-0.015826;0.911932;0.024031;-0.024031;0.062124
0.569178;-3.69505;0.978338;-0.778932;0.05661;-0.052851;0.782773;0.006511;0.018782;0.011826;0.026049;-0.346677;-2.884526;38.388481;0.025969;-6.764872e-04;0.013323;124.339462;79.339462;0.017764;0.017543;0.006511;0.02292;7.319231e-04;0.018782;-0.022189;0.925487;0.025293;-0.025293;0.039826
0.636344;-3.69505;0.981574;-0.778969;0.05673;-0.054225;0.782912;-0.002856;0.013207;-6.502834e-04;0.217839;0.216282;4.62359;4.590555;0.013233;-0.002883;0.008058;135.813873;90.813873;0.010744;0.009924;-0.002856;-9.216053e-04;-3.789614e-04;0.013207;5.426439e-04;0.927348;0.010351;-0.010351;0.025069
0.703509;-3.69505;0.993829;-0.778933;0.056685;-0.061143;0.783382;-3.065632e-04;-0.007335;-5.303476e-04;-27.645052;-0.041794;-23.926834;-0.036173;-2.667703e-04;-0.007375;0.003554;145.886475;100.886475;0.004739;0.00483;-3.065632e-04;-0.002768;0.001707;-0.007335;0.004475;0.932686;-0.007642;0.007642;0.025796
0.770674;-3.69505;0.985374;-0.778836;0.056794;-0.058129;0.783064;-0.003101;-0.005427;-0.00465;17.121019;-0.571441;-1.749961;0.058408;5.290286e-04;-0.009058;0.004793;127.470207;82.470207;0.006391;0.006222;-0.003101;-0.012311;0.003011;-0.005427;0.015322;0.927245;-0.008528;0.008528;0.03518
0.83784;-3.69505;0.971358;-0.778914;0.056944;-0.061013;0.783372;0.006525;0.001341;-9.741992e-04;-0.173703;-4.86502;-0.205549;-5.756942;0.006702;0.001164;0.002769;24.793062;159.79306;0.003692;0.004135;0.006525;-0.002391;4.42896e-04;0.001341;0.002834;0.910345;0.007866;-0.007866;0.034633
0.905005;-3.69505;0.951061;-0.778959;0.056822;-0.063384;0.783597;0.003806;0.002519;3.109596e-04;-0.631432;-1.51066;-0.661962;-1.583701;0.003877;0.002448;7.144653e-04;68.151192;23.151192;9.526205e-04;0.002264;0.003806;0.001494;-8.715961e-04;0.002519;-0.002365;0.887677;0.006325;-0.006325;0.028486
0.97217;-3.69505;0.92447;-0.778983;0.056745;-0.059997;0.783348;-0.021182;0.001201;0.004317;10.965156;17.63434;0.056708;0.091198;0.002005;-0.021986;0.011996;26.740635;161.740631;0.015994;0.01537;-0.021182;0.007074;0.001561;0.001201;-0.005513;0.864473;-0.019981;0.019981;0.0127
1.039336;-3.69505;0.899972;-0.779077;0.057088;-0.05249;0.782927;-0.028823;0.003608;0.003041;7.481247;7.989184;0.125169;0.133668;0.003891;-0.029106;0.016498;40.056396;175.056396;0.021998;0.020822;-0.028823;0.002879;0.003203;0.003608;3.237202e-04;0.847482;-0.025215;0.025215;0.003661
1.106501;-3.69505;0.859792;-0.779421;0.057282;-0.051579;0.783223;-0.002788;0.002274;-0.004331;1.107922;1.225857;0.815756;0.902591;0.00476;-0.005273;0.005016;117.818649;72.818649;0.006689;0.005795;-0.002788;-0.007949;-7.12756e-04;0.002274;0.007237;0.808213;-5.136663e-04;5.136663e-04;0.00963
1.173667;-3.69505;0.839776;-0.779511;0.056833;-0.054673;0.78349;0.007415;0.003755;-0.00307;-0.219583;-1.974383;-0.506487;-4.55408;0.009159;0.002011;0.003574;16.580042;151.580048;0.004765;0.005558;0.007415;-0.002839;-0.003301;0.003755;-4.617379e-04;0.785103;0.01117;-0.01117;0.027278
1.240832;-3.69505;0.829674;-0.779662;0.056786;-0.056966;0.7838;0.01941;-0.00398;0.002133;0.212889;4.876482;0.205066;4.697275;0.019602;-0.004173;0.011888;44.539951;179.539948;0.01585;0.014659;0.01941;5.975445e-04;0.003668;-0.00398;0.003071;0.772708;0.015429;-0.015429;0.034467
1.307997;-3.69505;0.766522;-0.779802;0.057326;-0.060864;0.784272;0.006349;-0.001034;0.010762;0.62135;6.138502;0.162906;1.609398;0.014035;-0.008721;0.011378;116.883354;71.883354;0.015171;0.013257;0.006349;0.019293;0.002232;-0.001034;-0.017061;0.705658;0.005314;-0.005314;0.004359
1.375163;-3.69505;0.677898;-0.779867;0.057292;-0.058798;0.784176;-0.001525;0.002977;0.006328;0.804872;0.512242;1.952201;1.242433;0.007443;-0.00599;0.006717;141.831909;96.831909;0.008955;0.007771;-0.001525;0.013331;-6.745255e-04;0.002977;-0.014005;0.6191;0.001452;-0.001452;0.008673
1.442328;-3.69505;0.581107;-0.779858;0.05701;-0.060078;0.784244;0.003432;0.002696;0.011715;0.585517;-1.272908;-0.785603;1.707892;0.014784;-0.008657;0.011721;126.023643;81.023643;0.015627;0.013687;0.003432;0.022293;0.001137;0.002696;-0.021156;0.521029;0.006128;-0.006128;0.045939
1.509493;-3.69505;0.481266;-0.779788;0.057471;-0.061214;0.784295;-0.002884;0.002246;0.018147;1.035393;1.283746;0.77897;0.965817;0.018009;-0.018647;0.018328;139.631271;94.631271;0.024437;0.021164;-0.002884;0.033146;0.003149;0.002246;-0.029998;0.420052;-6.374028e-04;6.374028e-04;0.007126
-0.303971;-3.762215;0.341587;-0.778317;0.056769;-0.062217;0.782861;0.044203;0.003601;0.015247;0.030164;-12.274343;-0.081471;33.152027;0.049291;-0.001487;0.025389;80.116791;35.116791;0.033852;0.033368;0.044203;0.030963;-4.686479e-04;0.003601;-0.031432;0.279371;0.047805;-0.047805;0.008426
-0.236806;-3.762215;0.497203;-0.777966;0.056597;-0.054861;0.781949;0.023141;0.004526;0.013181;0.076836;-5.113239;-0.195571;13.014804;0.029969;-0.002303;0.016136;94.425766;49.425762;0.021515;0.02079;0.023141;0.026577;-2.145103e-04;0.004526;-0.026791;0.442342;0.027667;-0.027667;0.016373
-0.169641;-3.762215;0.595784;-0.778001;0.056707;-0.056612;0.782116;-0.022478;0.005083;-5.53164e-06;4.422246;4.422247;0.226129;0.226129;0.005083;-0.022478;0.01378;46.7663;1.766302;0.018374;0.016936;-0.022478;-5.389559e-04;5.278927e-04;0.005083;0.001067;0.539172;-0.017395;0.017395;0.022908
-0.102475;-3.762215;0.654251;-0.777976;0.056911;-0.0637;0.782651;-0.022157;0.00204;-0.012147;3.838915;10.8594;0.092086;0.26049;0.007086;-0.027203;0.017144;93.551826;48.551823;0.022859;0.020902;-0.022157;-0.025016;7.220638e-04;0.00204;0.025738;0.590551;-0.020117;0.020117;0.020162
-0.03531;-3.762215;0.715447;-0.77816;0.05691;-0.064411;0.782892;-0.00147;-0.001452;-0.01387;1.235489;-1.012195;-0.987952;0.809396;0.012409;-0.015331;0.01387;131.765656;86.765656;0.018494;0.016046;-0.00147;-0.026831;-9.097494e-04;-0.001452;0.025921;0.651036;-0.002922;0.002922;0.03672
0.031855;-3.762215;0.747924;-0.778427;0.056521;-0.061171;0.78287;0.008859;-6.777433e-04;-3.221469e-04;0.077635;13.07138;0.076503;12.880836;0.00887;-6.886128e-04;0.004779;48.65247;3.65247;0.006372;0.006156;0.008859;4.855903e-04;-0.00113;-6.777433e-04;-0.001615;0.686753;0.008181;-0.008181;0.006249
0.099021;-3.762215;0.801706;-0.778618;0.056614;-0.057718;0.782804;0.008513;-0.002626;0.016346;0.708699;3.242515;0.308403;1.411036;0.020212;-0.014324;0.017268;120.090378;75.090378;0.023024;0.020036;0.008513;0.031486;0.001205;-0.002626;-0.030281;0.743987;0.005888;-0.005888;0.020744
0.166186;-3.762215;0.825501;-0.778629;0.056809;-0.058457;0.782885;0.011001;-0.003173;0.010022;0.516438;3.467063;0.288429;1.936341;0.016188;-0.00836;0.012274;107.108452;62.108452;0.016366;0.014411;0.011001;0.020481;-4.381315e-04;-0.003173;-0.020919;0.767044;0.007828;-0.007828;0.002479
0.233352;-3.762215;0.849128;-0.77867;0.056758;-0.052412;0.782493;0.010675;0.002317;-7.753915e-04;-0.208998;-4.606688;-0.217076;-4.784738;0.010747;0.002246;0.00425;38.757565;173.757568;0.005667;0.006546;0.010675;-9.992353e-04;-5.515477e-04;0.002317;4.476875e-04;0.796716;0.012993;-0.012993;0.032078
0.300517;-3.762215;0.907097;-0.778596;0.056642;-0.05369;0.782498;-0.003678;0.00287;-0.005283;1.139056;1.28157;0.780293;0.87792;0.005811;-0.006619;0.006215;115.958298;70.958298;0.008287;0.007182;-0.003678;-0.008945;-0.001621;0.00287;0.007324;0.853407;-8.080905e-04;8.080905e-04;0.025946
0.367682;-3.762215;0.923226;-0.77869;0.05667;-0.054201;0.782629;-0.016563;8.734624e-04;-0.006433;6.247278;18.962206;0.052736;0.16007;0.00299;-0.018679;0.010835;83.263924;38.263924;0.014446;0.01356;-0.016563;-0.01304;1.738276e-04;8.734624e-04;0.013214;0.869025;-0.015689;0.015689;0.012443
0.434848;-3.762215;0.94268;-0.778907;0.05675;-0.061237;0.783369;-0.034434;0.001042;-0.008541;12.164476;33.051414;0.030256;0.082207;0.002991;-0.036383;0.019687;69.28125;24.281248;0.02625;0.025312;-0.034434;-0.015577;-0.001505;0.001042;0.014072;0.881443;-0.033392;0.033392;0.037932
0.502013;-3.762215;0.970285;-0.778939;0.05648;-0.070887;0.784195;8.828454e-04;0.001835;0.001307;0.011586;-0.48103;-2.078874;86.31295;0.00275;-3.186116e-05;0.001391;129.69783;84.69783;0.001855;0.001844;8.828454e-04;0.003603;-9.887764e-04;0.001835;-0.004591;0.899398;0.002718;-0.002718;0.0712
0.569178;-3.762215;0.965971;-0.778858;0.056603;-0.063857;0.783518;0.005204;0.003572;0.002839;-0.195322;-1.456849;-0.686413;-5.119757;0.007342;0.001434;0.002954;94.375732;49.375732;0.003939;0.004494;0.005204;0.004865;8.127737e-04;0.003572;-0.004053;0.902114;0.008776;-0.008776;0.061149
0.636344;-3.762215;0.975651;-0.778658;0.056557;-0.063424;0.783281;-0.00731;0.006228;0.00201;1.165975;1.173765;0.851959;0.857651;0.00652;-0.007602;0.007061;29.262579;164.262573;0.009414;0.008161;-0.00731;0.002155;0.001866;0.006228;-2.885793e-04;0.912228;-0.001082;0.001082;0.05592
0.703509;-3.762215;1.006056;-0.778934;0.056475;-0.066475;0.783802;-0.002305;0.006391;0.00259;0.424882;0.360717;2.772256;2.353595;0.007104;-0.003018;0.005061;109.352364;64.352364;0.006749;0.006001;-0.002305;0.001826;0.003355;0.006391;0.001529;0.939581;0.004086;-0.004086;0.022504
0.770674;-3.762215;0.992262;-0.779063;0.056663;-0.05956;0.783388;-0.010375;0.002922;0.004326;2.771952;3.550092;0.281683;0.360757;0.004206;-0.011658;0.007932;18.764223;153.764221;0.010576;0.00949;-0.010375;0.005639;0.003012;0.002922;-0.002628;0.932702;-0.007452;0.007452;0.017501
0.83784;-3.762215;0.97047;-0.779023;0.056689;-0.056353;0.783113;8.215762e-04;3.387152e-04;0.002926;0.66997;-2.425567;-0.412275;1.492605;0.003516;-0.002355;0.002936;126.110542;81.110542;0.003914;0.003412;8.215762e-04;0.005426;4.249613e-04;3.387152e-04;-0.005001;0.914117;0.00116;-0.00116;0.038651
0.905005;-3.762215;0.952616;-0.779102;0.056631;-0.058704;0.78336;0.005906;0.002103;0.003853;0.035206;-2.809019;-0.355996;28.404531;0.008301;-2.922317e-04;0.004296;98.194435;53.194435;0.005729;0.005634;0.005906;0.007543;1.627721e-04;0.002103;-0.00738;0.893912;0.008008;-0.008008;0.004832
0.97217;-3.762215;0.918177;-0.779119;0.056741;-0.060055;0.783488;-0.015845;3.257901e-04;-0.003205;17.548038;48.636162;0.020561;0.056986;9.378386e-04;-0.016457;0.008698;69.800079;24.800081;0.011597;0.011297;-0.015845;-0.007327;9.169643e-04;3.257901e-04;0.008244;0.858123;-0.015519;0.015519;0.016757
1.039336;-3.762215;0.889328;-0.779194;0.056876;-0.05354;0.7831;-0.021274;0.004041;-0.008616;3.574107;5.264817;0.18994;0.27979;0.006695;-0.023928;0.015311;86.98719;41.987186;0.020415;0.01859;-0.021274;-0.018787;0.001556;0.004041;0.020343;0.835788;-0.017233;0.017233;0.005808
1.106501;-3.762215;0.862995;-0.779534;0.056787;-0.053379;0.783421;0.00297;0.010087;-0.012352;0.326378;-0.294414;-3.396574;3.063932;0.019383;-0.006326;0.012854;141.778809;96.778809;0.017139;0.015468;0.00297;-0.02383;-8.737185e-04;0.010087;0.022956;0.809616;0.013057;-0.013057;0.008485
1.173667;-3.762215;0.831216;-0.779676;0.056589;-0.05489;0.783652;-5.234764e-05;0.009745;-0.008943;0.355674;0.005372;186.156128;2.81156;0.015043;-0.00535;0.010197;135.903076;90.903076;0.013595;0.012209;-5.234764e-05;-0.017164;-7.216617e-04;0.009745;0.016442;0.776326;0.009692;-0.009692;0.006389
1.240832;-3.762215;0.776214;-0.77965;0.05674;-0.053235;0.783522;0.00342;9.273072e-04;0.001059;-0.141276;-3.687677;-0.271173;-7.07833;0.003809;5.380959e-04;0.001635;55.28194;10.281941;0.00218;0.00238;0.00342;2.767376e-04;0.001841;9.273072e-04;0.001565;0.722979;0.004347;-0.004347;0.041182
1.307997;-3.762215;0.753996;-0.779588;0.05694;-0.057745;0.783795;0.007174;-0.003449;0.009818;0.713996;2.080216;0.480719;1.400568;0.013025;-0.0093;0.011163;116.347603;71.347603;0.014884;0.012949;0.007174;0.021723;-0.002086;-0.003449;-0.023809;0.696251;0.003725;-0.003725;0.047568
1.375163;-3.762215;0.716034;-0.77966;0.056788;-0.058285;0.783896;0.001993;0.002725;0.012926;0.691447;-0.731215;-1.367587;1.446243;0.01529;-0.010573;0.012931;130.577805;85.577812;0.017242;0.015015;0.001993;0.025695;1.578851e-04;0.002725;-0.025537;0.657748;0.004718;-0.004718;0.029609
1.442328;-3.762215;0.603131;-0.779777;0.056885;-0.058229;0.784014;-0.00479;0.003912;0.012442;1.068841;1.224215;0.81685;0.935593;0.012743;-0.01362;0.013181;145.808517;100.808517;0.017575;0.015223;-0.00479;0.023164;0.001721;0.003912;-0.021443;0.544902;-8.772218e-04;8.772218e-04;0.018717
1.509493;-3.762215;0.468286;-0.780099;0.057143;-0.055476;0.784154;-0.016376;0.004848;0.020339;1.671133;3.378097;0.296025;0.598396;0.017177;-0.028705;0.022941;157.687622;112.687622;0.030588;0.026767;-0.016376;0.038267;0.002411;0.004848;-0.035856;0.41281;-0.011528;0.011528;0.04192
-0.303971;-3.82938;0.344454;-0.778486;0.056523;-0.06414;0.783166;0.039576;0.001768;0.008502;0.001361;-22.387428;-0.044668;735.010315;0.0414;-5.632534e-05;0.020728;68.494926;23.494928;0.027637;0.027619;0.039576;0.017181;-1.756146e-04;0.001768;-0.017356;0.280314;0.041343;-0.041343;1.77852e-07
-0.236806;-3.82938;0.491417;-0.778151;0.056542;-0.055839;0.782198;0.032133;0.002486;0.007279;-0.023501;-12.926796;-0.077359;-42.551479;0.033824;7.948857e-04;0.016514;70.50383;25.503828;0.022019;0.022289;0.032133;0.015297;-7.384003e-04;0.002486;-0.016035;0.435578;0.034618;-0.034618;0.02197
-0.169641;-3.82938;0.574002;-0.778032;0.056328;-0.053257;0.781885;0.008463;0.002967;-0.012587;0.3854;-2.851994;-0.350632;2.594707;0.018598;-0.007168;0.012883;153.798645;108.798637;0.017177;0.015356;0.008463;-0.024687;-4.860494e-04;0.002967;0.024201;0.520745;0.011431;-0.011431;0.011757
-0.102475;-3.82938;0.637476;-0.778168;0.056424;-0.053126;0.782017;8.51794e-04;-0.001132;-0.034041;1.008258;0.75256;1.328798;0.99181;0.033915;-0.034195;0.034055;135.721161;90.721169;0.045407;0.039324;8.51794e-04;-0.069452;0.00137;-0.001132;0.070822;0.584351;-2.800681e-04;2.800681e-04;0.007316
-0.03531;-3.82938;0.706095;-0.778264;0.056757;-0.051988;0.782061;-0.01433;-7.248979e-04;-0.035725;1.522044;-19.768661;-0.050585;0.657011;0.028839;-0.043894;0.036366;123.680679;78.680679;0.048489;0.042291;-0.01433;-0.071577;1.284264e-04;-7.248979e-04;0.071706;0.654107;-0.015055;0.015055;0.028088
0.031855;-3.82938;0.75518;-0.778231;0.056712;-0.058193;0.782461;-0.027122;0.002352;-0.01752;3.357092;11.531145;0.086722;0.297877;0.010509;-0.035279;0.022894;96.266251;51.266251;0.030525;0.027695;-0.027122;-0.03372;-0.00132;0.002352;0.032401;0.696987;-0.02477;0.02477;0.026006
0.099021;-3.82938;0.809095;-0.778163;0.056615;-0.062999;0.782759;-0.008006;0.002752;-0.002557;2.578569;2.909589;0.343691;0.387812;0.003329;-0.008583;0.005956;79.640587;34.640583;0.007941;0.007097;-0.008006;-0.005081;-3.333505e-05;0.002752;0.005048;0.746096;-0.005254;0.005254;0.004536
0.166186;-3.82938;0.847338;-0.778217;0.056597;-0.061271;0.782674;0.023683;0.003259;-0.002969;-0.117637;-7.267608;-0.137597;-8.500754;0.024106;0.002836;0.010635;31.341377;166.34137;0.01418;0.015214;0.023683;-0.005613;-3.255725e-04;0.003259;0.005288;0.786067;0.026942;-0.026942;0.019849
0.233352;-3.82938;0.872881;-0.778428;0.056538;-0.052525;0.782244;0.019319;0.004149;-0.003736;-0.162391;-4.65671;-0.214744;-6.157966;0.020189;0.003279;0.008455;24.787876;159.787872;0.011274;0.012511;0.019319;-0.006706;-7.661638e-04;0.004149;0.00594;0.820356;0.023468;-0.023468;0.034423
0.300517;-3.82938;0.899549;-0.778448;0.056454;-0.052637;0.782266;-0.002655;0.002457;-0.003147;1.04994;1.080393;0.925589;0.952435;0.003956;-0.004153;0.004054;114.293396;69.293396;0.005406;0.004682;-0.002655;-0.005573;-7.21257e-04;0.002457;0.004852;0.846912;-1.975459e-04;1.975459e-04;0.026109
0.367682;-3.82938;0.905925;-0.778599;0.05631;-0.052446;0.782392;-0.012903;0.003883;-0.004125;2.863001;3.323131;0.300921;0.349284;0.004842;-0.013862;0.009352;75.746361;30.746361;0.012469;0.011209;-0.012903;-0.007321;-9.296614e-04;0.003883;0.006391;0.853479;-0.00902;0.00902;0.029002
0.434848;-3.82938;0.940759;-0.778973;0.056253;-0.056765;0.783062;-0.035083;0.006217;-0.008827;4.597056;5.642889;0.177214;0.217531;0.008025;-0.03689;0.022457;69.28373;24.28373;0.029943;0.027659;-0.035083;-0.015687;-0.001967;0.006217;0.01372;0.883995;-0.028865;0.028865;0.029235
0.502013;-3.82938;0.977431;-0.779049;0.05626;-0.067265;0.783969;-0.003365;0.003565;-0.007493;0.976037;0.943838;1.059504;1.024552;0.008356;-0.008155;0.008255;122.987526;77.987526;0.011007;0.009533;-0.003365;-0.014734;-2.52524e-04;0.003565;0.014481;0.910166;2.002244e-04;-2.002244e-04;0.043093
0.569178;-3.82938;0.973933;-0.779027;0.056408;-0.058398;0.783247;0.004647;0.002908;-0.002838;-0.119944;-1.59778;-0.625869;-8.337237;0.006746;8.091393e-04;0.002968;167.012604;122.012604;0.003958;0.004253;0.004647;-0.006361;6.846617e-04;0.002908;0.007046;0.915535;0.007555;-0.007555;0.0417
0.636344;-3.82938;0.978201;-0.778654;0.056184;-0.060905;0.783051;-0.003796;0.00161;-0.004053;1.578363;2.357541;0.424171;0.633568;0.003779;-0.005965;0.004872;109.908737;64.908737;0.006496;0.005673;-0.003796;-0.007746;-3.608744e-04;0.00161;0.007385;0.917297;-0.002186;0.002186;0.04361
0.703509;-3.82938;0.980907;-0.77907;0.056188;-0.065272;0.783816;-0.004176;-0.002891;0.00123;-2.29367;-1.444477;-0.692292;-0.435982;-0.002146;-0.004921;0.001388;29.723753;164.723755;0.00185;0.002849;-0.004176;-9.666625e-04;0.003427;-0.002891;0.004394;0.915634;-0.007067;0.007067;9.682117e-05
0.770674;-3.82938;0.968476;-0.779349;0.05666;-0.060438;0.78374;-0.004848;0.002353;0.003801;1.625761;2.060669;0.485279;0.615097;0.003988;-0.006483;0.005236;26.391167;161.391159;0.006981;0.006103;-0.004848;0.003596;0.004006;0.002353;4.102291e-04;0.908038;-0.002496;0.002496;6.746305e-04
0.83784;-3.82938;0.96147;-0.779095;0.056779;-0.05735;0.783263;0.001872;0.002649;-3.521043e-04;-0.623536;-0.706795;-1.414838;-1.603757;0.002785;0.001737;5.242196e-04;148.942154;103.942154;6.989595e-04;0.001624;0.001872;-9.288662e-04;2.246576e-04;0.002649;0.001154;0.90412;0.004521;-0.004521;0.053445
0.905005;-3.82938;0.956008;-0.779168;0.056639;-0.059113;0.783457;0.008511;0.001847;-0.003784;-0.01341;-4.608263;-0.217002;-74.568954;0.010221;1.370663e-04;0.005042;178.903763;133.903763;0.006723;0.006769;0.008511;-0.008709;0.001141;0.001847;0.00985;0.896894;0.010358;-0.010358;0.005837
0.97217;-3.82938;0.950427;-0.779257;0.05665;-0.063178;0.783864;-0.012189;0.003547;-0.00438;2.845053;3.436435;0.290999;0.351487;0.004684;-0.013326;0.009005;78.452705;33.452705;0.012006;0.010789;-0.012189;-0.007732;-0.001028;0.003547;0.006704;0.887249;-0.008642;0.008642;0.023234
1.039336;-3.82938;0.902375;-0.779346;0.056458;-0.058441;0.78357;-0.018705;0.005329;-0.004202;3.213516;3.509826;0.284914;0.311186;0.006043;-0.019419;0.012731;62.039207;17.039207;0.016974;0.015361;-0.018705;-0.00597;-0.002434;0.005329;0.003536;0.843935;-0.013376;0.013376;0.024997
1.106501;-3.82938;0.847998;-0.779328;0.056227;-0.058934;0.783573;0.010706;0.006858;-0.008529;-0.002214;-1.561029;-0.640603;-451.633087;0.017526;3.880476e-05;0.008743;165.746674;120.746674;0.011658;0.011671;0.010706;-0.016222;-8.360468e-04;0.006858;0.015386;0.789064;0.017564;-0.017564;0.041919
1.173667;-3.82938;0.820103;-0.779337;0.05634;-0.060557;0.783714;-0.003268;0.005424;-0.012168;0.845983;0.602479;1.65981;1.182057;0.013999;-0.011843;0.012921;127.413948;82.413948;0.017228;0.014937;-0.003268;-0.025922;0.001586;0.005424;0.027507;0.759546;0.002156;-0.002156;0.004749
1.240832;-3.82938;0.7641;-0.779451;0.05668;-0.056529;0.783551;-0.016668;0.001748;-0.009338;3.638436;9.532743;0.104902;0.274843;0.005655;-0.020574;0.013114;94.570244;49.570248;0.017486;0.015939;-0.016668;-0.019508;8.321716e-04;0.001748;0.02034;0.707571;-0.014919;0.014919;0.037951
1.307997;-3.82938;0.721877;-0.779637;0.056662;-0.054556;0.783595;-0.003501;0.003299;-0.00123;1.057367;1.061116;0.942404;0.945745;0.003515;-0.003716;0.003615;95.883553;50.883549;0.004821;0.004175;-0.003501;-0.001936;-5.232472e-04;0.003299;0.001413;0.667321;-2.016251e-04;2.016251e-04;0.056687
1.375163;-3.82938;0.657224;-0.779825;0.056496;-0.053864;0.783722;0.013942;0.003967;-0.005974;-0.07007;-3.514283;-0.284553;-14.271402;0.016737;0.001173;0.007782;2.376405;137.376404;0.010376;0.010788;0.013942;-0.012269;3.211905e-04;0.003967;0.01259;0.60336;0.01791;-0.01791;0.020826
1.442328;-3.82938;0.578772;-0.77987;0.056641;-0.058601;0.784117;-0.005202;0.004952;-0.019867;1.012262;1.050463;0.951961;0.987886;0.020381;-0.020631;0.020506;127.661354;82.661354;0.027341;0.023678;-0.005202;-0.040846;0.001111;0.004952;0.041957;0.520171;-2.499136e-04;2.499136e-04;0.019377
1.509493;-3.82938;0.479635;-0.779806;0.056725;-0.053332;0.783683;-0.028812;0.004075;-0.023454;2.519809;7.069946;0.141444;0.396855;0.016276;-0.041012;0.028644;104.090332;59.090336;0.038192;0.034088;-0.028812;-0.047954;0.001046;0.004075;0.049;0.426303;-0.024736;0.024736;0.06758
-0.303971;-3.896546;0.357774;-0.778629;0.056445;-0.062831;0.783196;0.026629;-8.9646e-05;0.002899;0.014869;297.045258;0.003366;67.254501;0.02694;-4.005656e-04;0.01367;57.435837;12.435837;0.018227;0.018095;0.026629;0.005872;-7.403498e-05;-8.9646e-05;-0.005946;0.294943;0.026539;-0.026539;0.02039
-0.236806;-3.896546;0.496246;-0.778061;0.056464;-0.060367;0.782439;0.034947;8.689975e-04;0.004253;-0.009762;-40.215332;-0.024866;-102.435928;0.03547;3.462629e-04;0.017562;61.037186;16.037186;0.023416;0.023532;0.034947;0.010092;-0.001586;8.689975e-04;-0.011679;0.435879;0.035816;-0.035816;0.019985
-0.169641;-3.896546;0.572515;-0.778072;0.055929;-0.052863;0.781869;0.034831;0.002048;-9.51479e-04;-0.057972;-17.003836;-0.05881;-17.249666;0.034858;0.002021;0.016419;44.748486;179.748489;0.021892;0.022595;0.034831;-4.34513e-05;-0.00186;0.002048;-0.001816;0.519653;0.036879;-0.036879;0.018423
-0.102475;-3.896546;0.632011;-0.77809;0.056052;-0.047367;0.781543;0.012323;0.003171;-8.551946e-04;-0.249253;-3.886749;-0.257284;-4.01198;0.012402;0.003091;0.004656;30.046144;165.046143;0.006207;0.007455;0.012323;-0.003572;0.001861;0.003171;0.005433;0.584644;0.015494;-0.015494;0.031004
-0.03531;-3.896546;0.691939;-0.778271;0.056402;-0.046011;0.781668;-0.023533;0.005106;-4.267842e-04;4.604643;4.609132;0.216961;0.217172;0.005112;-0.023539;0.014326;50.777782;5.777783;0.019101;0.017646;-0.023533;-0.002026;0.001173;0.005106;0.003199;0.645928;-0.018427;0.018427;0.027034
0.031855;-3.896546;0.753173;-0.778284;0.056377;-0.054121;0.782198;-0.034454;0.006686;-0.007971;4.395993;5.152876;0.194066;0.22748;0.008177;-0.035944;0.02206;68.870262;23.87026;0.029414;0.027103;-0.034454;-0.014911;-0.00103;0.006686;0.013881;0.699052;-0.027768;0.027768;0.021684
0.099021;-3.896546;0.798535;-0.778236;0.056216;-0.059224;0.782508;-0.008653;0.003753;-0.017394;1.305933;2.305537;0.433739;0.765736;0.016017;-0.020917;0.018467;120.810646;75.810646;0.024623;0.021386;-0.008653;-0.033311;-0.001476;0.003753;0.031835;0.739312;-0.0049;0.0049;0.005155
0.166186;-3.896546;0.850026;-0.7782;0.056232;-0.058371;0.782409;0.015083;8.043039e-04;-0.009451;0.197113;-18.753075;-0.053325;5.073233;0.019788;-0.0039;0.011844;174.008179;129.008179;0.015792;0.014666;0.015083;-0.018606;-2.953195e-04;8.043039e-04;0.018311;0.791654;0.015887;-0.015887;0.035319
0.233352;-3.896546;0.866634;-0.77852;0.056223;-0.051851;0.782267;0.013422;0.003031;0.001644;-0.203042;-4.428516;-0.225809;-4.925079;0.013676;0.002777;0.005449;55.706676;10.706677;0.007266;0.008347;0.013422;0.002198;0.001091;0.003031;-0.001108;0.814783;0.016452;-0.016452;0.021858
0.300517;-3.896546;0.88336;-0.778973;0.056312;-0.050053;0.782608;-9.655656e-04;0.003987;-0.001482;0.312828;0.242201;4.128797;3.196642;0.004396;-0.001375;0.002886;139.249252;94.249252;0.003848;0.003481;-9.655656e-04;-0.002105;-8.594221e-04;0.003987;0.001246;0.833307;0.003021;-0.003021;0.012555
0.367682;-3.896546;0.920667;-0.778934;0.056046;-0.052776;0.782729;-0.008234;0.008325;-0.003026;0.989758;0.9891;1.011021;1.010347;0.00886;-0.00877;0.008815;101.439598;56.439594;0.011753;0.010179;-0.008234;-0.003952;-0.0021;0.008325;0.001852;0.867891;9.07449e-05;-9.07449e-05;0.009373
0.434848;-3.896546;0.947945;-0.778728;0.055917;-0.053918;0.782593;-0.013089;0.015003;-0.001805;0.873398;0.872424;1.146232;1.144954;0.015119;-0.013205;0.014162;123.429276;78.429276;0.018882;0.016365;-0.013089;-0.002368;-0.001242;0.015003;0.001126;0.894027;0.001914;-0.001914;0.04011
0.502013;-3.896546;0.961823;-0.778672;0.056217;-0.059254;0.782944;-0.001631;8.48392e-04;-0.003778;1.218285;1.922425;0.520176;0.820826;0.003585;-0.004368;0.003976;124.001396;79.001396;0.005302;0.004599;-0.001631;-0.00962;0.002064;8.48392e-04;0.011684;0.902569;-7.825776e-04;7.825776e-04;0.059914
0.569178;-3.896546;0.966085;-0.778851;0.056511;-0.054485;0.782797;0.002487;-0.005984;-0.003792;1.888563;0.41555;2.406449;0.529503;0.003936;-0.007434;0.005685;140.647141;95.647141;0.00758;0.006667;0.002487;-0.006124;-0.00146;-0.005984;0.004664;0.9116;-0.003498;0.003498;0.049575
0.636344;-3.896546;0.97784;-0.778603;0.056223;-0.058003;0.782783;-0.002446;-5.694465e-04;-0.00481;1.888786;-4.295312;-0.232812;0.529441;0.003393;-0.006408;0.0049;118.381088;73.381088;0.006534;0.005747;-0.002446;-0.008504;-0.001115;-5.694465e-04;0.007389;0.919837;-0.003015;0.003015;0.050893
0.703509;-3.896546;0.974944;-0.778765;0.055987;-0.056867;0.782843;-0.001898;0.008875;-0.003149;0.282827;0.213907;4.674934;3.535731;0.009728;-0.002751;0.00624;134.265076;89.265083;0.008319;0.007571;-0.001898;-0.00531;-9.878508e-04;0.008875;0.004322;0.918077;0.006977;-0.006977;0.035842
0.770674;-3.896546;0.983851;-0.778914;0.056089;-0.053043;0.78273;-9.080983e-04;0.009175;1.289736e-04;0.09914;0.098978;10.103288;10.086782;0.009176;-9.097478e-04;0.005043;117.932457;72.932457;0.006724;0.006442;-9.080983e-04;-0.002521;0.002779;0.009175;0.005301;0.930808;0.008267;-0.008267;0.013453
0.83784;-3.896546;0.990315;-0.778894;0.056339;-0.058595;0.783124;0.010624;0.00203;0.003707;-0.054331;-5.233362;-0.191082;-18.40568;0.012001;6.520512e-04;0.005675;68.543884;23.543882;0.007566;0.007793;0.010624;0.004406;0.003008;0.00203;-0.001398;0.931721;0.012653;-0.012653;0.009494
0.905005;-3.896546;0.950571;-0.779094;0.056381;-0.063415;0.783701;0.008379;0.005212;-5.914008e-04;-0.601568;-1.607756;-0.621985;-1.662321;0.008486;0.005105;0.001691;39.028069;174.028061;0.002254;0.004933;0.008379;4.281609e-04;-0.001611;0.005212;-0.002039;0.887156;0.013591;-0.013591;0.017734
0.97217;-3.896546;0.923247;-0.779111;0.056235;-0.062512;0.783636;-0.01613;0.005695;0.003305;2.687399;2.832477;0.353048;0.372107;0.006184;-0.016619;0.011402;15.879893;150.879898;0.015202;0.013617;-0.01613;0.007903;-0.001293;0.005695;-0.009196;0.860735;-0.010435;0.010435;0.025451
1.039336;-3.896546;0.89387;-0.779369;0.056083;-0.05439;0.783275;-0.013409;0.005638;0.004145;2.195399;2.378395;0.420452;0.455498;0.006501;-0.014272;0.010387;7.286842;142.28685;0.013849;0.01227;-0.013409;0.009102;-8.109192e-04;0.005638;-0.009913;0.83948;-0.007771;0.007771;0.035616
1.106501;-3.896546;0.846872;-0.779535;0.056063;-0.056951;0.78362;0.023763;3.290345e-04;5.74907e-04;-0.013246;-72.219597;-0.013847;-75.496727;0.023777;3.149387e-04;0.011731;44.335106;179.335114;0.015641;0.015747;0.023763;-2.967622e-04;0.001447;3.290345e-04;0.001743;0.789921;0.024092;-0.024092;0.0492
1.173667;-3.896546;0.82018;-0.779643;0.056289;-0.063538;0.78425;0.001097;-0.0016;-0.00249;1.195073;0.685435;1.458927;0.836769;0.00258;-0.003083;0.002831;148.143387;103.143394;0.003775;0.003274;0.001097;-0.009199;0.004219;-0.0016;0.013418;0.756642;-5.03257e-04;5.03257e-04;0.014833
1.240832;-3.896546;0.795776;-0.779557;0.056469;-0.059658;0.783873;-0.027585;4.370309e-04;-0.005161;21.000528;63.119511;0.015843;0.047618;0.001357;-0.028506;0.014931;67.102875;22.102871;0.019909;0.019472;-0.027585;-0.0112;8.779367e-04;4.370309e-04;0.012078;0.736119;-0.027148;0.027148;0.019108
1.307997;-3.896546;0.749997;-0.779497;0.056355;-0.054831;0.783453;-0.005828;0.002573;-8.42642e-04;2.225276;2.265124;0.441477;0.449382;0.002657;-0.005912;0.004284;60.398743;15.398743;0.005713;0.005065;-0.005828;-0.001418;-2.677121e-04;0.002573;0.00115;0.695166;-0.003255;0.003255;0.025333
1.375163;-3.896546;0.668297;-0.77959;0.056448;-0.06036;0.783958;0.021735;0.003815;0.006644;-0.067716;-5.696891;-0.175534;-14.767653;0.02393;0.00162;0.011155;74.899452;29.899454;0.014873;0.015441;0.021735;0.01213;0.001159;0.003815;-0.010971;0.607937;0.02555;-0.02555;9.475752e-04
1.442328;-3.896546;0.58898;-0.779669;0.056607;-0.066147;0.784515;0.007864;0.004244;0.009544;0.232125;-1.853055;-0.539649;4.308029;0.015767;-0.00366;0.009714;113.781212;68.781212;0.012952;0.01192;0.007864;0.019346;-2.588184e-04;0.004244;-0.019605;0.522833;0.012107;-0.012107;0.033509
1.509493;-3.896546;0.48651;-0.779885;0.056366;-0.062957;0.78445;-0.008472;0.005082;-0.007725;1.395095;1.667155;0.599824;0.716797;0.008581;-0.011971;0.010276;106.826515;61.826515;0.013702;0.01192;-0.008472;-0.014013;-0.001437;0.005082;0.012577;0.423553;-0.00339;0.00339;0.065921
-0.303971;-3.963711;0.36725;-0.778755;0.056567;-0.063469;0.783382;0.034782;7.483847e-04;-0.021625;0.215369;-46.476063;-0.021516;4.643199;0.045283;-0.009753;0.027518;174.528931;129.528931;0.03669;0.03391;0.034782;-0.042164;-0.001087;7.483847e-04;0.041077;0.303781;0.03553;-0.03553;0.042546
-0.236806;-3.963711;0.492122;-0.777667;0.056385;-0.059196;0.781953;0.03595;0.001513;-0.028528;0.280292;-23.754217;-0.042098;3.567703;0.052053;-0.01459;0.033322;168.370483;123.370476;0.044429;0.040452;0.03595;-0.054665;-0.002392;0.001513;0.052274;0.432926;0.037463;-0.037463;0.002676
-0.169641;-3.963711;0.584045;-0.777873;0.055928;-0.05241;0.78164;0.015046;0.001268;-0.006397;0.070887;-11.870198;-0.084245;14.106898;0.017558;-0.001245;0.009401;7.211322;142.211319;0.012535;0.012142;0.015046;-0.011633;-0.001161;0.001268;0.010472;0.531635;0.016314;-0.016314;0.005169
-0.102475;-3.963711;0.654998;-0.778018;0.056187;-0.052141;0.781785;-0.007921;-0.001385;0.023665;1.483758;-5.719249;-0.174848;0.673964;0.019237;-0.028543;0.02389;144.457748;99.457741;0.031853;0.027759;-0.007921;0.047485;-1.545393e-04;-0.001385;-0.047639;0.602856;-0.009306;0.009306;0.009855
-0.03531;-3.963711;0.708403;-0.778307;0.055977;-0.052397;0.782074;-0.015471;-0.001534;0.031159;1.725873;-10.084626;-0.099161;0.579417;0.023427;-0.040431;0.031929;148.586761;103.586754;0.042572;0.037302;-0.015471;0.063876;-0.001558;-0.001534;-0.065434;0.656007;-0.017005;0.017005;0.027047
0.031855;-3.963711;0.767064;-0.778338;0.055901;-0.055903;0.782343;-6.655616e-04;0.003225;0.011495;0.802161;0.206363;4.845823;1.246632;0.012938;-0.010378;0.011658;136.689545;91.689537;0.015544;0.013489;-6.655616e-04;0.023225;-2.352618e-04;0.003225;-0.02346;0.711161;0.00256;-0.00256;0.034519
0.099021;-3.963711;0.795447;-0.778188;0.055934;-0.051487;0.781892;0.003058;0.004377;-0.005135;0.164118;-0.698767;-1.431091;6.093171;0.008895;-0.00146;0.005178;147.288162;102.288162;0.006903;0.006472;0.003058;-0.01111;8.392954e-04;0.004377;0.011949;0.74396;0.007435;-0.007435;0.027382
0.166186;-3.963711;0.829989;-0.778034;0.056001;-0.054132;0.781922;-0.004083;0.001871;-0.003689;1.608865;2.182903;0.458106;0.621556;0.003634;-0.005847;0.00474;107.133347;62.133347;0.006321;0.005523;-0.004083;-0.007346;-3.223375e-05;0.001871;0.007314;0.775857;-0.002213;0.002213;0.061765
0.233352;-3.963711;0.856254;-0.778484;0.055962;-0.054889;0.78242;0.010666;0.0034;0.001655;-0.275845;-3.136762;-0.3188;-3.625219;0.011026;0.003041;0.003992;62.68549;17.685488;0.005323;0.006575;0.010666;0.003007;3.025797e-04;0.0034;-0.002704;0.801365;0.014067;-0.014067;0.01699
0.300517;-3.963711;0.894674;-0.778938;0.056064;-0.050225;0.782567;0.006779;0.001116;0.001168;-0.126104;-6.07647;-0.164569;-7.929986;0.007011;8.841117e-04;0.003063;67.135574;22.135576;0.004085;0.004409;0.006779;0.002751;-4.14522e-04;0.001116;-0.003166;0.844449;0.007895;-0.007895;5.821916e-04
0.367682;-3.963711;0.9652;-0.778489;0.055783;-0.051522;0.782183;-0.004555;8.922531e-04;-1.103502e-05;5.105062;5.105165;0.19588;0.195884;8.922755e-04;-0.004555;0.002724;18.021873;153.021866;0.003632;0.003374;-0.004555;0.002527;-0.002549;8.922531e-04;-0.005076;0.913679;-0.003663;0.003663;0.025129
0.434848;-3.963711;0.976171;-0.778369;0.055694;-0.050812;0.782012;-0.001202;0.002478;0.00122;0.551545;0.484991;2.061896;1.813087;0.002846;-0.00157;0.002208;96.481667;51.481667;0.002944;0.002585;-0.001202;6.148723e-04;0.001826;0.002478;0.001211;0.92536;0.001276;-0.001276;0.065802
0.502013;-3.963711;0.956704;-0.778624;0.05613;-0.052029;0.782376;-0.002713;0.006645;9.155417e-04;0.416097;0.408301;2.449174;2.403285;0.006734;-0.002802;0.004768;97.124512;52.124516;0.006357;0.005659;-0.002713;-0.00324;0.005071;0.006645;0.008311;0.904675;0.003932;-0.003932;0.042988
0.569178;-3.963711;0.954195;-0.778781;0.056214;-0.049877;0.782399;4.20882e-04;0.007593;-0.002904;0.070457;-0.055431;-18.040504;14.192987;0.008621;-6.074291e-04;0.004614;138.812149;93.812157;0.006152;0.00596;4.20882e-04;-0.005347;-4.604095e-04;0.007593;0.004887;0.904318;0.008014;-0.008014;0.011812
0.636344;-3.963711;0.970648;-0.778928;0.056134;-0.049443;0.782512;-0.003213;0.003667;-0.003016;0.905349;0.876058;1.141477;1.104546;0.004802;-0.004348;0.004575;144.99176;99.99176;0.0061;0.005285;-0.003213;-0.003104;-0.002928;0.003667;1.7684e-04;0.921205;4.545459e-04;-4.545459e-04;0.049438
0.703509;-3.963711;0.987523;-0.778998;0.056253;-0.053065;0.782827;-0.005717;0.001067;-0.002328;3.599323;5.359202;0.186595;0.27783;0.001789;-0.006439;0.004114;76.653183;31.653183;0.005486;0.004997;-0.005717;-0.003609;-0.001048;0.001067;0.002561;0.934458;-0.00465;0.00465;0.056119
0.770674;-3.963711;1.004811;-0.778971;0.056266;-0.057151;0.783089;-0.005251;0.001753;5.976618e-04;2.939;2.995004;0.333889;0.340252;0.001804;-0.005301;0.003553;41.407452;176.407455;0.004737;0.004265;-0.005251;5.21303e-04;6.740205e-04;0.001753;1.527175e-04;0.94766;-0.003497;0.003497;0.028269
0.83784;-3.963711;1.005888;-0.77908;0.056281;-0.059603;0.783381;0.010078;0.003671;0.004859;-0.083058;-2.745346;-0.364253;-12.039799;0.012695;0.001054;0.00582;92.09301;47.093014;0.00776;0.008135;0.010078;0.01015;-4.315933e-04;0.003671;-0.010582;0.946285;0.013749;-0.013749;0.018435
0.905005;-3.963711;0.95309;-0.779326;0.055989;-0.060108;0.783644;0.003298;0.005245;0.008089;0.312062;-0.628829;-1.590258;3.204496;0.012419;-0.003876;0.008147;127.73262;82.73262;0.010863;0.00983;0.003298;0.018991;-0.002813;0.005245;-0.021805;0.892982;0.008544;-0.008544;0.052215
0.97217;-3.963711;0.928758;-0.779251;0.055576;-0.059388;0.783485;-0.011812;0.00512;0.002666;2.210264;2.307121;0.433441;0.452435;0.005529;-0.012221;0.008875;9.648166;144.648163;0.011834;0.010488;-0.011812;0.007143;-0.001811;0.00512;-0.008954;0.86937;-0.006692;0.006692;0.043123
1.039336;-3.963711;0.922565;-0.779307;0.055874;-0.054755;0.783224;-0.003549;0.003246;0.003044;1.068556;1.093148;0.914789;0.935842;0.004411;-0.004713;0.004562;62.080376;17.080374;0.006083;0.005269;-0.003549;0.002437;0.003652;0.003246;0.001215;0.86781;-3.023864e-04;3.023864e-04;0.004217
1.106501;-3.963711;0.871437;-0.779435;0.056138;-0.060529;0.783795;0.023336;0.003831;0.009152;-0.007771;-6.090612;-0.164187;-128.691559;0.026958;2.094787e-04;0.013374;79.117317;34.117317;0.017832;0.017903;0.023336;0.015502;0.002803;0.003831;-0.012699;0.810908;0.027168;-0.027168;0.014335
1.173667;-3.963711;0.833337;-0.779477;0.05622;-0.063833;0.784105;0.001558;0.011486;0.008756;0.213587;-0.135677;-7.370448;4.681926;0.016587;-0.003543;0.010065;130.285233;85.285233;0.01342;0.012408;0.001558;0.016816;6.955583e-04;0.011486;-0.01612;0.769503;0.013044;-0.013044;0.003653
1.240832;-3.963711;0.798541;-0.779309;0.056509;-0.058456;0.783538;-0.019792;0.003492;4.131987e-04;5.658405;5.668185;0.176423;0.176728;0.003499;-0.019799;0.011649;38.727013;173.727005;0.015532;0.014507;-0.019792;0.001926;-0.001099;0.003492;-0.003025;0.740085;-0.0163;0.0163;0.022797
1.307997;-3.963711;0.730785;-0.779277;0.05636;-0.053989;0.783175;-0.013556;0.002106;-0.008771;2.897871;6.437177;0.155348;0.345081;0.006033;-0.017484;0.011758;93.210258;48.210258;0.015678;0.014104;-0.013556;-0.01517;-0.002373;0.002106;0.012797;0.676796;-0.01145;0.01145;0.015144
1.375163;-3.963711;0.666992;-0.779441;0.056049;-0.052755;0.783233;-0.006683;0.006308;0.007598;1.038174;1.059359;0.943967;0.96323;0.009809;-0.010183;0.009996;155.857391;110.857384;0.013328;0.011543;-0.006683;0.016617;-0.001421;0.006308;-0.018038;0.614237;-3.744447e-04;3.744447e-04;0.004988
1.442328;-3.963711;0.592841;-0.77974;0.056181;-0.050499;0.783391;0.013775;0.005579;0.030709;0.523986;-2.468936;-0.405033;1.908448;0.040658;-0.021304;0.030981;122.36277;77.36277;0.041308;0.036351;0.013775;0.061079;3.395548e-04;0.005579;-0.060739;0.542343;0.019354;-0.019354;0.003005
1.509493;-3.963711;0.465138;-0.780302;0.055931;-0.059908;0.784594;0.030583;5.774601e-04;0.033855;0.407712;-52.960896;-0.018882;2.452713;0.05261;-0.02145;0.03703;110.633232;65.633232;0.049373;0.044002;0.030583;0.067522;1.868942e-04;5.774601e-04;-0.067335;0.405229;0.03116;-0.03116;0.084441
-0.303971;-4.030876;0.357049;-0.778629;0.056469;-0.059215;0.782917;0.045115;0.004357;-0.037807;0.26909;-10.355417;-0.096568;3.716229;0.067686;-0.018214;0.04295;166.507233;121.507233;0.057266;0.052264;0.045115;-0.073546;-0.002067;0.004357;0.071479;0.297833;0.049472;-0.049472;0.040033
-0.236806;-4.030876;0.484689;-0.777846;0.05606;-0.047942;0.781336;0.02989;0.003835;-0.0227;0.216344;-7.794312;-0.128299;4.622272;0.043036;-0.00931;0.026173;169.757538;124.75753;0.034897;0.032245;0.02989;-0.043038;-0.002363;0.003835;0.040674;0.436747;0.033725;-0.033725;0.030622
-0.169641;-4.030876;0.567751;-0.778204;0.055808;-0.049904;0.781797;-0.015016;0.003902;-0.0052;3.122056;3.847957;0.259878;0.320302;0.005237;-0.016351;0.010794;79.026596;34.026592;0.014392;0.013003;-0.015016;-0.009741;-6.584891e-04;0.003902;0.009082;0.517847;-0.011114;0.011114;0.038155
-0.102475;-4.030876;0.656028;-0.778194;0.056047;-0.057774;0.782346;-0.036471;0.005139;0.004649;6.542941;7.096297;0.140919;0.152836;0.005653;-0.036984;0.021318;28.08419;163.084198;0.028424;0.02674;-0.036471;0.010737;-0.001439;0.005139;-0.012175;0.598253;-0.031332;0.031332;0.002307
-0.03531;-4.030876;0.71714;-0.778351;0.055358;-0.063719;0.782914;-0.011004;0.005701;0.007911;1.598973;1.930122;0.518102;0.625401;0.008853;-0.014156;0.011504;165.761734;120.761734;0.015339;0.013401;-0.011004;0.017828;-0.002005;0.005701;-0.019833;0.653421;-0.005303;0.005303;0.002359
0.031855;-4.030876;0.773996;-0.778516;0.055476;-0.059167;0.78273;0.027222;0.003589;0.005157;-0.088781;-7.585886;-0.131824;-11.263674;0.028298;0.002512;0.012893;62.286823;17.286823;0.017191;0.018086;0.027222;0.008151;0.002163;0.003589;-0.005988;0.714829;0.030811;-0.030811;8.786096e-04
0.099021;-4.030876;0.804143;-0.778496;0.055738;-0.051562;0.78219;0.00825;0.002448;0.00252;-0.163948;-3.369721;-0.29676;-6.099492;0.009191;0.001507;0.003842;70.798294;25.798296;0.005123;0.005692;0.00825;0.003523;0.001516;0.002448;-0.002006;0.752581;0.010698;-0.010698;0.001108
0.166186;-4.030876;0.822772;-0.77817;0.055879;-0.056138;0.782191;-0.009164;0.002688;0.00244;3.042116;3.408797;0.293359;0.328719;0.003171;-0.009647;0.006409;13.330086;148.330078;0.008545;0.007709;-0.009164;0.005251;-3.704833e-04;0.002688;-0.005621;0.766634;-0.006476;0.006476;0.034832
0.233352;-4.030876;0.869303;-0.778137;0.055719;-0.055011;0.782067;0.005556;-3.263408e-04;0.004427;0.340457;17.025991;0.058734;2.937227;0.00793;-0.0027;0.005315;103.193222;58.193226;0.007086;0.00638;0.005556;0.008954;-1.007364e-04;-3.263408e-04;-0.009055;0.814293;0.00523;-0.00523;0.002143
0.300517;-4.030876;0.911972;-0.77832;0.055827;-0.052028;0.782052;0.003114;-7.495355e-04;0.013474;0.840177;4.154416;0.240708;1.190226;0.014794;-0.012429;0.013611;128.403915;83.403908;0.018148;0.015737;0.003114;0.026896;5.100196e-05;-7.495355e-04;-0.026845;0.859944;0.002364;-0.002364;0.006066
0.367682;-4.030876;0.957152;-0.778391;0.055746;-0.052608;0.782155;-0.005328;0.007255;0.012097;0.868006;0.734383;1.361686;1.152066;0.014599;-0.012672;0.013635;146.804611;101.804619;0.018181;0.015758;-0.005328;0.026349;-0.002155;0.007255;-0.028504;0.904544;0.001927;-0.001927;0.019095
0.434848;-4.030876;0.968582;-0.778517;0.05568;-0.056431;0.782543;-3.445365e-05;0.004882;0.004902;0.387031;0.007058;141.688583;2.583771;0.007908;-0.003061;0.005484;131.344925;86.344917;0.007312;0.006535;-3.445365e-05;0.008504;0.001301;0.004882;-0.007203;0.912152;0.004847;-0.004847;0.03946
0.502013;-4.030876;0.974836;-0.778766;0.055921;-0.052046;0.782504;5.123901e-04;5.590162e-04;0.001397;0.445565;-0.916593;-1.090997;2.24434;0.001932;-8.610239e-04;0.001397;62.898216;17.898218;0.001862;0.001652;5.123901e-04;6.269054e-04;0.002166;5.590162e-04;0.001539;0.922789;0.001071;-0.001071;0.042241
0.569178;-4.030876;0.981216;-0.778672;0.055901;-0.050962;0.782338;-8.097315e-04;-0.002416;-8.375521e-04;-6.129142;-0.335143;-2.983803;-0.163155;-4.524823e-04;-0.002773;0.00116;120.305283;75.305283;0.001547;0.001718;-8.097315e-04;-0.001325;-3.502523e-04;-0.002416;9.745995e-04;0.930255;-0.003226;0.003226;0.013338
0.636344;-4.030876;0.971753;-0.778892;0.056001;-0.047816;0.782365;-0.003599;0.002931;-1.504666e-04;1.227428;1.227697;0.814533;0.814711;0.002935;-0.003602;0.003269;76.586273;31.586273;0.004358;0.003781;-0.003599;-7.411609e-04;4.402277e-04;0.002931;0.001181;0.923937;-6.674707e-04;6.674707e-04;0.032643
0.703509;-4.030876;0.973499;-0.779161;0.056045;-0.049279;0.782727;-0.004546;0.006585;-0.002987;0.722091;0.690401;1.448434;1.384866;0.007336;-0.005297;0.006316;112.719719;67.719719;0.008422;0.007325;-0.004546;-0.006276;3.024301e-04;0.006585;0.006579;0.92422;0.002039;-0.002039;0.053427
0.770674;-4.030876;0.987289;-0.779119;0.055935;-0.052693;0.7829;-0.005336;0.004928;-0.005216;1.057323;1.082741;0.923581;0.945784;0.007113;-0.007521;0.007317;111.516045;66.516045;0.009756;0.00845;-0.005336;-0.010017;-4.147475e-04;0.004928;0.009602;0.934597;-4.077625e-04;4.077625e-04;0.056399
0.83784;-4.030876;0.994559;-0.779077;0.055942;-0.055423;0.783047;0.006034;0.002559;-0.002798;-0.132224;-2.357855;-0.424114;-7.562908;0.00759;0.001004;0.003293;3.244323;138.244324;0.004391;0.004761;0.006034;-0.004834;-7.613272e-04;0.002559;0.004072;0.939136;0.008594;-0.008594;0.053535
0.905005;-4.030876;0.959267;-0.779181;0.055928;-0.057539;0.783302;0.004597;4.409239e-04;-0.001953;0.061999;-10.424995;-0.095923;16.129181;0.005371;-3.329694e-04;0.002852;19.497763;154.497757;0.003802;0.003696;0.004597;-0.002297;-0.001609;4.409239e-04;6.878828e-04;0.901728;0.005038;-0.005038;0.065235
0.97217;-4.030876;0.927523;-0.779335;0.055756;-0.058113;0.783485;-0.008057;-4.364558e-04;-0.002337;39.048843;-18.460041;-0.054171;0.025609;2.232249e-04;-0.008717;0.00447;69.538521;24.538519;0.00596;0.005887;-0.008057;-0.00368;-9.938682e-04;-4.364558e-04;0.002687;0.86941;-0.008493;0.008493;0.050795
1.039336;-4.030876;0.910203;-0.779476;0.055809;-0.054456;0.783367;-0.005839;3.219816e-04;2.94704e-04;17.418488;18.135639;0.05514;0.05741;3.360455e-04;-0.005853;0.003095;50.729397;5.729396;0.004126;0.004019;-0.005839;-5.446686e-04;0.001134;3.219816e-04;0.001679;0.855748;-0.005517;0.005517;0.011208
1.106501;-4.030876;0.896496;-0.779365;0.055949;-0.056087;0.783381;0.002654;0.007939;0.009679;0.308986;-0.334311;-2.991223;3.236391;0.01533;-0.004737;0.010034;129.744064;84.744064;0.013378;0.012112;0.002654;0.020645;-0.001286;0.007939;-0.021932;0.84041;0.010594;-0.010594;0.026964
1.173667;-4.030876;0.874936;-0.779436;0.055901;-0.055431;0.783402;0.012719;0.012433;0.017051;0.151058;-1.023019;-0.977499;6.619987;0.029628;-0.004476;0.017052;115.137405;70.137405;0.022736;0.0214;0.012719;0.032447;0.001656;0.012433;-0.030791;0.819505;0.025152;-0.025152;0.019266
1.240832;-4.030876;0.822793;-0.77934;0.056211;-0.059016;0.78359;0.018184;0.002128;-0.005131;-0.031945;-8.544541;-0.117034;-31.304209;0.019684;6.287823e-04;0.009527;13.381238;148.381241;0.012703;0.012918;0.018184;-0.01115;8.891824e-04;0.002128;0.012039;0.763777;0.020312;-0.020312;0.018863
1.307997;-4.030876;0.752192;-0.779217;0.056168;-0.061055;0.78362;-0.009209;-6.887326e-04;-0.028112;1.421459;-13.370646;-0.074791;0.703503;0.023484;-0.033382;0.028433;125.101448;80.101448;0.03791;0.032997;-0.009209;-0.05315;-0.003073;-6.887326e-04;0.050077;0.691138;-0.009898;0.009898;0.007194
1.375163;-4.030876;0.675634;-0.779258;0.055559;-0.057524;0.783351;-0.029496;8.022707e-04;-0.025642;2.858878;36.765671;0.027199;0.349788;0.015436;-0.04413;0.029783;103.241623;58.241619;0.039711;0.035696;-0.029496;-0.047783;-0.003502;8.022707e-04;0.044281;0.618111;-0.028694;0.028694;0.021111
1.442328;-4.030876;0.579276;-0.779604;0.055404;-0.052967;0.783363;-0.002917;0.001251;-0.012909;1.136062;2.331477;0.428913;0.880234;0.012244;-0.01391;0.013077;128.759659;83.759651;0.017435;0.01511;-0.002917;-0.027312;0.001493;0.001251;0.028805;0.526309;-0.001666;0.001666;0.042547
1.509493;-4.030876;0.453884;-0.78035;0.056229;-0.05475;0.784287;0.016367;-0.001489;1.807764e-04;0.091105;10.98857;0.091004;10.976314;0.016369;-0.001491;0.00893;33.303413;168.303421;0.011907;0.011442;0.016367;-0.003218;0.003579;-0.001489;0.006797;0.399134;0.014878;-0.014878;0.079791
-0.303971;-4.098042;0.345771;-0.778264;0.055737;-0.051499;0.781955;-0.015398;0.005946;-0.035401;1.293105;2.589803;0.38613;0.773333;0.032249;-0.041701;0.036975;122.628807;77.628807;0.0493;0.042811;-0.015398;-0.06917;-0.001632;0.005946;0.067538;0.294272;-0.009452;0.009452;0.036764
-0.236806;-4.098042;0.465582;-0.777892;0.055491;-0.05338;0.781694;0.002355;0.005614;0.004019;0.04235;-0.419483;-2.383884;23.612698;0.008321;-3.523951e-04;0.004337;129.096252;84.09626;0.005782;0.005668;0.002355;0.009953;-0.001915;0.005614;-0.011869;0.412202;0.007969;-0.007969;0.014854
-0.169641;-4.098042;0.551046;-0.778158;0.055319;-0.050199;0.781735;-3.946974e-04;0.003667;-0.001651;0.230667;0.10764;9.290203;4.335245;0.004253;-9.810739e-04;0.002617;129.563034;84.563042;0.00349;0.003213;-3.946974e-04;-0.003599;2.977195e-04;0.003667;0.003897;0.500848;0.003272;-0.003272;0.038457
-0.102475;-4.098042;0.656827;-0.77808;0.055619;-0.053797;0.781918;-0.033298;0.001983;-0.022281;3.453809;16.792524;0.05955;0.289535;0.012762;-0.044076;0.028419;98.125313;53.125313;0.037892;0.034436;-0.033298;-0.044329;-2.336934e-04;0.001983;0.044095;0.60303;-0.031315;0.031315;0.031819
-0.03531;-4.098042;0.705538;-0.778068;0.0552;-0.059069;0.782257;-0.013175;0.001776;-0.018897;1.779581;7.41917;0.134786;0.56193;0.014622;-0.026022;0.020322;115.92939;70.92939;0.027096;0.023772;-0.013175;-0.038068;2.732561e-04;0.001776;0.038341;0.646468;-0.011399;0.011399;0.033786
0.031855;-4.098042;0.749581;-0.778302;0.055606;-0.056089;0.782299;0.029917;2.235869e-04;-0.012545;0.126539;-133.805176;-0.007474;7.902688;0.034507;-0.004367;0.019437;3.039016;138.039017;0.025916;0.02459;0.029917;-0.026959;0.00187;2.235869e-04;0.02883;0.693492;0.030141;-0.030141;0.002641
0.099021;-4.098042;0.797681;-0.778463;0.05564;-0.052123;0.782187;0.005492;0.002823;-0.010204;0.424501;-1.94529;-0.514062;2.355708;0.014449;-0.006133;0.010291;150.52507;105.525063;0.013721;0.012202;0.005492;-0.019721;-6.878049e-04;0.002823;0.019033;0.745557;0.008315;-0.008315;0.005596
0.166186;-4.098042;0.834545;-0.778413;0.055571;-0.054907;0.782323;-0.016929;0.004803;-0.004182;3.173265;3.524904;0.283696;0.315133;0.00558;-0.017706;0.011643;67.062073;22.062073;0.015524;0.014039;-0.016929;-0.006765;-0.0016;0.004803;0.005166;0.779638;-0.012127;0.012127;0.031774
0.233352;-4.098042;0.894408;-0.778107;0.055527;-0.056113;0.782101;-0.00977;0.002406;0.004335;2.942211;4.06116;0.246235;0.33988;0.003792;-0.011156;0.007474;3.937479;138.937485;0.009965;0.008972;-0.00977;0.008239;4.323821e-04;0.002406;-0.007806;0.838295;-0.007364;0.007364;0.014242
0.300517;-4.098042;0.917401;-0.778379;0.055608;-0.059695;0.782643;-0.012323;0.006978;0.010891;1.449917;1.765887;0.566288;0.689695;0.011879;-0.017224;0.014551;161.786804;116.786812;0.019402;0.016897;-0.012323;0.023432;-0.001651;0.006978;-0.025083;0.857705;-0.005345;0.005345;0.020498
0.367682;-4.098042;0.944061;-0.778773;0.055532;-0.060147;0.783064;0.001771;0.008074;0.011717;0.422791;-0.219372;-4.558463;2.365236;0.017056;-0.007211;0.012134;131.91713;86.91713;0.016178;0.01439;0.001771;0.024396;-9.611485e-04;0.008074;-0.025357;0.883914;0.009845;-0.009845;0.03361
0.434848;-4.098042;0.962142;-0.778771;0.055516;-0.05651;0.78279;0.009979;0.003801;0.004526;-0.114036;-2.625413;-0.380892;-8.769154;0.01237;0.001411;0.00548;85.745125;40.745125;0.007306;0.007819;0.009979;0.007858;0.001194;0.003801;-0.006664;0.905633;0.01378;-0.01378;0.020297
0.502013;-4.098042;0.976508;-0.778833;0.055637;-0.052367;0.782572;0.001867;0.004091;0.002536;-0.03643;-0.456393;-2.191094;-27.449974;0.005748;2.093993e-04;0.002769;109.267105;64.267105;0.003692;0.003764;0.001867;0.003327;0.001746;0.004091;-0.001581;0.92414;0.005957;-0.005957;0.02058
0.569178;-4.098042;0.989979;-0.7787;0.055775;-0.056162;0.782712;-0.001096;0.00226;0.001927;0.628823;0.484834;2.06256;1.590274;0.003137;-0.001973;0.002555;143.224609;98.224609;0.003407;0.002976;-0.001096;0.003198;6.553686e-04;0.00226;-0.002543;0.933817;0.001164;-0.001164;0.009926
0.636344;-4.098042;0.974001;-0.778933;0.055861;-0.053948;0.782794;-0.005813;-6.783647e-04;-0.005;3.73386;-8.569599;-0.116692;0.267819;0.002375;-0.008866;0.00562;96.546066;51.54607;0.007494;0.006841;-0.005813;-0.00775;-0.00225;-6.783647e-04;0.0055;0.920053;-0.006492;0.006492;0.002748
0.703509;-4.098042;0.949733;-0.779337;0.055706;-0.054559;0.783228;7.607648e-04;0.004714;-0.002706;0.10083;-0.161386;-6.196308;9.91769;0.006089;-6.139144e-04;0.003351;141.124252;96.124252;0.004468;0.004278;7.607648e-04;-0.005137;-2.752469e-04;0.004714;0.004862;0.895173;0.005475;-0.005475;0.032898
0.770674;-4.098042;0.961371;-0.779181;0.055758;-0.057237;0.783268;-7.554709e-04;0.003572;-0.00286;0.436142;0.211521;4.727654;2.292829;0.004994;-0.002178;0.003586;132.290009;87.290009;0.004782;0.004246;-7.554709e-04;-0.005141;-5.790083e-04;0.003572;0.004562;0.904135;0.002816;-0.002816;0.036259
0.83784;-4.098042;0.97781;-0.778946;0.055773;-0.059641;0.783214;0.001063;-0.004536;8.298351e-04;3.935573;0.234293;4.268163;0.254093;0.001183;-0.004656;0.00292;123.477631;78.477631;0.003893;0.003565;0.001063;0.002264;-6.046052e-04;-0.004536;-0.002869;0.918169;-0.003473;0.003473;0.022255
0.905005;-4.098042;0.951973;-0.779002;0.055877;-0.059345;0.783255;0.00579;-0.00341;0.008523;0.781141;1.697955;0.588944;1.280178;0.010875;-0.008495;0.009685;115.718689;70.718689;0.012914;0.011212;0.00579;0.015134;0.001912;-0.00341;-0.013222;0.892628;0.00238;-0.00238;0.023257
0.97217;-4.098042;0.919098;-0.779105;0.056;-0.061452;0.783528;-6.944003e-04;4.970192e-04;0.002501;1.079849;1.39713;0.715753;0.926056;0.002472;-0.002669;0.002571;142.779297;97.779289;0.003428;0.002969;-6.944003e-04;0.005118;-1.168924e-04;4.970192e-04;-0.005235;0.857646;-1.973811e-04;1.973811e-04;0.040225
1.039336;-4.098042;0.906682;-0.779481;0.055796;-0.058756;0.783681;-0.009457;0.002035;-0.002245;4.018969;4.646519;0.215215;0.24882;0.002458;-0.00988;0.006169;55.813248;10.813249;0.008226;0.007541;-0.009457;-0.002264;-0.002227;0.002035;3.679557e-05;0.847926;-0.007422;0.007422;0.023131
1.106501;-4.098042;0.893605;-0.779619;0.055677;-0.053203;0.783414;-0.011281;0.004157;8.470162e-04;2.694658;2.713544;0.368522;0.371105;0.004204;-0.011328;0.007766;30.167107;165.167099;0.010354;0.009276;-0.011281;0.002389;-6.946523e-04;0.004157;-0.003083;0.840402;-0.007124;0.007124;0.040978
1.173667;-4.098042;0.862962;-0.779691;0.05566;-0.051411;0.783364;0.028626;0.004895;-0.00103;-0.169188;-5.847579;-0.171011;-5.910593;0.028671;0.004851;0.01191;39.714279;174.714279;0.01588;0.01772;0.028626;-0.002676;6.159545e-04;0.004895;0.003292;0.81155;0.033522;-0.033522;0.030782
1.240832;-4.098042;0.818731;-0.779479;0.055815;-0.062854;0.783999;0.040231;0.005548;-0.002039;-0.134542;-7.251106;-0.13791;-7.432599;0.04035;0.005429;0.017461;39.090416;174.090424;0.023281;0.025285;0.040231;-0.004087;1.007096e-05;0.005548;0.004097;0.755877;0.045779;-0.045779;0.013509
1.307997;-4.098042;0.756992;-0.7793;0.055871;-0.067216;0.784187;-0.014099;0.002656;0.004296;4.09834;5.308123;0.188391;0.244001;0.003693;-0.015136;0.009415;9.757119;144.757126;0.012553;0.011521;-0.014099;0.009695;-0.001103;0.002656;-0.010798;0.689776;-0.011443;0.011443;0.039274
1.375163;-4.098042;0.686114;-0.77931;0.055632;-0.061122;0.783681;-0.032046;-7.758117e-05;0.004508;59.825649;-413.061768;-0.002421;0.016715;5.460781e-04;-0.032669;0.016608;26.215349;161.215347;0.022144;0.021964;-0.032046;0.010938;-0.001922;-7.758117e-05;-0.01286;0.624992;-0.032123;0.032123;0.061081
1.442328;-4.098042;0.608893;-0.779589;0.055522;-0.055983;0.783566;-0.002243;-0.004035;-0.010089;1.898158;-0.556016;-1.798511;0.526827;0.00699;-0.013268;0.010129;130.583435;85.583435;0.013505;0.011882;-0.002243;-0.022768;0.002589;-0.004035;0.025357;0.55291;-0.006278;0.006278;0.042904
1.509493;-4.098042;0.495867;-0.780062;0.056313;-0.057832;0.784227;0.01463;-0.006998;-0.023045;0.739273;2.090556;0.478342;1.35268;0.029272;-0.02164;0.025456;151.388443;106.388435;0.033942;0.029504;0.01463;-0.051503;0.005413;-0.006998;0.056916;0.438035;0.007632;-0.007632;0.062307
-0.303971;-4.165207;0.354377;-0.777347;0.055438;-0.039751;0.780334;-0.09061;0.005297;-0.005947;16.062202;17.106983;0.058456;0.062258;0.005664;-0.090977;0.048321;53.127995;8.127994;0.064427;0.062625;-0.09061;-0.012846;9.508374e-04;0.005297;0.013796;0.314626;-0.085313;0.085313;0.052125
-0.236806;-4.165207;0.46602;-0.778222;0.055476;-0.059822;0.782487;-0.025906;0.001834;0.008616;6.608298;14.127224;0.070785;0.151325;0.004292;-0.028364;0.016328;10.758729;145.758728;0.021771;0.020491;-0.025906;0.017566;-3.331027e-04;0.001834;-0.017899;0.406198;-0.024072;0.024072;0.003951
-0.169641;-4.165207;0.533185;-0.778288;0.05525;-0.047888;0.781714;0.025174;0.00109;0.007048;0.030316;-23.1019;-0.043286;32.986198;0.027084;-8.210791e-04;0.013953;73.678146;28.678144;0.018604;0.018336;0.025174;0.013744;3.516717e-04;0.00109;-0.013392;0.485297;0.026263;-0.026263;0.01926
-0.102475;-4.165207;0.651607;-0.778088;0.055542;-0.047706;0.781525;-0.025638;0.001187;-0.001743;19.815006;21.602776;0.04629;0.050467;0.0013;-0.02575;0.013525;54.124432;9.124434;0.018033;0.017616;-0.025638;-0.004085;5.992087e-04;0.001187;0.004684;0.603901;-0.024451;0.024451;0.027616
-0.03531;-4.165207;0.720599;-0.77814;0.055358;-0.05531;0.782065;-0.017097;-3.503296e-05;-0.004327;18.13747;-488.027252;-0.002049;0.055134;9.99685e-04;-0.018132;0.009566;72.49279;27.492792;0.012754;0.012434;-0.017097;-0.008899;2.446333e-04;-3.503296e-05;0.009144;0.665289;-0.017132;0.017132;0.045324
0.031855;-4.165207;0.773837;-0.778201;0.055643;-0.054803;0.78211;0.032609;0.001729;-0.007177;-0.004157;-18.863728;-0.053012;-240.585083;0.034195;1.421329e-04;0.017026;20.151392;155.151398;0.022702;0.022749;0.032609;-0.015098;7.440606e-04;0.001729;0.015842;0.719034;0.034337;-0.034337;0.007922
0.099021;-4.165207;0.801745;-0.77812;0.055535;-0.04525;0.78141;-0.002412;0.003646;-0.007687;0.861023;0.661562;1.511574;1.161409;0.00888;-0.007646;0.008263;126.832535;81.832535;0.011017;0.00955;-0.002412;-0.014503;-8.717193e-04;0.003646;0.013631;0.756495;0.001234;-0.001234;0.01096
0.166186;-4.165207;0.846497;-0.778455;0.055401;-0.053155;0.782232;-0.030561;0.003436;-7.653547e-05;8.895231;8.895627;0.112415;0.11242;0.003436;-0.030561;0.016999;44.479145;179.479141;0.022665;0.021611;-0.030561;2.311731e-04;-3.84244e-04;0.003436;-6.154171e-04;0.793342;-0.027126;0.027126;0.029462
0.233352;-4.165207;0.879354;-0.778367;0.055398;-0.056438;0.782374;-0.009333;0.002179;-0.002653;3.591136;4.283193;0.233471;0.278463;0.002761;-0.009915;0.006338;74.508347;29.508347;0.00845;0.007697;-0.009333;-0.00509;-2.155524e-04;0.002179;0.004875;0.822917;-0.007154;0.007154;0.038786
0.300517;-4.165207;0.895138;-0.778598;0.055389;-0.059423;0.782825;-0.014863;0.001009;-0.008988;3.736605;14.735427;0.067864;0.267623;0.005063;-0.018917;0.01199;94.272545;49.272541;0.015986;0.014594;-0.014863;-0.01724;-7.3543e-04;0.001009;0.016504;0.835715;-0.013854;0.013854;0.044838
0.367682;-4.165207;0.943028;-0.778724;0.055385;-0.06312;0.783238;0.005853;0.003447;-0.010024;0.369317;-1.697963;-0.588941;2.707703;0.014746;-0.005446;0.010096;152.309311;107.309319;0.013461;0.012063;0.005853;-0.018853;-0.001195;0.003447;0.017657;0.879908;0.0093;-0.0093;0.032049
0.434848;-4.165207;0.966046;-0.778619;0.055374;-0.056849;0.782653;0.010314;0.003214;-0.003223;-0.170324;-3.209439;-0.311581;-5.871151;0.011559;0.001969;0.004795;12.657984;147.65799;0.006394;0.007141;0.010314;-0.006018;-4.28722e-04;0.003214;0.005589;0.909197;0.013528;-0.013528;0.038264
0.502013;-4.165207;0.971866;-0.778828;0.055287;-0.053619;0.782627;-0.001409;0.004784;4.532406e-04;0.299459;0.294627;3.394127;3.339358;0.004817;-0.001442;0.003129;125.726662;80.726662;0.004173;0.003785;-0.001409;1.491024e-04;7.573788e-04;0.004784;6.082764e-04;0.918247;0.003374;-0.003374;0.035183
0.569178;-4.165207;0.984686;-0.778899;0.055462;-0.055294;0.782826;-0.004112;0.005236;0.002487;0.808065;0.78532;1.273366;1.237525;0.005857;-0.004732;0.005295;141.497543;96.497543;0.007059;0.006125;-0.004112;0.002976;0.001998;0.005236;-9.775708e-04;0.929392;0.001124;-0.001124;0.002898
0.636344;-4.165207;1.000523;-0.778975;0.055497;-0.056405;0.782984;-0.002714;0.001115;-0.001884;1.847175;2.433124;0.410994;0.541367;0.001887;-0.003485;0.002686;102.186577;57.186581;0.003582;0.003147;-0.002714;-0.004061;2.925507e-04;0.001115;0.004353;0.944118;-0.001599;0.001599;0.00794
0.703509;-4.165207;0.972818;-0.779019;0.055385;-0.053561;0.782819;-5.454196e-04;-9.541135e-05;-0.002595;1.280518;-5.716506;-0.174932;0.780934;0.002284;-0.002925;0.002605;127.704872;82.704872;0.003473;0.003015;-5.454196e-04;-0.004483;-7.077322e-04;-9.541135e-05;0.003775;0.919257;-6.40831e-04;6.40831e-04;0.031835
0.770674;-4.165207;0.955889;-0.778894;0.055726;-0.05394;0.782746;0.001141;0.002245;-9.610148e-04;-0.208795;-0.508297;-1.967352;-4.78938;0.002801;5.849256e-04;0.001108;151.508255;106.508247;0.001478;0.001706;0.001141;-0.001828;-9.412622e-05;0.002245;0.001734;0.901949;0.003386;-0.003386;0.024648
0.83784;-4.165207;0.956216;-0.778927;0.05548;-0.050673;0.782542;-0.005153;0.001111;0.002257;3.19861;4.640311;0.215503;0.312636;0.001839;-0.005882;0.00386;4.984541;139.984543;0.005147;0.004657;-0.005153;0.004226;2.86765e-04;0.001111;-0.00394;0.905544;-0.004043;0.004043;0.039048
0.905005;-4.165207;0.938858;-0.779236;0.055658;-0.049029;0.782758;0.002949;8.420562e-04;0.004621;0.42866;-3.501816;-0.285566;2.332851;0.006635;-0.002844;0.00474;113.933861;68.933861;0.006319;0.005617;0.002949;0.008;0.001242;8.420562e-04;-0.006757;0.889828;0.003791;-0.003791;0.01252
0.97217;-4.165207;0.924442;-0.779359;0.0558;-0.055852;0.783348;0.004599;0.006127;0.003354;-0.218438;-0.750654;-1.332172;-4.577962;0.008803;0.001923;0.00344;115.077805;70.077805;0.004587;0.005345;0.004599;0.007444;-7.35248e-04;0.006127;-0.008179;0.868589;0.010726;-0.010726;0.006992
1.039336;-4.165207;0.927667;-0.779404;0.055584;-0.056844;0.783449;-0.006238;0.003718;-0.002285;1.597635;1.677876;0.595991;0.625925;0.004217;-0.006737;0.005477;48.771282;3.771283;0.007303;0.00638;-0.006238;-0.001897;-0.002672;0.003718;-7.75783e-04;0.870823;-0.00252;0.00252;0.020258
1.106501;-4.165207;0.897039;-0.77949;0.055276;-0.054228;0.783326;-0.010736;0.006189;-0.00779;1.492722;1.734752;0.576451;0.669917;0.009229;-0.013776;0.011502;101.364998;56.364998;0.015336;0.013368;-0.010736;-0.01407;-0.001511;0.006189;0.012559;0.842811;-0.004547;0.004547;0.037131
1.173667;-4.165207;0.845553;-0.779566;0.055222;-0.054914;0.783447;0.022637;0.003252;-0.006286;-0.056849;-6.95984;-0.143681;-17.590492;0.024497;0.001393;0.011552;14.848562;149.848557;0.015403;0.015887;0.022637;-0.012978;4.061437e-04;0.003252;0.013384;0.790639;0.025889;-0.025889;0.059534
1.240832;-4.165207;0.786059;-0.779677;0.055409;-0.062543;0.784141;0.02086;-0.007409;0.011893;0.466197;2.815378;0.355192;2.145016;0.025198;-0.011747;0.018473;90.852196;45.852192;0.024631;0.021797;0.02086;0.020387;0.0034;-0.007409;-0.016987;0.723516;0.013451;-0.013451;0.030701
1.307997;-4.165207;0.730371;-0.779645;0.055659;-0.058897;0.783845;-0.021473;-0.006899;0.023384;3.75258;-3.112632;-0.321272;0.266483;0.010307;-0.038678;0.024493;159.839355;114.839355;0.032657;0.029821;-0.021473;0.045762;0.001005;-0.006899;-0.044757;0.671475;-0.028371;0.028371;0.037481
1.375163;-4.165207;0.685558;-0.779645;0.055725;-0.053218;0.783443;-0.007039;-3.973969e-04;0.015618;1.607075;-17.712519;-0.056457;0.622249;0.012249;-0.019686;0.015968;147.451752;102.451752;0.02129;0.018604;-0.007039;0.031852;-6.156577e-04;-3.973969e-04;-0.032468;0.63234;-0.007436;0.007436;0.056152
1.442328;-4.165207;0.607758;-0.779776;0.055722;-0.058417;0.783944;0.018671;0.001554;0.001631;-0.074376;-12.01409;-0.083236;-13.445172;0.018825;0.0014;0.008712;48.484089;3.484089;0.011616;0.01211;0.018671;9.555564e-04;0.002306;0.001554;0.00135;0.549341;0.020225;-0.020225;0.034803
1.509493;-4.165207;0.510151;-0.77984;0.056197;-0.063186;0.784411;0.017914;0.003266;-5.945939e-04;-0.180731;-5.484889;-0.182319;-5.533089;0.017938;0.003242;0.007348;30.807938;165.807938;0.009797;0.011038;0.017914;-0.005253;0.004063;0.003266;0.009316;0.446965;0.02118;-0.02118;0.029329
-0.303971;-4.232373;0.348062;-0.777396;0.054869;-0.047116;0.780753;-0.086174;0.00531;0.028934;6.905889;16.230047;0.061614;0.144804;0.013692;-0.094557;0.054125;11.657125;146.65712;0.072166;0.068063;-0.086174;0.056588;0.001279;0.00531;-0.055309;0.300946;-0.080865;0.080865;0.072434
-0.236806;-4.232373;0.493081;-0.778192;0.055269;-0.060682;0.782508;-0.027644;0.002833;0.017369;3.318504;9.75677;0.102493;0.301341;0.010701;-0.035511;0.023106;173.708008;128.708008;0.030808;0.027933;-0.027644;0.034347;3.913284e-04;0.002833;-0.033955;0.432399;-0.02481;0.02481;0.011271
-0.169641;-4.232373;0.575732;-0.778202;0.055035;-0.05051;0.781779;0.025649;-7.6111e-04;0.026274;0.405309;33.699043;0.029674;2.467252;0.04185;-0.016962;0.029406;108.684555;63.684555;0.039208;0.034954;0.025649;0.051847;7.013996e-04;-7.6111e-04;-0.051146;0.525222;0.024888;-0.024888;0.004742
-0.102475;-4.232373;0.661875;-0.777808;0.055353;-0.053731;0.781624;-0.015705;0.003088;0.026923;1.568142;5.085958;0.19662;0.637697;0.022207;-0.034824;0.028516;151.451324;106.451324;0.038021;0.033195;-0.015705;0.052873;9.72898e-04;0.003088;-0.051901;0.608144;-0.012617;0.012617;0.001334
-0.03531;-4.232373;0.710599;-0.778048;0.055511;-0.056611;0.782078;8.674524e-04;0.00501;0.004303;0.238131;-0.173151;-5.775309;4.199368;0.007714;-0.001837;0.004776;133.098328;88.09832;0.006368;0.005852;8.674524e-04;0.009496;-8.896661e-04;0.00501;-0.010386;0.653989;0.005877;-0.005877;0.016779
0.031855;-4.232373;0.754448;-0.77804;0.055365;-0.053998;0.781875;0.025132;0.00645;9.965234e-04;-0.254011;-3.896274;-0.256655;-3.936843;0.025185;0.006397;0.009394;52.165985;7.165984;0.012525;0.015116;0.025132;0.003284;-0.001291;0.00645;-0.004575;0.70045;0.031582;-0.031582;0.029565
0.099021;-4.232373;0.787415;-0.777931;0.055094;-0.045968;0.781233;-0.02436;0.00196;0.018758;2.912261;12.430487;0.080447;0.343376;0.011714;-0.034114;0.022914;168.346069;123.346069;0.030552;0.027492;-0.02436;0.036935;5.818573e-04;0.00196;-0.036353;0.741447;-0.0224;0.0224;0.012295
0.166186;-4.232373;0.858002;-0.778513;0.05526;-0.058278;0.782645;-0.02462;-0.004993;0.015345;9.689404;-4.93084;-0.202805;0.103206;0.003408;-0.033022;0.018215;175.735703;130.735703;0.024286;0.023234;-0.02462;0.028275;0.002415;-0.004993;-0.02586;0.799724;-0.029614;0.029614;0.008443
0.233352;-4.232373;0.874153;-0.778712;0.05512;-0.052944;0.782453;0.005407;0.004714;-0.004332;-0.075993;-1.146943;-0.871883;-13.159039;0.009406;7.147904e-04;0.004346;176.67395;131.67395;0.005794;0.006046;0.005407;-0.005336;-0.003328;0.004714;0.002008;0.821209;0.010121;-0.010121;0.03189
0.300517;-4.232373;0.900292;-0.778875;0.054978;-0.052211;0.782556;-0.009542;0.005938;-0.009705;1.339681;1.607058;0.622255;0.746446;0.010612;-0.014216;0.012414;108.964989;63.964993;0.016552;0.014385;-0.009542;-0.017214;-0.002197;0.005938;0.015016;0.84808;-0.003605;0.003605;0.033297
0.367682;-4.232373;0.945743;-0.778634;0.055074;-0.053959;0.782442;0.005761;0.003661;-0.011448;0.41866;-1.573544;-0.635508;2.388571;0.016207;-0.006785;0.011496;147.930527;102.930519;0.015328;0.013641;0.005761;-0.023967;0.001071;0.003661;0.025038;0.891784;0.009422;-0.009422;0.021468
0.434848;-4.232373;0.958979;-0.778591;0.055104;-0.051673;0.782247;9.849223e-04;0.002702;-0.004075;0.386322;-0.3645;-2.743481;2.588516;0.006008;-0.002321;0.004165;140.16922;95.169228;0.005553;0.004963;9.849223e-04;-0.008584;4.341392e-04;0.002702;0.009018;0.907306;0.003687;-0.003687;0.033448
0.502013;-4.232373;0.96581;-0.778798;0.054949;-0.055096;0.782676;-0.008318;0.002259;4.127141e-04;3.663946;3.682911;0.271524;0.27293;0.002275;-0.008334;0.005305;36.42664;171.426636;0.007073;0.00645;-0.008318;0.001095;-2.692337e-04;0.002259;-0.001364;0.910714;-0.00606;0.00606;0.046791
0.569178;-4.232373;0.992712;-0.778954;0.054945;-0.055418;0.782853;-0.005328;0.002842;0.003787;1.574639;1.87494;0.53335;0.635066;0.004327;-0.006813;0.00557;8.887928;143.887924;0.007427;0.006485;-0.005328;0.004487;0.003086;0.002842;-0.001401;0.937294;-0.002486;0.002486;0.028107
0.636344;-4.232373;1.009506;-0.778947;0.055297;-0.057308;0.783007;-0.002632;0.004017;6.739832e-04;0.660935;0.655228;1.526187;1.513007;0.004085;-0.0027;0.003392;105.837273;60.837273;0.004523;0.003944;-0.002632;-6.518238e-05;0.001413;0.004017;0.001478;0.952198;0.001385;-0.001385;0.01931
0.703509;-4.232373;0.984568;-0.778874;0.055424;-0.055827;0.782836;-8.561879e-04;0.002709;1.388326e-04;0.317445;0.316084;3.163712;3.150154;0.002714;-8.615864e-04;0.001788;134.777084;89.777077;0.002384;0.002155;-8.561879e-04;2.037311e-04;7.393421e-05;0.002709;-1.297968e-04;0.928741;0.001853;-0.001853;0.001535
0.770674;-4.232373;0.971803;-0.778903;0.055446;-0.05863;0.783072;0.005682;0.002834;-0.003244;-0.091673;-2.004698;-0.498828;-10.908279;0.007801;7.151414e-04;0.003543;7.013046;142.013046;0.004724;0.004979;0.005682;-0.00397;-0.002519;0.002834;0.001451;0.913174;0.008516;-0.008516;0.008514
0.83784;-4.232373;0.947778;-0.778907;0.055334;-0.058152;0.783033;-0.006486;-0.001081;-0.008647;2.434147;-6.001679;-0.16662;0.410822;0.005276;-0.012842;0.009059;110.712593;65.712593;0.012079;0.01076;-0.006486;-0.014889;-0.002404;-0.001081;0.012485;0.889626;-0.007566;0.007566;0.054591
0.905005;-4.232373;0.933247;-0.779133;0.055502;-0.053686;0.78295;-0.004725;-0.001514;-0.005449;3.436509;-3.121126;-0.320397;0.290993;0.002561;-0.0088;0.00568;115.449715;70.449715;0.007574;0.006881;-0.004725;-0.012913;0.002016;-0.001514;0.014929;0.879561;-0.006239;0.006239;0.018693
0.97217;-4.232373;0.936138;-0.779236;0.055367;-0.057263;0.783296;0.00363;0.003948;-0.001273;-0.4941;-0.919425;-1.087637;-2.023882;0.005072;0.002506;0.001283;168.607162;123.607155;0.001711;0.002929;0.00363;-0.002336;-2.106074e-04;0.003948;0.002125;0.878875;0.007579;-0.007579;0.016082
1.039336;-4.232373;0.924585;-0.779189;0.055334;-0.058159;0.783313;0.002687;0.002407;-0.001436;-0.27667;-1.11614;-0.895945;-3.614413;0.00399;0.001104;0.001443;174.477112;129.477112;0.001924;0.002379;0.002687;-0.002196;-6.768131e-04;0.002407;0.001519;0.866427;0.005094;-0.005094;0.021062
1.106501;-4.232373;0.869515;-0.779469;0.055265;-0.058371;0.783603;-0.006131;0.00253;-0.006192;1.62543;2.422804;0.412745;0.615222;0.005756;-0.009356;0.007556;109.210114;64.210114;0.010075;0.008808;-0.006131;-0.012225;-1.5977e-04;0.00253;0.012065;0.811144;-0.0036;0.0036;0.025639
1.173667;-4.232373;0.81158;-0.779512;0.055459;-0.055942;0.783483;-0.004545;-4.675275e-04;0.004161;3.356442;-9.720732;-0.102873;0.297935;0.002127;-0.007139;0.004633;178.22374;133.22374;0.006178;0.005605;-0.004545;0.005588;0.002734;-4.675275e-04;-0.002854;0.755638;-0.005012;0.005012;0.056183
1.240832;-4.232373;0.765814;-0.779439;0.055744;-0.056399;0.783463;0.0015;0.00766;0.01902;0.615893;-0.195813;-5.106901;1.623658;0.023848;-0.014688;0.019268;132.608887;87.608887;0.025691;0.022457;0.0015;0.037417;6.242036e-04;0.00766;-0.036792;0.709415;0.00916;-0.00916;0.015114
1.307997;-4.232373;0.721577;-0.779472;0.055507;-0.054661;0.783355;-0.001737;0.003785;0.006563;0.748456;0.458792;2.179637;1.336084;0.008144;-0.006096;0.00712;142.851669;97.851669;0.009493;0.00825;-0.001737;0.014771;-0.001645;0.003785;-0.016417;0.666917;0.002049;-0.002049;0.021407
1.375163;-4.232373;0.675831;-0.779491;0.055438;-0.054133;0.783332;0.009787;5.618443e-04;-0.010572;0.380631;-17.41922;-0.057408;2.627215;0.016709;-0.00636;0.011534;159.61412;114.614128;0.015379;0.013758;0.009787;-0.021344;2.008687e-04;5.618443e-04;0.021545;0.621699;0.010349;-0.010349;0.023485
1.442328;-4.232373;0.6096;-0.7798;0.055493;-0.058767;0.783978;0.006179;0.002926;6.599067e-04;-0.443422;-2.111938;-0.473499;-2.255189;0.006308;0.002797;0.001755;59.238945;14.238945;0.002341;0.00365;0.006179;0.00117;1.495224e-04;0.002926;-0.001021;0.550834;0.009105;-0.009105;0.01018
1.509493;-4.232373;0.517403;-0.779681;0.055599;-0.057426;0.783767;-0.005389;0.004187;0.020849;1.057826;1.287128;0.776923;0.945335;0.020791;-0.021993;0.021392;142.326431;97.326424;0.028523;0.024704;-0.005389;0.040885;8.13437e-04;0.004187;-0.040071;0.459977;-0.001202;0.001202;0.012915
-0.303971;-4.299538;0.318916;-0.777793;0.05494;-0.048576;0.781242;-0.06824;0.001281;0.008939;28.761793;53.272255;0.018771;0.034768;0.002412;-0.069371;0.035891;30.694607;165.694611;0.047855;0.047072;-0.06824;0.017404;4.739123e-04;0.001281;-0.01693;0.27034;-0.066959;0.066959;0.036678
-0.236806;-4.299538;0.489754;-0.777926;0.054926;-0.062886;0.782394;-0.025539;0.002965;0.006888;5.969669;8.61257;0.116109;0.167513;0.004542;-0.027116;0.015829;16.09627;151.096268;0.021106;0.019766;-0.025539;0.013945;-1.694018e-04;0.002965;-0.014114;0.426868;-0.022574;0.022574;0.024758
-0.169641;-4.299538;0.576737;-0.778081;0.054751;-0.056515;0.782049;0.010851;0.005158;0.009631;0.112954;-2.103949;-0.475297;8.853181;0.018048;-0.002039;0.010043;106.806084;61.80608;0.013391;0.012766;0.010851;0.019198;6.479365e-05;0.005158;-0.019133;0.520222;0.016009;-0.016009;0.005867
-0.102475;-4.299538;0.644123;-0.777988;0.055112;-0.061882;0.782389;0.001704;0.005783;0.006679;0.302009;-0.294699;-3.393291;3.311158;0.010727;-0.00324;0.006983;127.618576;82.618576;0.009311;0.008441;0.001704;0.01273;6.27489e-04;0.005783;-0.012102;0.582241;0.007487;-0.007487;0.013014
-0.03531;-4.299538;0.7185;-0.778015;0.054772;-0.054576;0.781847;0.019058;0.00602;0.0011;-0.309556;-3.165664;-0.315889;-3.230438;0.01915;0.005928;0.006611;53.593884;8.593884;0.008815;0.01132;0.019058;0.002775;-5.748986e-04;0.00602;-0.00335;0.663924;0.025078;-0.025078;0.011148
0.031855;-4.299538;0.751729;-0.778198;0.054812;-0.051681;0.781836;-0.001098;0.006267;0.011907;0.656466;0.175185;5.708266;1.523309;0.015048;-0.009878;0.012463;137.45668;92.456688;0.016617;0.014494;-0.001098;0.023788;2.54013e-05;0.006267;-0.023762;0.700048;0.005169;-0.005169;0.048299
0.099021;-4.299538;0.818392;-0.777997;0.054684;-0.056804;0.781983;-0.030447;8.342029e-05;0.026642;2.955927;364.980042;0.00274;0.338303;0.015524;-0.045887;0.030705;166.366791;121.366791;0.040941;0.036872;-0.030447;0.050089;0.003195;8.342029e-05;-0.046895;0.761588;-0.030363;0.030363;0.040117
0.166186;-4.299538;0.890212;-0.778539;0.055456;-0.063048;0.783054;0.005975;-0.007404;0.009331;1.13271;0.807014;1.239136;0.882839;0.010767;-0.012196;0.011482;120.198143;75.198143;0.015309;0.013266;0.005975;0.016091;0.002572;-0.007404;-0.013519;0.827164;-0.001429;0.001429;0.007894
0.233352;-4.299538;0.887358;-0.778983;0.055204;-0.048808;0.78246;0.005327;0.001123;-0.010362;0.532527;-4.741416;-0.210907;1.877839;0.013798;-0.007348;0.010573;158.169235;113.169243;0.014097;0.012397;0.005327;-0.01499;-0.005734;0.001123;0.009256;0.838549;0.00645;-0.00645;0.009123
0.300517;-4.299538;0.901874;-0.778955;0.054791;-0.053561;0.782714;-0.01249;4.923462e-04;0.002785;12.270409;25.368286;0.039419;0.081497;0.001065;-0.013062;0.007063;15.622825;150.622818;0.009418;0.009084;-0.01249;0.007069;-0.001499;4.923462e-04;-0.008568;0.848312;-0.011998;0.011998;0.023983
0.367682;-4.299538;0.934734;-0.778679;0.054896;-0.054632;0.782521;0.010083;0.001331;0.0048;0.064631;-7.57673;-0.131983;15.472421;0.012202;-7.886602e-04;0.006496;85.590958;40.590961;0.008661;0.00841;0.010083;0.008583;0.001018;0.001331;-0.007565;0.880102;0.011414;-0.011414;0.007441
0.434848;-4.299538;0.962041;-0.778787;0.054957;-0.0498;0.78231;0.00123;0.00226;1.800892e-04;-0.523545;-0.544152;-1.837721;-1.910056;0.002291;0.001199;5.457237e-04;112.498032;67.498032;7.276316e-04;0.001323;0.00123;-6.610608e-04;0.001021;0.00226;0.001682;0.912241;0.00349;-0.00349;0.011232
0.502013;-4.299538;0.974272;-0.778773;0.055039;-0.054945;0.782646;-0.009733;0.00112;-3.913449e-04;8.596624;8.692233;0.115045;0.116325;0.001134;-0.009747;0.005441;54.530476;9.530474;0.007254;0.006907;-0.009733;-0.00154;7.575009e-04;0.00112;0.002298;0.919327;-0.008614;0.008614;0.02317
0.569178;-4.299538;0.994389;-0.778724;0.055091;-0.061562;0.783094;-0.002139;-0.001628;-0.002261;10.610386;-1.314098;-0.760978;0.094247;3.919398e-04;-0.004159;0.002275;119.542625;74.542625;0.003034;0.002912;-0.002139;-0.0064;0.001879;-0.001628;0.008279;0.932827;-0.003767;0.003767;0.049415
0.636344;-4.299538;0.979748;-0.778773;0.0552;-0.058629;0.782925;-0.009076;-0.002648;0.005549;22.311268;-3.427068;-0.291795;0.04482;5.5017e-04;-0.012275;0.006413;8.741959;143.741959;0.00855;0.008373;-0.009076;0.006859;0.004239;-0.002648;-0.00262;0.921119;-0.011725;0.011725;0.049386
0.703509;-4.299538;0.952697;-0.779137;0.05526;-0.052157;0.782834;-0.001398;6.016229e-04;-1.655027e-04;2.294822;2.3241;0.430274;0.435764;6.15227e-04;-0.001412;0.001014;23.999458;158.999466;0.001351;0.0012;-0.001398;3.334301e-04;-6.644356e-04;6.016229e-04;-9.978656e-04;0.900539;-7.966092e-04;7.966092e-04;0.041924
0.770674;-4.299538;0.968748;-0.779023;0.055022;-0.057739;0.783095;0.005368;0.004658;0.006039;0.093692;-1.152324;-0.867812;10.673321;0.011063;-0.001037;0.00605;114.511314;69.511314;0.008066;0.007744;0.005368;0.012546;-4.669059e-04;0.004658;-0.013013;0.911008;0.010027;-0.010027;0.046135
0.83784;-4.299538;0.964574;-0.778767;0.055213;-0.066403;0.78354;1.567688e-04;-0.006036;-0.004073;3.701248;0.025971;38.503838;0.270179;0.002177;-0.008056;0.005116;142.459412;97.459412;0.006822;0.006224;1.567688e-04;-0.011231;0.003086;-0.006036;0.014317;0.898171;-0.005879;0.005879;0.057258
0.905005;-4.299538;0.9576;-0.779065;0.055235;-0.058272;0.783191;-0.015036;-0.00336;-0.009422;10.753486;-4.474757;-0.223476;0.092993;0.001886;-0.020283;0.011084;96.999969;51.999969;0.014779;0.014192;-0.015036;-0.018875;3.037621e-05;-0.00336;0.018906;0.899329;-0.018397;0.018397;0.037302
0.97217;-4.299538;0.937227;-0.779138;0.05504;-0.054544;0.782982;-0.010562;0.002109;-0.001476;4.710887;5.009308;0.199628;0.212274;0.002278;-0.010732;0.006505;58.158073;13.158072;0.008673;0.008022;-0.010562;-0.002467;-4.83728e-04;0.002109;0.001984;0.882682;-0.008454;0.008454;0.040342
1.039336;-4.299538;0.899354;-0.779103;0.055252;-0.05446;0.782955;0.00439;0.001039;0.009332;0.554854;-4.225405;-0.236664;1.802276;0.012196;-0.006767;0.009482;120.795334;75.795334;0.012642;0.011097;0.00439;0.017574;0.001091;0.001039;-0.016483;0.844894;0.005429;-0.005429;0.030193
1.106501;-4.299538;0.874199;-0.779379;0.055252;-0.060122;0.783645;0.004243;0.00354;0.009387;0.414143;-1.198779;-0.834182;2.414627;0.013285;-0.005502;0.009393;123.803703;78.803703;0.012524;0.011152;0.004243;0.019937;-0.001164;0.00354;-0.021101;0.814077;0.007783;-0.007783;0.025012
1.173667;-4.299538;0.84709;-0.779353;0.055324;-0.055514;0.783284;-0.022736;0.004899;0.002091;4.527565;4.640893;0.215476;0.220869;0.005057;-0.022894;0.013975;30.817717;165.817719;0.018633;0.017198;-0.022736;0.005295;-0.001112;0.004899;-0.006407;0.791577;-0.017837;0.017837;0.023124
1.240832;-4.299538;0.813512;-0.779431;0.055537;-0.048424;0.782906;-0.001346;0.008096;0.008248;0.475877;0.166263;6.014574;2.101384;0.012878;-0.006129;0.009503;137.213333;92.213333;0.012671;0.011202;-0.001346;0.015368;0.001127;0.008096;-0.014241;0.765088;0.00675;-0.00675;0.011448
1.307997;-4.299538;0.762832;-0.779603;0.055425;-0.055666;0.783551;0.037715;5.645222e-04;8.829838e-04;-0.014404;-66.809586;-0.014968;-69.426216;0.037736;5.435478e-04;0.018596;46.722805;1.722803;0.024795;0.024978;0.037715;0.001125;6.410789e-04;5.645222e-04;-4.838099e-04;0.707166;0.03828;-0.03828;0.01848
1.375163;-4.299538;0.687063;-0.77931;0.05569;-0.061304;0.783699;0.013707;-5.80442e-04;-0.014851;0.430353;23.614534;0.042347;2.323675;0.023043;-0.009917;0.01648;159.831604;114.831612;0.021973;0.019526;0.013707;-0.02961;-9.234475e-05;-5.80442e-04;0.029517;0.625759;0.013126;-0.013126;0.021212
1.442328;-4.299538;0.594075;-0.779595;0.05542;-0.058564;0.783754;-0.020623;0.001381;-0.009929;4.701521;14.937387;0.066946;0.212697;0.005199;-0.024441;0.01482;86.314316;41.31432;0.01976;0.018275;-0.020623;-0.018165;-0.001693;0.001381;0.016471;0.535511;-0.019243;0.019243;0.001863
1.509493;-4.299538;0.484035;-0.77986;0.055138;-0.053616;0.783643;-0.031627;0.002233;6.560817e-06;14.16606;14.166068;0.070591;0.070591;0.002233;-0.031627;0.01693;40.943172;175.943176;0.022573;0.021867;-0.031627;0.002096;-0.002083;0.002233;-0.004179;0.430419;-0.029395;0.029395;0.006419
-0.236806;-4.366703;0.485269;-0.777939;0.0549;-0.059303;0.782125;-0.01999;1.443873e-04;-0.017369;2.954672;138.443985;0.007223;0.338447;0.010153;-0.029998;0.020075;103.923447;58.92345;0.026767;0.024106;-0.01999;-0.033213;-0.001524;1.443873e-04;0.031689;0.425966;-0.019845;0.019845;0.027784
-0.169641;-4.366703;0.558916;-0.778222;0.05445;-0.056034;0.782134;0.007093;0.001162;-0.013203;0.532554;-6.106525;-0.163759;1.877745;0.01766;-0.009405;0.013532;150.466034;105.466034;0.018043;0.015866;0.007093;-0.025705;-7.021403e-04;0.001162;0.025002;0.502882;0.008255;-0.008255;0.017783
-0.102475;-4.366703;0.643601;-0.777982;0.054733;-0.056491;0.781948;0.013437;0.003348;-0.020414;0.429485;-4.013516;-0.249158;2.328369;0.02942;-0.012636;0.021028;153.147888;108.147881;0.028037;0.024917;0.013437;-0.04076;-6.816105e-05;0.003348;0.040691;0.58711;0.016785;-0.016785;0.015426
-0.03531;-4.366703;0.727515;-0.7779;0.054485;-0.054422;0.781702;0.004038;0.001702;-0.013819;0.657056;-2.371983;-0.421588;1.521941;0.016738;-0.010998;0.013868;143.500961;98.500969;0.018491;0.016128;0.004038;-0.027126;-5.118549e-04;0.001702;0.026614;0.673093;0.00574;-0.00574;7.564935e-04
0.031855;-4.366703;0.738037;-0.778258;0.054685;-0.05907;0.78241;-0.021133;9.628884e-04;-0.001226;20.569672;21.947586;0.045563;0.048615;0.001031;-0.021201;0.011116;49.189816;4.189816;0.014821;0.01449;-0.021133;-0.001587;-8.651381e-04;9.628884e-04;7.213776e-04;0.678966;-0.02017;0.02017;0.055038
0.099021;-4.366703;0.808623;-0.778303;0.05446;-0.060156;0.782522;-0.014593;0.002595;0.001454;5.416635;5.624667;0.177788;0.184616;0.002717;-0.014715;0.008716;46.048889;1.048887;0.011621;0.01083;-0.014593;2.116403e-04;0.002697;0.002595;0.002486;0.748467;-0.011999;0.011999;0.018555
0.166186;-4.366703;0.910687;-0.778194;0.055366;-0.060639;0.782514;0.027946;0.004829;-0.004795;-0.134056;-5.786637;-0.172812;-7.459573;0.028901;0.003874;0.012514;19.582989;154.582993;0.016685;0.018115;0.027946;-0.01362;0.004031;0.004829;0.017651;0.850048;0.032776;-0.032776;0.041495
0.233352;-4.366703;0.910544;-0.778456;0.055057;-0.048548;0.78191;-0.002102;0.003918;-0.005916;0.759383;0.536551;1.863757;1.316859;0.007546;-0.00573;0.006638;134.581146;89.581146;0.00885;0.007689;-0.002102;-0.007767;-0.004065;0.003918;0.003702;0.861996;0.001816;-0.001816;0.03156
0.300517;-4.366703;0.909774;-0.778576;0.054637;-0.056173;0.782509;-0.01957;0.001602;0.001708;11.330553;12.213228;0.081878;0.088257;0.001739;-0.019707;0.010723;30.29994;165.299942;0.014298;0.013755;-0.01957;0.00502;-0.001604;0.001602;-0.006623;0.853602;-0.017968;0.017968;0.001043
0.367682;-4.366703;0.955221;-0.77883;0.054709;-0.057822;0.782888;0.010544;1.044988e-04;0.004999;0.151628;-100.901779;-0.009911;6.595084;0.012552;-0.001903;0.007228;85.934143;40.934139;0.009637;0.009069;0.010544;0.009175;8.233983e-04;1.044988e-04;-0.008351;0.897399;0.010649;-0.010649;0.010891
0.434848;-4.366703;0.975294;-0.77882;0.054792;-0.050475;0.782375;0.0028;0.001979;0.002248;-0.022362;-1.414672;-0.706878;-44.718422;0.004675;1.045362e-04;0.002285;94.455978;49.455975;0.003047;0.003082;0.0028;0.003083;0.001413;0.001979;-0.00167;0.92482;0.004779;-0.004779;0.022269
0.502013;-4.366703;0.970495;-0.77874;0.054918;-0.051918;0.782399;-0.001928;0.004127;-0.001232;0.496594;0.467171;2.140545;2.013716;0.004368;-0.002169;0.003269;109.226585;64.226585;0.004358;0.003845;-0.001928;-0.004991;0.002527;0.004127;0.007518;0.918577;0.002199;-0.002199;0.013874
0.569178;-4.366703;0.979641;-0.778679;0.055015;-0.053598;0.782458;-2.572587e-04;-2.750297e-05;-4.526122e-04;1.877317;-9.353851;-0.106908;0.532675;3.245825e-04;-6.093442e-04;4.669633e-04;125.442581;80.442581;6.226178e-04;5.474939e-04;-2.572587e-04;-0.002123;0.001217;-2.750297e-05;0.00334;0.926043;-2.847617e-04;2.847617e-04;0.028509
0.636344;-4.366703;0.96808;-0.778537;0.055122;-0.056092;0.782499;-0.002832;0.002122;-4.846264e-04;1.32725;1.334494;0.749348;0.753438;0.002169;-0.002879;0.002524;87.042236;42.042236;0.003365;0.002924;-0.002832;-0.001646;6.770275e-04;0.002122;0.002323;0.911988;-7.097324e-04;7.097324e-04;0.040427
0.703509;-4.366703;0.970898;-0.778762;0.055044;-0.049177;0.782252;-0.002471;0.001817;-0.001428;1.290866;1.360016;0.735286;0.774674;0.002249;-0.002903;0.002576;26.714359;161.714355;0.003435;0.002982;-0.002471;-5.17697e-04;-0.002338;0.001817;-0.00182;0.921721;-6.5411e-04;6.5411e-04;0.061087
0.770674;-4.366703;0.996787;-0.778768;0.054696;-0.05673;0.782745;-0.002095;0.002316;0.015572;0.986038;0.904528;1.105549;1.01416;0.015838;-0.015617;0.015728;138.830765;93.830757;0.02097;0.018161;-0.002095;0.031395;-2.507115e-04;0.002316;-0.031646;0.940057;2.211384e-04;-2.211384e-04;0.047292
0.83784;-4.366703;0.982952;-0.778874;0.054665;-0.068341;0.783775;0.007516;0.003223;0.005447;0.043199;-2.331841;-0.428846;23.148783;0.011224;-4.848785e-04;0.005855;85.730568;40.730568;0.007806;0.00765;0.007516;0.006684;0.00421;0.003223;-0.002473;0.914611;0.010739;-0.010739;0.023463
0.905005;-4.366703;0.955303;-0.779174;0.055043;-0.065853;0.783887;-0.021982;0.001615;-0.001412;12.984793;13.609343;0.073479;0.077013;0.001699;-0.022066;0.011883;58.16972;13.169719;0.015844;0.015309;-0.021982;-0.005021;0.002197;0.001615;0.007219;0.889449;-0.020367;0.020367;0.02364
0.97217;-4.366703;0.929153;-0.779269;0.055131;-0.058844;0.78343;-0.022527;-2.259365e-04;-0.003183;104.621704;-99.704163;-0.01003;0.009558;2.195751e-04;-0.022972;0.011596;59.664932;14.664934;0.015461;0.015389;-0.022527;-0.005893;-4.739119e-04;-2.259365e-04;0.005419;0.870308;-0.022753;0.022753;0.016497
1.039336;-4.366703;0.915876;-0.779056;0.055192;-0.049199;0.782557;-0.008291;0.002803;0.002004;2.739849;2.957705;0.3381;0.364984;0.003154;-0.008642;0.005898;10.294348;145.294342;0.007864;0.007052;-0.008291;0.005222;-0.001214;0.002803;-0.006436;0.866678;-0.005488;0.005488;0.025502
1.106501;-4.366703;0.879553;-0.779269;0.055104;-0.052251;0.782961;0.019955;0.0031;0.006731;-0.033243;-6.437654;-0.155336;-30.081861;0.022312;7.417258e-04;0.010785;78.734268;33.734264;0.014381;0.014634;0.019955;0.013082;3.791392e-04;0.0031;-0.012703;0.827302;0.023054;-0.023054;0.029974
1.173667;-4.366703;0.833401;-0.77939;0.055226;-0.05736;0.783447;-0.011406;0.003279;-0.002459;3.208321;3.478304;0.287496;0.311689;0.00368;-0.011807;0.007744;74.981682;29.981682;0.010325;0.009343;-0.011406;-0.006048;0.001129;0.003279;0.007177;0.776041;-0.008127;0.008127;0.006985
1.240832;-4.366703;0.810138;-0.779459;0.055295;-0.04944;0.782981;-0.008759;0.004595;-0.00796;1.501285;1.906365;0.524559;0.666096;0.008307;-0.012472;0.01039;108.094574;63.094574;0.013853;0.012077;-0.008759;-0.016423;5.030764e-04;0.004595;0.016926;0.760698;-0.004164;0.004164;0.022144
1.307997;-4.366703;0.753365;-0.779504;0.055274;-0.053834;0.783314;0.044943;0.003455;-0.001887;-0.074822;-13.008853;-0.076871;-13.365116;0.045029;0.003369;0.02083;38.911789;173.911789;0.027773;0.028962;0.044943;-0.004849;0.001074;0.003455;0.005923;0.699531;0.048398;-0.048398;0.018743
1.375163;-4.366703;0.681006;-0.77931;0.055597;-0.062792;0.78381;0.023836;0.003829;-0.003004;-0.139539;-6.224966;-0.160643;-7.166447;0.024278;0.003388;0.010445;29.134176;164.134171;0.013927;0.015182;0.023836;-0.006715;7.056931e-04;0.003829;0.00742;0.618213;0.027665;-0.027665;0.037815
1.442328;-4.366703;0.58306;-0.779632;0.055563;-0.061078;0.783992;-0.020165;0.002806;-0.019138;2.272591;7.185376;0.139172;0.440026;0.013641;-0.030999;0.02232;106.132385;61.132385;0.02976;0.026415;-0.020165;-0.036347;-0.001929;0.002806;0.034418;0.521982;-0.017359;0.017359;0.033119
1.509493;-4.366703;0.478632;-0.779904;0.055086;-0.055196;0.783793;-0.033299;0.001163;-0.030474;2.696648;28.624996;0.034935;0.370831;0.018941;-0.051076;0.035008;105.1175;60.1175;0.046678;0.041819;-0.033299;-0.057993;-0.002955;0.001163;0.055038;0.423436;-0.032136;0.032136;0.021141
-0.236806;-4.433869;0.475846;-0.778071;0.054943;-0.052191;0.781752;-0.027372;0.003725;-0.008242;5.095179;7.348302;0.136086;0.196264;0.005774;-0.029421;0.017598;71.770096;26.770092;0.023464;0.021795;-0.027372;-0.01391;-0.002574;0.003725;0.011336;0.423655;-0.023647;0.023647;0.011674
-0.169641;-4.433869;0.564208;-0.778174;0.054522;-0.05694;0.782157;0.002584;0.001036;0.0011;-0.147389;-2.493986;-0.400965;-6.78479;0.003155;4.65014e-04;0.001345;99.316513;54.316517;0.001793;0.001967;0.002584;0.00357;-0.00137;0.001036;-0.004939;0.507268;0.00362;-0.00362;0.002939
-0.102475;-4.433869;0.645728;-0.777983;0.054439;-0.051504;0.781584;0.030984;8.521311e-04;-0.004797;-0.003373;-36.360962;-0.027502;-296.435242;0.031729;1.070365e-04;0.015811;26.41909;161.419098;0.021082;0.021117;0.030984;-0.010434;8.411139e-04;8.521311e-04;0.011275;0.594224;0.031836;-0.031836;0.003079
-0.03531;-4.433869;0.716841;-0.777994;0.054716;-0.047599;0.781367;-9.194031e-04;6.20354e-04;-0.013775;1.021914;1.482062;0.674736;0.978556;0.013646;-0.013946;0.013796;133.114044;88.114037;0.018395;0.015931;-9.194031e-04;-0.028728;0.001179;6.20354e-04;0.029907;0.669242;-2.990491e-04;2.990491e-04;0.007851
0.031855;-4.433869;0.746375;-0.778142;0.054721;-0.053203;0.781876;-0.033672;0.005972;-0.012381;3.909086;5.637843;0.177373;0.255814;0.009522;-0.037221;0.023371;79.025887;34.025887;0.031162;0.028522;-0.033672;-0.022466;-0.002296;0.005972;0.02017;0.693172;-0.027699;0.027699;0.038424
0.099021;-4.433869;0.804926;-0.778485;0.054345;-0.058415;0.782563;-0.01222;0.003193;-0.010295;2.081568;3.827164;0.26129;0.480407;0.008346;-0.017373;0.01286;105.638031;60.638031;0.017146;0.015151;-0.01222;-0.021519;9.293489e-04;0.003193;0.022448;0.746511;-0.009027;0.009027;0.020386
0.166186;-4.433869;0.898039;-0.778061;0.054723;-0.057127;0.782073;0.027707;0.002949;-0.002543;-0.096218;-9.394698;-0.106443;-10.393047;0.027966;0.002691;0.012637;30.058205;165.058212;0.01685;0.017815;0.027707;-0.007605;0.00252;0.002949;0.010125;0.840911;0.030656;-0.030656;0.045063
0.233352;-4.433869;0.908596;-0.77837;0.05473;-0.050239;0.781907;-0.003627;0.004075;0.001457;0.896926;0.890185;1.123362;1.114919;0.004341;-0.003894;0.004117;168.113678;123.113686;0.00549;0.004757;-0.003627;0.005662;-0.002748;0.004075;-0.00841;0.858357;4.474623e-04;-4.474623e-04;0.00191
0.300517;-4.433869;0.898226;-0.778778;0.054527;-0.054634;0.782594;-0.017859;-2.921157e-04;-0.006313;11.423764;-61.136139;-0.016357;0.087537;0.001741;-0.019892;0.010817;77.870392;32.870392;0.014422;0.013878;-0.017859;-0.01156;-0.001066;-2.921157e-04;0.010494;0.843592;-0.018151;0.018151;0.013732
0.367682;-4.433869;0.961605;-0.778699;0.054635;-0.057925;0.782759;1.699699e-04;2.147733e-04;-0.002991;0.879156;-0.791392;-1.263596;1.137454;0.003184;-0.002799;0.002991;136.5728;91.572807;0.003989;0.003457;1.699699e-04;-0.006071;8.80224e-05;2.147733e-04;0.006159;0.90368;3.847432e-04;-3.847432e-04;0.02571
0.434848;-4.433869;0.96854;-0.778756;0.054624;-0.054221;0.78255;-8.301801e-04;0.007004;0.001529;0.153317;0.118522;8.437284;6.522439;0.007292;-0.001118;0.004205;147.30806;102.308052;0.005607;0.005274;-8.301801e-04;0.004719;-0.001661;0.007004;-0.00638;0.914319;0.006174;-0.006174;0.034395
0.502013;-4.433869;0.947807;-0.778828;0.054704;-0.058238;0.782915;-0.003318;0.005917;8.36517e-04;0.566331;0.560823;1.783094;1.765751;0.005992;-0.003394;0.004693;115.383202;70.383202;0.006257;0.005488;-0.003318;1.173001e-04;0.001556;0.005917;0.001438;0.889569;0.002599;-0.002599;0.012914
0.569178;-4.433869;0.971724;-0.778994;0.05497;-0.057927;0.783076;-0.001036;0.002793;0.003042;0.607155;0.370915;2.696033;1.647025;0.004473;-0.002716;0.003595;134.764557;89.764549;0.004793;0.004192;-0.001036;0.004413;0.001671;0.002793;-0.002742;0.913797;0.001757;-0.001757;0.013505
0.636344;-4.433869;0.980566;-0.778776;0.054983;-0.057354;0.782819;0.004741;0.002368;-0.00161;-0.279852;-2.002117;-0.499471;-3.573313;0.005554;0.001554;0.002;4.595368;139.595367;0.002667;0.003309;0.004741;-0.003436;2.163809e-04;0.002368;0.003653;0.923212;0.007109;-0.007109;0.031854
0.703509;-4.433869;0.992126;-0.778703;0.054898;-0.05208;0.782371;-0.002539;8.986203e-04;7.502942e-04;2.554006;2.824894;0.353996;0.391542;0.001055;-0.002695;0.001875;0.582897;135.582901;0.0025;0.002233;-0.002539;0.002529;-0.001028;8.986203e-04;-0.003557;0.940047;-0.00164;0.00164;0.031126
0.770674;-4.433869;1.006989;-0.779037;0.054728;-0.05905;0.783186;9.867768e-04;-7.630629e-04;-0.001422;0.874403;1.293179;0.773288;1.143637;0.001781;-0.001557;0.001669;50.031551;5.031551;0.002226;0.001929;9.867768e-04;-0.001138;-0.001705;-7.630629e-04;-5.6662e-04;0.947939;2.237139e-04;-2.237139e-04;0.007888
0.83784;-4.433869;0.99376;-0.779198;0.054674;-0.064588;0.783779;0.003559;1.479494e-04;0.007883;0.626247;-24.058405;-0.041566;1.596815;0.009919;-0.006212;0.008066;120.758858;75.758858;0.010754;0.009395;0.003559;0.014233;0.001533;1.479494e-04;-0.0127;0.929171;0.003707;-0.003707;0.014711
0.905005;-4.433869;0.966555;-0.779113;0.05493;-0.058988;0.783271;-0.013047;0.004129;0.008166;2.206542;3.159772;0.316479;0.453198;0.007391;-0.016309;0.01185;178.612122;133.612122;0.015801;0.014003;-0.013047;0.013335;0.002996;0.004129;-0.010339;0.907567;-0.008918;0.008918;0.014192
0.97217;-4.433869;0.936521;-0.779089;0.055135;-0.058097;0.783195;-0.012507;0.001843;-0.003498;5.024326;6.786876;0.147343;0.199032;0.00265;-0.013314;0.007982;76.774239;31.774239;0.010643;0.009879;-0.012507;-0.007598;6.027672e-04;0.001843;0.008201;0.878423;-0.010664;0.010664;0.050404
1.039336;-4.433869;0.9248;-0.779144;0.055051;-0.051979;0.782814;-0.010653;-0.001277;-0.011842;2.761921;-8.342649;-0.119866;0.362067;0.006771;-0.018701;0.012736;109.077194;64.077194;0.016982;0.015235;-0.010653;-0.022072;-0.001612;-0.001277;0.020459;0.872821;-0.01193;0.01193;0.053127
1.106501;-4.433869;0.8831;-0.779325;0.054952;-0.054033;0.783127;0.015144;1.135177e-04;-0.012597;0.315727;-133.402847;-0.007496;3.16729;0.022297;-0.00704;0.014668;165.580765;120.580757;0.019558;0.017685;0.015144;-0.02563;4.357544e-04;1.135177e-04;0.026065;0.829067;0.015257;-0.015257;0.051348
1.173667;-4.433869;0.834299;-0.779603;0.054991;-0.059524;0.783803;-0.002937;0.001836;-0.003397;1.305654;1.599519;0.625188;0.7659;0.003601;-0.004702;0.004152;114.040405;69.040405;0.005536;0.004808;-0.002937;-0.007991;0.001196;0.001836;0.009187;0.774775;-0.001101;0.001101;0.031682
1.240832;-4.433869;0.813356;-0.779459;0.055034;-0.055215;0.783347;-0.009985;0.001572;-0.005905;3.074472;6.351169;0.157451;0.325259;0.004056;-0.012469;0.008262;95.423904;50.423901;0.011016;0.009944;-0.009985;-0.011964;1.540598e-04;0.001572;0.012118;0.75814;-0.008413;0.008413;0.014363
1.307997;-4.433869;0.754115;-0.779405;0.055077;-0.054378;0.783239;0.031952;0.001856;-0.006795;-0.011757;-17.215282;-0.058088;-85.055313;0.033415;3.92867e-04;0.016511;22.442101;157.442093;0.022015;0.022147;0.031952;-0.013221;-3.696705e-04;0.001856;0.012851;0.699737;0.033808;-0.033808;0.030791
1.375163;-4.433869;0.678321;-0.779568;0.055073;-0.06156;0.783932;0.034482;0.004627;-0.005456;-0.103275;-7.452625;-0.134181;-9.682858;0.035448;0.003661;0.015893;26.865759;161.865753;0.021191;0.022511;0.034482;-0.011134;2.211933e-04;0.004627;0.011355;0.616761;0.039109;-0.039109;0.011746
1.442328;-4.433869;0.594405;-0.779523;0.05512;-0.06488;0.784158;0.003023;0.004139;-0.018652;0.677976;-0.73041;-1.369095;1.474979;0.022242;-0.015079;0.01866;139.718506;94.718506;0.024881;0.021679;0.003023;-0.036821;-4.832851e-04;0.004139;0.036338;0.529525;0.007162;-0.007162;0.010941
1.509493;-4.433869;0.498572;-0.779729;0.05492;-0.064451;0.784314;-0.010495;0.002117;-0.03457;1.270692;4.95819;0.201686;0.786973;0.030952;-0.03933;0.035141;126.23336;81.23336;0.046855;0.040673;-0.010495;-0.067751;-0.00139;0.002117;0.066361;0.434121;-0.008378;0.008378;0.018807
-0.236806;-4.501034;0.49395;-0.777791;0.054281;-0.054502;0.781585;-0.032661;0.006195;0.007227;4.53071;5.271955;0.189683;0.220716;0.007496;-0.033962;0.020729;21.819498;156.819504;0.027638;0.02551;-0.032661;0.013669;7.853564e-04;0.006195;-0.012883;0.439448;-0.026466;0.026466;0.028776
-0.169641;-4.501034;0.583264;-0.777638;0.054478;-0.060605;0.781896;-0.001557;0.005271;0.003192;0.431264;0.295344;3.385877;2.318768;0.006531;-0.002816;0.004674;143.584213;98.584213;0.006231;0.005537;-0.001557;0.00644;-5.65523e-05;0.005271;-0.006497;0.522659;0.003714;-0.003714;0.016861
-0.102475;-4.501034;0.641643;-0.777905;0.054413;-0.054194;0.781686;0.031421;0.00631;0.013002;-0.021413;-4.979454;-0.200825;-46.701;0.03694;7.909992e-04;0.018075;83.585938;38.585938;0.0241;0.024368;0.031421;0.024414;0.00159;0.00631;-0.022825;0.587448;0.037731;-0.037731;0.019741
-0.03531;-4.501034;0.715695;-0.778128;0.054795;-0.047682;0.781511;0.006106;0.004755;0.019458;0.563817;-1.283933;-0.778857;1.773625;0.0249;-0.014039;0.01947;126.143341;81.143341;0.02596;0.022771;0.006106;0.038744;1.721301e-04;0.004755;-0.038572;0.668013;0.010861;-0.010861;0.020747
0.031855;-4.501034;0.770504;-0.778082;0.054345;-0.051069;0.781648;-0.025474;0.002064;0.005381;8.605275;12.341133;0.08103;0.116208;0.003078;-0.026488;0.014783;18.580399;153.580399;0.019711;0.018769;-0.025474;0.012552;-0.001791;0.002064;-0.014343;0.719436;-0.02341;0.02341;0.021003
0.099021;-4.501034;0.806743;-0.778632;0.054226;-0.057441;0.782629;-0.011588;0.003768;-0.007286;2.171727;3.07572;0.325127;0.460463;0.006674;-0.014495;0.010585;98.848015;53.848019;0.014113;0.012497;-0.011588;-0.015373;8.016448e-04;0.003768;0.016175;0.749302;-0.00782;0.00782;0.029476
0.166186;-4.501034;0.875346;-0.778198;0.054393;-0.057113;0.782185;0.016119;5.115298e-04;-0.005285;0.062562;-31.512077;-0.031734;15.984223;0.017741;-0.00111;0.009425;6.7177;141.717697;0.012567;0.012214;0.016119;-0.012893;0.002322;5.115298e-04;0.015216;0.818234;0.016631;-0.016631;0.046025
0.233352;-4.501034;0.896377;-0.778462;0.054582;-0.051937;0.7821;0.002515;0.002482;5.44766e-04;-0.641825;-1.013109;-0.987061;-1.558056;0.003043;0.001953;5.450088e-04;91.454002;46.454002;7.266784e-04;0.00178;0.002515;7.46582e-04;3.4295e-04;0.002482;-4.03632e-04;0.84444;0.004996;-0.004996;0.016498
0.300517;-4.501034;0.88992;-0.778843;0.054392;-0.050984;0.782403;-0.010459;3.670228e-04;0.001049;22.580015;28.49785;0.03509;0.044287;4.676705e-04;-0.01056;0.005514;30.500219;165.500214;0.007352;0.007201;-0.010459;0.002692;-5.943427e-04;3.670228e-04;-0.003286;0.838936;-0.010092;0.010092;0.031691
0.367682;-4.501034;0.924108;-0.778508;0.05448;-0.055367;0.782374;-0.010803;0.005285;9.427122e-04;2.033223;2.043985;0.48924;0.49183;0.00534;-0.010858;0.008099;31.375795;166.375793;0.010799;0.009531;-0.010803;0.001978;-9.230332e-05;0.005285;-0.00207;0.868741;-0.005518;0.005518;0.031272
0.434848;-4.501034;0.945034;-0.778567;0.054296;-0.055448;0.782426;0.002978;0.007096;0.003046;-0.156185;-0.419743;-2.38241;-6.402652;0.008713;0.001361;0.003676;128.828705;83.828705;0.004902;0.005413;0.002978;0.007843;-0.001751;0.007096;-0.009594;0.889586;0.010074;-0.010074;0.033116
0.502013;-4.501034;0.955176;-0.77876;0.054328;-0.052971;0.782448;3.647734e-04;0.007301;-0.003708;0.139666;-0.049961;-20.015789;7.15995;0.00891;-0.001244;0.005077;128.487823;83.487823;0.00677;0.006396;3.647734e-04;-0.010332;0.002915;0.007301;0.013246;0.902206;0.007666;-0.007666;0.00974
0.569178;-4.501034;0.989762;-0.778893;0.054657;-0.056905;0.782879;-0.003365;0.013905;-0.004982;0.308337;0.241975;4.132664;3.243203;0.01524;-0.004699;0.009969;123.854866;78.854866;0.013292;0.012036;-0.003365;-0.011795;0.00183;0.013905;0.013625;0.932857;0.010541;-0.010541;0.020942
0.636344;-4.501034;0.994967;-0.778973;0.054536;-0.054701;0.782793;0.002075;0.007685;-8.798431e-04;-0.248155;-0.27004;-3.703161;-4.029737;0.00782;0.001941;0.00294;137.152054;92.152054;0.00392;0.004702;0.002075;-0.002017;2.568294e-04;0.007685;0.002273;0.940266;0.009761;-0.009761;0.036563
0.703509;-4.501034;0.990559;-0.778673;0.054751;-0.052717;0.782374;8.9588e-04;0.002636;9.448939e-04;-0.15784;-0.339903;-2.942016;-6.335531;0.00305;4.814339e-04;0.001284;99.882034;54.882034;0.001712;0.001893;8.9588e-04;2.000918e-04;0.00169;0.002636;0.00149;0.937841;0.003532;-0.003532;0.02875
0.770674;-4.501034;0.983977;-0.778804;0.054885;-0.05585;0.782731;0.002595;-0.001403;-0.0034;0.737445;1.849729;0.54062;1.356034;0.00454;-0.003348;0.003944;155.186844;110.186844;0.005258;0.004571;0.002595;-0.006807;6.829908e-06;-0.001403;0.006813;0.928127;0.001192;-0.001192;0.006674
0.83784;-4.501034;0.979583;-0.778876;0.054727;-0.058798;0.783007;0.001631;-4.289885e-04;0.002067;0.58693;3.802932;0.262955;1.703781;0.002911;-0.001709;0.00231;116.185318;71.185318;0.00308;0.002697;0.001631;0.00512;-9.857537e-04;-4.289885e-04;-0.006106;0.920784;0.001202;-0.001202;0.025823
0.905005;-4.501034;0.961552;-0.778808;0.054669;-0.057206;0.782818;-0.001632;0.003909;0.003602;0.599315;0.417517;2.395112;1.668572;0.005682;-0.003406;0.004544;139.381363;94.381363;0.006059;0.005302;-0.001632;0.005672;0.001531;0.003909;-0.004141;0.904346;0.002277;-0.002277;0.014247
0.97217;-4.501034;0.935106;-0.778804;0.05489;-0.060445;0.783072;3.792282e-04;0.004226;-3.172149e-04;-0.083078;-0.089737;-11.143628;-12.036855;0.004252;3.532452e-04;0.001949;126.415016;81.415016;0.002599;0.002725;3.792282e-04;-0.001467;8.325891e-04;0.004226;0.0023;0.874661;0.004605;-0.004605;0.061387
1.039336;-4.501034;0.932961;-0.779111;0.054698;-0.061104;0.783416;-0.00827;0.003463;-0.00462;1.949095;2.387762;0.418802;0.513059;0.005064;-0.00987;0.007467;95.343193;50.343197;0.009956;0.00877;-0.00827;-0.00923;-1.031673e-05;0.003463;0.009219;0.871857;-0.004806;0.004806;0.048108
1.106501;-4.501034;0.896156;-0.7793;0.054799;-0.059001;0.783449;-0.012136;0.001547;0.001306;7.337499;7.843334;0.127497;0.136286;0.001671;-0.012259;0.006965;39.801968;174.801971;0.009287;0.008783;-0.012136;0.001268;0.001344;0.001547;7.568394e-05;0.837155;-0.010588;0.010588;0.032408
1.173667;-4.501034;0.83387;-0.77955;0.054957;-0.056686;0.783538;-0.008698;0.001374;0.009983;1.973925;6.329919;0.15798;0.506605;0.00752;-0.014843;0.011182;159.920212;114.920204;0.014909;0.01314;-0.008698;0.01858;0.001387;0.001374;-0.017193;0.777184;-0.007324;0.007324;0.035459
1.240832;-4.501034;0.807028;-0.779462;0.055044;-0.054665;0.783313;0.002411;0.002937;0.003704;0.162718;-0.821065;-1.21793;6.145591;0.006387;-0.001039;0.003713;118.729958;73.729958;0.004951;0.004643;0.002411;0.007305;1.031559e-04;0.002937;-0.007202;0.752363;0.005348;-0.005348;0.019815
1.307997;-4.501034;0.772295;-0.779193;0.055046;-0.056392;0.783168;0.032945;0.001473;-0.00645;-0.005905;-22.371128;-0.0447;-169.360367;0.034216;2.020296e-04;0.017007;25.122833;160.122833;0.022676;0.022743;0.032945;-0.011865;-0.001035;0.001473;0.010829;0.715903;0.034418;-0.034418;0.021273
1.375163;-4.501034;0.699258;-0.779334;0.054713;-0.06223;0.783727;0.036906;0.001202;-0.013356;0.078376;-30.69928;-0.032574;12.759015;0.041349;-0.003241;0.022295;9.804126;144.804123;0.029726;0.028707;0.036906;-0.026011;-7.005288e-04;0.001202;0.02531;0.637027;0.038108;-0.038108;0.002665
1.442328;-4.501034;0.603006;-0.779196;0.054712;-0.06645;0.783936;0.011423;0.001998;-0.009195;0.212548;-5.718104;-0.174883;4.70481;0.017043;-0.003622;0.010333;166.560623;121.560631;0.013777;0.012742;0.011423;-0.018436;4.499329e-05;0.001998;0.018481;0.536556;0.01342;-0.01342;0.008722
1.509493;-4.501034;0.491879;-0.779561;0.05473;-0.068136;0.784445;-8.769411e-04;0.001512;-0.003514;0.842476;0.580141;1.723718;1.186978;0.004029;-0.003394;0.003712;128.53006;83.53006;0.004949;0.004291;-8.769411e-04;-0.006622;-4.062688e-04;0.001512;0.006216;0.423743;6.346579e-04;-6.346579e-04;0.029194
-0.236806;-4.568199;0.503946;-0.777778;0.0538;-0.056779;0.781701;-0.045116;0.003817;-0.024392;3.971262;11.818991;0.08461;0.251809;0.013899;-0.055198;0.034548;93.684341;48.684338;0.046065;0.042202;-0.045116;-0.05126;0.002475;0.003817;0.053734;0.447167;-0.041298;0.041298;0.018038
-0.169641;-4.568199;0.554643;-0.777605;0.054055;-0.055802;0.781476;0.002621;0.008103;-0.026319;0.663013;-0.323525;-3.090948;1.508266;0.031823;-0.021099;0.026461;137.568405;92.568413;0.035281;0.030763;0.002621;-0.053695;0.001058;0.008103;0.054753;0.498841;0.010724;-0.010724;0.017946
-0.102475;-4.568199;0.618706;-0.778002;0.053782;-0.056406;0.781896;-0.004208;0.007586;-0.006698;0.681737;0.554747;1.802623;1.466842;0.010613;-0.007235;0.008924;120.41256;75.41256;0.011899;0.010366;-0.004208;-0.014518;0.001122;0.007586;0.015639;0.5623;0.003378;-0.003378;0.010914
-0.03531;-4.568199;0.71647;-0.778189;0.054085;-0.057229;0.782163;-0.001785;0.002808;0.020835;0.952349;0.635669;1.573147;1.050036;0.021473;-0.02045;0.020961;137.366776;92.366768;0.027948;0.024206;-0.001785;0.039653;0.002017;0.002808;-0.037635;0.659241;0.001023;-0.001023;0.010333
0.031855;-4.568199;0.793219;-0.778012;0.053936;-0.056504;0.781924;0.004838;0.002345;0.009948;0.472545;-2.063496;-0.484614;2.1162;0.013617;-0.006435;0.010026;122.577332;77.577332;0.013368;0.011822;0.004838;0.0212;-0.001303;0.002345;-0.022503;0.736716;0.007183;-0.007183;0.032078
0.099021;-4.568199;0.812156;-0.778256;0.054074;-0.053497;0.781964;0.009642;0.00571;-0.008047;0.038062;-1.688564;-0.592219;26.273201;0.015959;-6.074408e-04;0.008283;161.274918;116.274925;0.011045;0.010848;0.009642;-0.017587;0.001493;0.00571;0.01908;0.75866;0.015352;-0.015352;0.021025
0.166186;-4.568199;0.853061;-0.777996;0.054255;-0.052208;0.781631;-0.002578;0.004709;-0.011046;0.832196;0.547554;1.826303;1.20164;0.012697;-0.010566;0.011631;128.137543;83.137535;0.015509;0.01345;-0.002578;-0.024488;0.002396;0.004709;0.026885;0.800853;0.002131;-0.002131;0.022692
0.233352;-4.568199;0.906525;-0.778231;0.05441;-0.054507;0.782033;-0.002487;0.002171;3.928007e-04;1.143617;1.145792;0.872758;0.874419;0.002204;-0.00252;0.002362;79.524384;34.524384;0.003149;0.00273;-0.002487;-3.935501e-04;0.001179;0.002171;0.001573;0.852018;-3.165071e-04;3.165071e-04;0.052228
0.300517;-4.568199;0.93585;-0.778375;0.054359;-0.052554;0.782039;-0.008136;-0.001928;0.004139;71.983917;-4.219097;-0.237018;0.013892;1.417791e-04;-0.010206;0.005174;179.532379;134.532379;0.006898;0.006852;-0.008136;0.008042;2.366177e-04;-0.001928;-0.007806;0.883296;-0.010064;0.010064;0.066605
0.367682;-4.568199;0.93045;-0.778444;0.054338;-0.061091;0.782726;-0.009952;-0.002075;0.006853;7.361767;-4.795374;-0.208534;0.135837;0.001891;-0.013918;0.007904;165.490662;120.490654;0.010539;0.009969;-0.009952;0.016824;-0.003117;-0.002075;-0.019941;0.86936;-0.012027;0.012027;0.028508
0.434848;-4.568199;0.941429;-0.778726;0.05399;-0.061769;0.783035;0.011601;-0.002693;-8.667836e-04;0.235582;4.307904;0.232131;4.244806;0.011654;-0.002745;0.0072;54.456062;9.456063;0.009599;0.008828;0.011601;0.001289;-0.003023;-0.002693;-0.004312;0.87966;0.008908;-0.008908;0.037019
0.502013;-4.568199;0.963355;-0.77884;0.053951;-0.050583;0.782344;0.019869;0.00226;-0.001447;-0.107181;-8.789886;-0.113767;-9.33002;0.019987;0.002142;0.008922;31.334127;166.334122;0.011897;0.012671;0.019869;-0.005042;0.002147;0.00226;0.007188;0.912772;0.022129;-0.022129;0.018271
0.569178;-4.568199;1.00002;-0.778861;0.054319;-0.050481;0.782383;-0.003483;0.003425;-0.001361;1.015723;1.016911;0.98337;0.98452;0.003683;-0.003741;0.003712;100.533813;55.533813;0.00495;0.004287;-0.003483;-0.005082;0.00236;0.003425;0.007442;0.949539;-5.791333e-05;5.791333e-05;0.014073
0.636344;-4.568199;0.993945;-0.779041;0.054381;-0.052299;0.782686;0.00109;0.002169;5.665446e-04;-0.351197;-0.50248;-1.990129;-2.847408;0.002412;8.469496e-04;7.823307e-04;106.262466;61.262463;0.001043;0.001413;0.00109;2.476371e-04;8.854521e-04;0.002169;6.37815e-04;0.941647;0.003259;-0.003259;0.018139
0.703509;-4.568199;0.986259;-0.778816;0.054483;-0.052769;0.782501;0.002266;0.004483;2.516836e-05;-0.50543;-0.505526;-1.978139;-1.978515;0.004483;0.002266;0.001109;133.633957;88.633949;0.001478;0.002588;0.002266;-5.913915e-05;1.094759e-04;0.004483;1.68615e-04;0.93349;0.006749;-0.006749;0.047831
0.770674;-4.568199;0.978077;-0.778904;0.054407;-0.054517;0.782702;0.001809;0.005366;2.021892e-04;-0.334317;-0.337166;-2.965895;-2.991171;0.005377;0.001798;0.00179;140.960358;95.96035;0.002386;0.003161;0.001809;0.001396;-9.917049e-04;0.005366;-0.002388;0.92356;0.007175;-0.007175;0.001206
0.83784;-4.568199;0.979299;-0.778917;0.054286;-0.057657;0.782932;9.113093e-04;0.003269;0.002145;0.078728;-0.278785;-3.586994;12.702003;0.004537;-3.572183e-04;0.002447;130.878296;85.878304;0.003263;0.003151;9.113093e-04;0.004915;-6.251551e-04;0.003269;-0.00554;0.921642;0.00418;-0.00418;0.013388
0.905005;-4.568199;0.961754;-0.779044;0.054231;-0.05801;0.783081;-0.001617;0.004863;0.006602;0.638417;0.332515;3.007386;1.566374;0.008977;-0.005731;0.007354;138.257233;93.25724;0.009805;0.00856;-0.001617;0.011153;0.00205;0.004863;-0.009103;0.903744;0.003246;-0.003246;0.038976
0.97217;-4.568199;0.93736;-0.778968;0.054575;-0.056296;0.782904;0.004113;0.007606;0.008357;0.186007;-0.540751;-1.849281;5.37614;0.014397;-0.002678;0.008538;122.040504;77.040504;0.011383;0.010604;0.004113;0.015932;7.820055e-04;0.007606;-0.01515;0.881064;0.011719;-0.011719;0.052553
1.039336;-4.568199;0.92416;-0.778868;0.054565;-0.058416;0.782959;-0.00874;0.003271;0.0105;1.584242;2.672045;0.374245;0.631217;0.009361;-0.014831;0.012096;158.953033;113.953041;0.016128;0.014086;-0.00874;0.018848;0.002152;0.003271;-0.016696;0.865744;-0.005469;0.005469;0.035784
1.106501;-4.568199;0.879872;-0.779167;0.054815;-0.05394;0.782953;-0.027552;0.003512;0.019491;2.86329;7.846135;0.127451;0.349249;0.012902;-0.036943;0.024922;172.731369;127.731361;0.03323;0.029873;-0.027552;0.035493;0.003488;0.003512;-0.032005;0.825933;-0.024041;0.024041;0.017829
1.173667;-4.568199;0.831425;-0.779541;0.054863;-0.050952;0.783129;-0.002687;0.008119;0.015815;0.720386;0.330892;3.022135;1.388144;0.019429;-0.013997;0.016713;139.758347;94.758354;0.022284;0.019383;-0.002687;0.032322;-6.914704e-04;0.008119;-0.033014;0.780473;0.005433;-0.005433;0.044457
1.240832;-4.568199;0.811338;-0.77947;0.054615;-0.053206;0.78319;0.020399;0.003732;0.006247;-0.073415;-5.466048;-0.182948;-13.621173;0.022481;0.00165;0.010415;79.946739;34.946743;0.013887;0.014468;0.020399;0.014094;-0.001599;0.003732;-0.015693;0.758132;0.024131;-0.024131;0.022885
1.307997;-4.568199;0.776056;-0.779242;0.054733;-0.057673;0.783288;0.036182;0.001785;0.005064;-0.028576;-20.271088;-0.049331;-34.993832;0.036912;0.001055;0.017929;60.940536;15.940536;0.023905;0.024264;0.036182;0.01032;-1.910364e-04;0.001785;-0.010511;0.718383;0.037967;-0.037967;0.021121
1.375163;-4.568199;0.705203;-0.779356;0.05466;-0.066016;0.784054;0.027481;2.922413e-04;0.017286;0.225892;-94.034676;-0.010634;4.426888;0.035878;-0.008104;0.021991;96.304214;51.304214;0.029321;0.027028;0.027481;0.034307;2.644128e-04;2.922413e-04;-0.034043;0.639187;0.027773;-0.027773;0.047185
1.442328;-4.568199;0.597255;-0.779642;0.054794;-0.068343;0.784548;2.096976e-04;8.419144e-04;0.031976;0.967646;-0.249072;-4.014898;1.033436;0.032504;-0.031452;0.031978;134.807571;89.807571;0.042637;0.036926;2.096976e-04;0.063643;3.08918e-04;8.419144e-04;-0.063334;0.528912;0.001052;-0.001052;0.048956
1.509493;-4.568199;0.493796;-0.779547;0.054777;-0.06444;0.784121;-0.011825;0.00321;0.038986;1.243372;3.683335;0.271493;0.804265;0.035397;-0.044011;0.039704;143.565018;98.565018;0.052938;0.045936;-0.011825;0.078534;-5.630963e-04;0.00321;-0.079097;0.429356;-0.008615;0.008615;0.012089
-0.303971;-4.635365;0.360366;-0.777365;0.053651;-0.029976;0.779791;-0.144059;0.00215;-0.004421;63.139267;66.998192;0.014926;0.015838;0.002284;-0.144192;0.073238;48.34235;3.342349;0.097651;0.096898;-0.144059;-0.008418;-4.233524e-04;0.00215;0.007994;0.330389;-0.141908;0.141908;0.045777
-0.236806;-4.635365;0.493413;-0.777837;0.053524;-0.053682;0.781522;-0.060398;0.002527;-0.008162;17.216314;23.897928;0.041845;0.058084;0.003569;-0.06144;0.032504;59.603275;14.603276;0.043339;0.0422;-0.060398;-0.015733;-5.897698e-04;0.002527;0.015144;0.439731;-0.057871;0.057871;0.020913
-0.169641;-4.635365;0.565562;-0.77753;0.053399;-0.044738;0.780644;0.002474;0.004514;-0.006717;0.320727;-0.547992;-1.824846;3.117914;0.010288;-0.0033;0.006794;145.204422;100.204414;0.009058;0.008183;0.002474;-0.013008;-4.25044e-04;0.004514;0.012583;0.520824;0.006988;-0.006988;0.023457
-0.102475;-4.635365;0.674018;-0.777697;0.053517;-0.051559;0.78124;-0.031948;0.00548;-0.005599;5.201486;5.829813;0.171532;0.192253;0.0063;-0.032767;0.019533;69.492142;24.492142;0.026045;0.024219;-0.031948;-0.013974;0.002777;0.00548;0.016751;0.622459;-0.026468;0.026468;0.003518
-0.03531;-4.635365;0.723793;-0.777975;0.054082;-0.059568;0.782124;-0.015106;0.00186;-0.00322;6.406204;8.122523;0.123114;0.156099;0.00245;-0.015696;0.009073;73.639404;28.639404;0.012098;0.011369;-0.015106;-0.00812;0.00168;0.00186;0.0098;0.664225;-0.013246;0.013246;0.001242
0.031855;-4.635365;0.788126;-0.778078;0.053776;-0.058308;0.78211;0.02199;0.001749;-0.003902;-0.04505;-12.569666;-0.079557;-22.197647;0.022716;0.001023;0.010846;30.242983;165.242981;0.014462;0.014815;0.02199;-0.005661;-0.002143;0.001749;0.003518;0.729818;0.023739;-0.023739;0.027863
0.099021;-4.635365;0.816306;-0.778216;0.053579;-0.050587;0.781697;0.023915;0.004891;-0.003251;-0.177922;-4.889203;-0.204532;-5.62043;0.024455;0.004351;0.010052;29.536207;164.536209;0.013403;0.015064;0.023915;-0.006328;-1.744728e-04;0.004891;0.006153;0.76572;0.028807;-0.028807;0.01637
0.166186;-4.635365;0.856978;-0.777999;0.053719;-0.048624;0.781366;-0.016764;0.005482;0.001891;2.999823;3.058021;0.327009;0.333353;0.005642;-0.016924;0.011283;47.623795;2.623795;0.015044;0.01356;-0.016764;3.902775e-04;0.003391;0.005482;0.003001;0.808354;-0.011282;0.011282;0.050188
0.233352;-4.635365;0.917075;-0.778133;0.05419;-0.055998;0.782025;-0.014079;0.005514;0.007507;2.06274;2.553415;0.391632;0.484792;0.00806;-0.016625;0.012342;4.756289;139.756287;0.016456;0.014535;-0.014079;0.011504;0.00351;0.005514;-0.007994;0.861077;-0.008565;0.008565;0.051868
0.300517;-4.635365;0.943489;-0.77835;0.054255;-0.052003;0.78197;-0.003028;0.00303;0.001945;0.999541;0.999454;1.000546;1.000459;0.003601;-0.003599;0.0036;163.639374;118.639381;0.0048;0.004157;-0.003028;0.005159;-0.001269;0.00303;-0.006429;0.891486;1.653308e-06;-1.653308e-06;0.03777
0.367682;-4.635365;0.953755;-0.778419;0.053931;-0.058356;0.782464;-0.012514;0.011936;-0.001722;1.047928;1.048412;0.953823;0.954264;0.012057;-0.012634;0.012345;89.562645;44.562649;0.016461;0.014257;-0.012514;-0.003569;1.236002e-04;0.011936;0.003692;0.895398;-5.77841e-04;5.77841e-04;0.003609
0.434848;-4.635365;0.969641;-0.778672;0.053806;-0.062827;0.783054;0.006313;0.013529;-0.010958;0.075284;-0.466617;-2.143084;13.283096;0.021458;-0.001615;0.011536;146.883514;101.883514;0.015382;0.014873;0.006313;-0.021979;6.363677e-05;0.013529;0.022043;0.906814;0.019842;-0.019842;0.04461
0.502013;-4.635365;0.980142;-0.7787;0.053953;-0.053109;0.782372;0.015839;0.002447;-0.005296;-0.034272;-6.472784;-0.154493;-29.17873;0.01768;6.059194e-04;0.008537;7.466529;142.466522;0.011383;0.01159;0.015839;-0.012117;0.001526;0.002447;0.013643;0.927033;0.018286;-0.018286;0.044367
0.569178;-4.635365;0.989209;-0.778783;0.054299;-0.050772;0.782323;-0.004001;3.387676e-04;0.002459;3.528358;11.809374;0.084678;0.283418;0.001448;-0.00511;0.003279;174.615601;129.615601;0.004372;0.003978;-0.004001;0.004819;9.890112e-05;3.387676e-04;-0.00472;0.938437;-0.003662;0.003662;0.026674
0.636344;-4.635365;0.981691;-0.779087;0.054294;-0.052927;0.782768;-6.769378e-04;-0.006459;0.004215;5.624494;-0.104808;-9.541255;0.177794;0.001543;-0.008679;0.005111;139.129333;94.129341;0.006815;0.006363;-6.769378e-04;0.00808;3.489946e-04;-0.006459;-0.007731;0.928764;-0.007136;0.007136;0.034079
0.703509;-4.635365;0.997249;-0.778788;0.054181;-0.05695;0.782745;0.003105;-0.013335;-0.005463;3.151552;0.232834;4.294906;0.317304;0.004755;-0.014984;0.00987;146.431641;101.431641;0.013159;0.011896;0.003105;-0.013183;0.002257;-0.013335;0.01544;0.940299;-0.01023;0.01023;0.051764
0.770674;-4.635365;0.98118;-0.778946;0.053993;-0.054493;0.782714;-0.007904;0.001047;-0.009836;1.929433;7.549616;0.132457;0.518287;0.007378;-0.014235;0.010806;113.381775;68.381775;0.014408;0.012686;-0.007904;-0.019924;2.525642e-04;0.001047;0.020177;0.926686;-0.006857;0.006857;0.026113
0.83784;-4.635365;0.966113;-0.77904;0.0542;-0.054461;0.78282;-0.004008;0.002343;2.715018e-04;1.707099;1.710595;0.584592;0.585789;0.002355;-0.00402;0.003187;66.006996;21.006996;0.00425;0.003722;-0.004008;-6.182116e-04;0.001161;0.002343;0.001779;0.911652;-0.001665;0.001665;0.018309
0.905005;-4.635365;0.966007;-0.779241;0.054321;-0.053354;0.782952;-7.71348e-04;5.640663e-04;7.277861e-04;1.234472;1.367477;0.731274;0.810063;8.84036e-04;-0.001091;9.876768e-04;52.55085;7.550852;0.001317;0.001143;-7.71348e-04;5.281252e-04;9.274469e-04;5.640663e-04;3.993217e-04;0.912653;-2.072816e-04;2.072816e-04;0.054588
0.97217;-4.635365;0.951755;-0.779035;0.054211;-0.052254;0.782665;0.009751;5.784475e-04;-0.002763;0.018008;-16.857512;-0.059321;55.532341;0.010519;-1.894221e-04;0.005354;19.086617;154.086609;0.007139;0.007077;0.009751;-0.004721;-8.047706e-04;5.784475e-04;0.003916;0.899501;0.01033;-0.01033;0.05871
1.039336;-4.635365;0.920074;-0.778893;0.0541;-0.055906;0.782769;-0.008688;0.001198;-0.007063;2.53612;7.250661;0.137918;0.394303;0.004876;-0.012366;0.008621;106.130478;61.130478;0.011494;0.010263;-0.008688;-0.015993;0.001867;0.001198;0.01786;0.864168;-0.00749;0.00749;0.04717
1.106501;-4.635365;0.888929;-0.7792;0.054584;-0.048232;0.782597;-0.029869;-0.00215;-0.008172;399.98291;-13.894307;-0.071972;0.0025;8.02498e-05;-0.032099;0.016089;79.77256;34.77256;0.021453;0.021426;-0.029869;-0.021145;0.004801;-0.00215;0.025946;0.840697;-0.032018;0.032018;0.036039
1.173667;-4.635365;0.860425;-0.779549;0.054958;-0.045629;0.782815;0.007491;-0.003609;-0.008391;0.6765;2.075831;0.481735;1.478198;0.012002;-0.008119;0.01006;157.810577;112.810577;0.013414;0.011688;0.007491;-0.017416;6.346476e-04;-0.003609;0.018051;0.814796;0.003882;-0.003882;0.04256
1.240832;-4.635365;0.818607;-0.779316;0.054698;-0.053245;0.783046;0.027386;0.001217;-0.008666;0.04644;-22.506935;-0.044431;21.533163;0.029996;-0.001393;0.015694;15.891251;150.891251;0.020926;0.020477;0.027386;-0.015244;-0.002089;0.001217;0.013155;0.765362;0.028603;-0.028603;0.002504
1.307997;-4.635365;0.760274;-0.779169;0.054668;-0.055311;0.783041;0.013007;5.88796e-04;0.00684;0.152141;-22.091118;-0.045267;6.572847;0.016036;-0.00244;0.009238;90.474365;45.474365;0.012317;0.01159;0.013007;0.013219;4.597494e-04;5.88796e-04;-0.01276;0.704963;0.013596;-0.013596;0.011887
1.375163;-4.635365;0.698771;-0.779308;0.054753;-0.056763;0.783288;0.00617;0.006286;0.033926;0.689801;-0.981574;-1.018772;1.449693;0.040154;-0.027698;0.033926;129.7453;84.745308;0.045235;0.039394;0.00617;0.067181;6.7089e-04;0.006286;-0.06651;0.642008;0.012456;-0.012456;0.016678
1.442328;-4.635365;0.600557;-0.779836;0.054761;-0.055904;0.783753;-2.095273e-04;0.009449;0.039384;0.791436;0.022175;45.094963;1.263525;0.044299;-0.03506;0.039679;135.181458;90.181458;0.052906;0.045921;-2.095273e-04;0.079143;-3.742771e-04;0.009449;-0.079517;0.544653;0.009239;-0.009239;0.012829
1.509493;-4.635365;0.506962;-0.779839;0.054679;-0.055203;0.7837;8.607098e-05;0.00552;0.025376;0.802076;-0.015593;-64.13221;1.246765;0.028324;-0.022718;0.025521;135.059906;90.059906;0.034028;0.029528;8.607098e-05;0.052083;-0.001331;0.00552;-0.053415;0.451759;0.005606;-0.005606;0.009084
-0.236806;-4.70253;0.486502;-0.777868;0.053491;-0.05359;0.781545;-0.032814;-0.003121;0.03673;2.659888;-10.513279;-0.095118;0.375956;0.021649;-0.057585;0.039617;158.518326;113.518326;0.052823;0.047288;-0.032814;0.075213;-0.001753;-0.003121;-0.076966;0.432912;-0.035935;0.035935;0.028377
-0.169641;-4.70253;0.574723;-0.777743;0.053509;-0.053482;0.781414;0.001336;-5.967051e-04;0.034951;0.979077;2.238956;0.446637;1.02137;0.035334;-0.034595;0.034964;133.90239;88.902397;0.046619;0.040374;0.001336;0.069587;3.153562e-04;-5.967051e-04;-0.069271;0.521241;7.392914e-04;-7.392914e-04;0.002694
-0.102475;-4.70253;0.677845;-0.777749;0.05334;-0.054832;0.781502;-0.015288;0.004757;0.015017;1.823532;3.213998;0.311139;0.548386;0.012788;-0.02332;0.018054;163.185104;118.185112;0.024072;0.02114;-0.015288;0.027636;0.002397;0.004757;-0.025239;0.623013;-0.010532;0.010532;0.009761
-0.03531;-4.70253;0.70292;-0.77776;0.05389;-0.05592;0.781627;-0.010937;0.003705;-0.001026;2.915289;2.952299;0.338719;0.343019;0.003776;-0.011009;0.007393;67.379395;22.379398;0.009857;0.00887;-0.010937;-0.00373;0.001677;0.003705;0.005407;0.647;-0.007233;0.007233;0.009916
0.031855;-4.70253;0.768191;-0.778132;0.053744;-0.05562;0.781966;0.009871;0.004477;0.002764;-0.300166;-2.204681;-0.45358;-3.33149;0.011036;0.003313;0.003862;84.589424;39.589424;0.005149;0.006539;0.009871;0.007508;-0.00198;0.004477;-0.009489;0.712571;0.014349;-0.014349;0.009023
0.099021;-4.70253;0.826343;-0.778235;0.053364;-0.051507;0.781761;0.015191;6.447287e-04;0.016378;0.387117;-23.561693;-0.042442;2.583197;0.025838;-0.010002;0.01792;110.247055;65.247055;0.023893;0.021355;0.015191;0.032933;-1.770118e-04;6.447287e-04;-0.03311;0.774835;0.015836;-0.015836;0.010236
0.166186;-4.70253;0.862264;-0.778046;0.053434;-0.051113;0.781551;-0.013074;0.001282;0.016004;2.012743;10.201612;0.098024;0.496834;0.011644;-0.023436;0.01754;158.35701;113.357018;0.023387;0.020631;-0.013074;0.030198;0.001811;0.001282;-0.028387;0.811151;-0.011792;0.011792;0.0104
0.233352;-4.70253;0.895679;-0.778131;0.05389;-0.05905;0.782227;-0.011896;0.005879;0.004596;1.859962;2.023499;0.494194;0.537646;0.006997;-0.013014;0.010006;13.833776;148.833771;0.013341;0.011726;-0.011896;0.006702;0.00249;0.005879;-0.004211;0.836629;-0.006017;0.006017;0.017717
0.300517;-4.70253;0.914689;-0.778458;0.054049;-0.058134;0.782495;0.009439;0.003304;0.001149;-0.320917;-2.856591;-0.350068;-3.116066;0.009648;0.003096;0.003276;60.114677;15.114676;0.004368;0.005688;0.009439;0.002237;6.18921e-05;0.003304;-0.002175;0.856555;0.012744;-0.012744;0.013606
0.367682;-4.70253;0.970275;-0.778394;0.053721;-0.051691;0.781956;4.873094e-04;3.762159e-04;-0.00598;0.865322;-1.295292;-0.772027;1.155639;0.006412;-0.005548;0.00598;139.198517;94.198509;0.007973;0.006911;4.873094e-04;-0.009105;-0.002854;3.762159e-04;0.006251;0.918584;8.635253e-04;-8.635253e-04;0.005697
0.434848;-4.70253;0.980847;-0.778507;0.053768;-0.054117;0.782236;0.003831;-0.001859;-0.004833;0.700914;2.060908;0.485223;1.426708;0.006594;-0.004622;0.005608;155.169403;110.169403;0.007478;0.006509;0.003831;-0.010511;8.448883e-04;-0.001859;0.011355;0.92673;0.001972;-0.001972;0.03257
0.502013;-4.70253;0.985898;-0.778563;0.053761;-0.05022;0.782031;0.003181;0.003394;-0.005848;0.280395;-0.937207;-1.067;3.566403;0.009137;-0.002562;0.005849;144.513092;99.513092;0.007799;0.007101;0.003181;-0.014846;0.00315;0.003394;0.017996;0.935679;0.006575;-0.006575;0.025842
0.569178;-4.70253;1.006201;-0.778617;0.053893;-0.054628;0.782389;-0.012748;0.005108;0.003612;2.314902;2.495882;0.40066;0.431984;0.005811;-0.013451;0.009631;21.831755;156.831757;0.012841;0.011408;-0.012748;0.005338;0.001886;0.005108;-0.003451;0.951573;-0.00764;0.00764;0.021582
0.636344;-4.70253;1.018927;-0.778917;0.053843;-0.058826;0.782989;-0.004379;-0.001806;0.01359;1.585854;-2.424436;-0.412467;0.630575;0.010558;-0.016744;0.013651;146.615204;101.615196;0.018201;0.015897;-0.004379;0.02321;0.003971;-0.001806;-0.01924;0.960101;-0.006186;0.006186;0.019827
0.703509;-4.70253;1.025134;-0.778511;0.054178;-0.070282;0.783552;0.010225;-0.008735;-0.002268;0.857997;1.170575;0.854281;1.165505;0.010492;-0.009002;0.009747;2.140972;137.140976;0.012997;0.011266;0.010225;-0.004597;6.071149e-05;-0.008735;0.004658;0.954852;0.00149;-0.00149;0.013614
0.770674;-4.70253;0.982881;-0.778456;0.054205;-0.064303;0.782986;-0.022757;-0.006602;-0.014111;19.582876;-3.446884;-0.290117;0.051065;0.00158;-0.030939;0.016259;92.151909;47.151913;0.021679;0.021172;-0.022757;-0.024047;-0.004176;-0.006602;0.019871;0.918578;-0.029359;0.029359;0.020581
0.83784;-4.70253;0.955309;-0.778834;0.054001;-0.056755;0.782764;-0.011035;-0.003968;-0.005998;-26.817301;-2.781371;-0.359535;-0.037289;-5.3933e-04;-0.014463;0.006962;96.339172;51.339169;0.009283;0.009468;-0.011035;-0.013038;0.001041;-0.003968;0.014079;0.898554;-0.015003;0.015003;0.01711
0.905005;-4.70253;0.965558;-0.779073;0.054345;-0.055382;0.782927;-7.102303e-05;-6.133573e-04;2.866109e-05;-8.845419;-0.115794;-8.636034;-0.113053;-6.951257e-05;-6.148678e-04;2.726776e-04;178.948853;133.948853;3.635701e-04;3.888178e-04;-7.102303e-05;-0.002365;0.002422;-6.133573e-04;0.004787;0.910176;-6.843804e-04;6.843804e-04;0.014245
0.97217;-4.70253;0.957523;-0.778769;0.05425;-0.059639;0.782931;0.017469;-0.001505;-9.976234e-04;0.088868;11.609109;0.086139;11.252701;0.017521;-0.001557;0.009539;42.022587;177.022583;0.012719;0.012233;0.017469;-9.909086e-04;-0.001004;-0.001505;-1.342958e-05;0.897885;0.015964;-0.015964;0.031118
1.039336;-4.70253;0.922375;-0.778846;0.054201;-0.063641;0.783319;0.002308;0.001689;-0.00559;0.473866;-1.366709;-0.731684;2.110303;0.007597;-0.0036;0.005598;143.831223;98.831223;0.007464;0.0066;0.002308;-0.013321;0.002142;0.001689;0.015464;0.858734;0.003997;-0.003997;0.035673
1.106501;-4.70253;0.89614;-0.779306;0.05461;-0.060748;0.783575;-0.021016;0.007001;-0.010199;2.358025;3.001995;0.333112;0.424084;0.01032;-0.024335;0.017328;94.401764;49.40176;0.023104;0.020547;-0.021016;-0.023803;0.003404;0.007001;0.027207;0.835392;-0.014015;0.014015;0.048894
1.173667;-4.70253;0.866285;-0.779642;0.054842;-0.055212;0.783516;-0.004891;0.005128;-0.022052;0.989586;0.953834;1.048401;1.010523;0.022733;-0.022496;0.022614;128.764633;83.764641;0.030152;0.026113;-0.004891;-0.042771;-0.001334;0.005128;0.041437;0.811073;2.367293e-04;-2.367293e-04;0.062353
1.240832;-4.70253;0.804909;-0.779436;0.054545;-0.058301;0.783514;0.011067;0.004739;-0.01387;0.285743;-2.335313;-0.428208;3.499648;0.02213;-0.006323;0.014227;158.250305;113.250298;0.018969;0.017252;0.011067;-0.025743;-0.001998;0.004739;0.023745;0.746608;0.015806;-0.015806;0.037819
1.307997;-4.70253;0.74933;-0.77923;0.054403;-0.056217;0.783147;-0.008373;0.003817;-0.005505;1.767726;2.193796;0.455831;0.565699;0.005935;-0.010491;0.008213;100.376213;55.376209;0.01095;0.009604;-0.008373;-0.011337;3.268267e-04;0.003817;0.011664;0.693113;-0.004556;0.004556;0.020856
1.375163;-4.70253;0.714017;-0.779219;0.054301;-0.051223;0.782787;0.003196;0.002748;-0.00854;0.483812;-1.162942;-0.859888;2.066918;0.011515;-0.005571;0.008543;144.065308;99.0653;0.011391;0.010062;0.003196;-0.018491;0.001411;0.002748;0.019902;0.662794;0.005944;-0.005944;0.018744
1.442328;-4.70253;0.637374;-0.779649;0.054492;-0.053404;0.783373;0.020956;0.001913;-0.02202;0.354441;-10.95266;-0.091302;2.821346;0.035425;-0.012556;0.02399;160.25618;115.256187;0.031987;0.028732;0.020956;-0.044337;2.96202e-04;0.001913;0.044633;0.58397;0.022869;-0.022869;0.009012
1.509493;-4.70253;0.516652;-0.779982;0.054547;-0.059231;0.784127;0.021859;0.001497;-0.028278;0.440351;-14.603989;-0.068474;2.270917;0.041733;-0.018377;0.030055;156.334305;111.334312;0.040074;0.035567;0.021859;-0.055967;-5.893871e-04;0.001497;0.055378;0.457421;0.023356;-0.023356;0.006522
-0.236806;-4.769695;0.513629;-0.77802;0.05323;-0.059435;0.7821;-0.021577;6.102191e-04;0.007862;7.734513;35.359688;0.028281;0.129291;0.003113;-0.02408;0.013597;10.554601;145.554596;0.018129;0.017186;-0.021577;0.014818;9.048954e-04;6.102191e-04;-0.013913;0.454194;-0.020967;0.020967;0.019819
-0.169641;-4.769695;0.594953;-0.777845;0.053308;-0.062196;0.782146;0.005359;2.591765e-04;0.012673;0.642993;-20.6752;-0.048367;1.555227;0.015736;-0.010118;0.012927;123.334328;78.334328;0.017236;0.015043;0.005359;0.025938;-5.923179e-04;2.591765e-04;-0.02653;0.532757;0.005618;-0.005618;0.015692
-0.102475;-4.769695;0.650924;-0.778042;0.053184;-0.054751;0.781778;0.018854;0.002134;0.00252;-0.091653;-8.836377;-0.113169;-10.910673;0.019225;0.001762;0.008732;59.534264;14.534264;0.011642;0.012272;0.018854;0.004807;2.33428e-04;0.002134;-0.004573;0.596174;0.020987;-0.020987;0.020974
-0.03531;-4.769695;0.697277;-0.777943;0.053398;-0.057119;0.781863;-7.8912e-04;0.00748;-0.010941;0.55518;0.105502;9.478498;1.801218;0.015041;-0.00835;0.011696;133.067017;88.067017;0.015594;0.013688;-7.8912e-04;-0.021996;1.148386e-04;0.00748;0.022111;0.640158;0.006691;-0.006691;0.036034
0.031855;-4.769695;0.776735;-0.778155;0.053157;-0.057742;0.782103;-0.013631;0.004445;-0.003491;2.802419;3.066263;0.32613;0.356835;0.005096;-0.014281;0.009689;74.808098;29.8081;0.012918;0.011599;-0.013631;-0.007144;1.619953e-04;0.004445;0.007306;0.718993;-0.009185;0.009185;0.039788
0.099021;-4.769695;0.829723;-0.778167;0.053404;-0.061025;0.782381;-0.006094;0.001737;0.016786;1.289329;3.508171;0.285049;0.775598;0.015058;-0.019415;0.017236;145.61116;100.611153;0.022982;0.019956;-0.006094;0.032106;0.001466;0.001737;-0.03064;0.768698;-0.004357;0.004357;0.012715
0.166186;-4.769695;0.875136;-0.778172;0.053505;-0.058905;0.782231;0.010314;-5.818558e-04;0.014687;0.525972;17.725777;0.056415;1.901242;0.02053;-0.010798;0.015664;116.384583;71.384583;0.020886;0.018376;0.010314;0.030724;-0.001351;-5.818558e-04;-0.032074;0.816231;0.009732;-0.009732;3.702318e-04
0.233352;-4.769695;0.898062;-0.778252;0.053339;-0.05507;0.782019;0.006046;0.004436;-8.777169e-04;-0.62965;-1.363014;-0.733668;-1.588183;0.006432;0.00405;0.001191;7.327142;142.327148;0.001588;0.003755;0.006046;-0.00365;0.001895;0.004436;0.005545;0.842992;0.010482;-0.010482;0.028205
0.300517;-4.769695;0.915464;-0.778487;0.053849;-0.053289;0.782164;0.005477;0.005689;-0.006139;0.047521;-0.962738;-1.038704;21.043257;0.011723;-5.570723e-04;0.00614;151.50943;106.50943;0.008186;0.008007;0.005477;-0.014413;0.002135;0.005689;0.016549;0.862175;0.011166;-0.011166;0.008016
0.367682;-4.769695;0.947972;-0.778359;0.053561;-0.055515;0.782172;0.006651;0.001538;-0.004201;0.091386;-4.325089;-0.231209;10.942553;0.009013;-8.236246e-04;0.004918;175.487045;130.487045;0.006557;0.006301;0.006651;-0.00768;-7.230553e-04;0.001538;0.006957;0.892457;0.008189;-0.008189;0.011628
0.434848;-4.769695;0.949639;-0.778427;0.053566;-0.051713;0.781979;0.007836;8.223581e-04;-0.002093;-0.029161;-9.528743;-0.104946;-34.292431;0.008413;2.45333e-04;0.004084;16.043165;151.043167;0.005445;0.005529;0.007836;-0.004307;1.211083e-04;8.223581e-04;0.004428;0.897926;0.008658;-0.008658;0.043116
0.502013;-4.769695;0.976129;-0.778424;0.05365;-0.046871;0.781677;-0.002396;9.162821e-04;-0.004828;1.339051;2.614797;0.382439;0.746798;0.004364;-0.005844;0.005104;120.083961;75.083961;0.006805;0.005914;-0.002396;-0.00867;-9.850925e-04;9.162821e-04;0.007685;0.929258;-0.00148;0.00148;0.024676
0.569178;-4.769695;1.017553;-0.77869;0.05371;-0.051038;0.782207;-0.022116;0.001421;-0.004101;10.785897;15.567607;0.064236;0.092714;0.002115;-0.02281;0.012462;66.24852;21.248524;0.016616;0.015958;-0.022116;-0.008554;3.516317e-04;0.001421;0.008906;0.966515;-0.020695;0.020695;0.015437
0.636344;-4.769695;1.030561;-0.77895;0.053692;-0.054987;0.782732;-0.004936;0.002609;8.782508e-04;1.858724;1.891931;0.52856;0.538003;0.00271;-0.005037;0.003873;64.121117;19.121115;0.005164;0.004539;-0.004936;-5.764887e-04;0.002333;0.002609;0.002909;0.975573;-0.002327;0.002327;0.017079
0.703509;-4.769695;1.025547;-0.778398;0.053954;-0.063401;0.782837;0.014741;0.005636;0.0089;-0.009509;-2.615614;-0.382319;-105.160599;0.020185;1.919412e-04;0.009996;92.447601;47.447601;0.013328;0.013393;0.014741;0.015263;0.002536;0.005636;-0.012726;0.962146;0.020377;-0.020377;0.007228
0.770674;-4.769695;1.002903;-0.778307;0.054209;-0.06228;0.782675;-0.010902;0.003937;6.148026e-04;2.757933;2.769288;0.361104;0.36259;0.003962;-0.010927;0.007445;42.738159;177.738159;0.009926;0.008904;-0.010902;6.018358e-04;6.277694e-04;0.003937;2.593359e-05;0.940623;-0.006965;0.006965;0.01951
0.83784;-4.769695;0.989131;-0.778752;0.054133;-0.059223;0.782874;-0.014463;-9.884816e-04;-0.008231;6.307556;-14.631485;-0.068346;0.15854;0.002911;-0.018363;0.010637;96.229584;51.229584;0.014183;0.013319;-0.014463;-0.018035;0.001572;-9.884816e-04;0.019607;0.929908;-0.015451;0.015451;0.01602
0.905005;-4.769695;0.973924;-0.778972;0.054413;-0.051336;0.782556;-0.013383;0.005916;6.975912e-04;2.256658;2.262007;0.442085;0.443133;0.005942;-0.013408;0.009675;59.210796;14.210798;0.0129;0.011445;-0.013383;-0.001686;0.003081;0.005916;0.004767;0.922589;-0.007466;0.007466;0.01423
0.97217;-4.769695;0.944522;-0.779101;0.054392;-0.052462;0.782757;0.015375;0.002453;0.019179;0.388448;-6.269175;-0.159511;2.574347;0.029152;-0.011324;0.020238;112.100517;67.100517;0.026984;0.024113;0.015375;0.036538;0.001819;0.002453;-0.034719;0.89206;0.017828;-0.017828;0.027311
1.039336;-4.769695;0.902473;-0.779087;0.054433;-0.057405;0.783093;0.021478;0.001022;0.017943;0.294765;-21.020899;-0.047572;3.392535;0.031903;-0.009404;0.020654;103.206329;58.206329;0.027538;0.025;0.021478;0.034682;0.001204;0.001022;-0.033478;0.845068;0.022499;-0.022499;0.027851
1.106501;-4.769695;0.88354;-0.779392;0.054318;-0.06283;0.783805;-0.003089;0.00536;0.005695;0.723922;0.576276;1.735278;1.381365;0.008227;-0.005956;0.007091;147.459335;102.459343;0.009455;0.008223;-0.003089;0.011205;1.862939e-04;0.00536;-0.011018;0.82071;0.002271;-0.002271;0.030817
1.173667;-4.769695;0.870338;-0.779411;0.054524;-0.058231;0.783483;-0.011669;0.006219;0.001333;1.862478;1.876186;0.532996;0.536919;0.006318;-0.011768;0.009043;27.944328;162.944321;0.012057;0.010599;-0.011669;0.002641;2.614851e-05;0.006219;-0.002615;0.812108;-0.005449;0.005449;0.051981
1.240832;-4.769695;0.801748;-0.779423;0.054386;-0.056641;0.783368;0.001602;0.004326;4.858248e-04;-0.344203;-0.370322;-2.700355;-2.905264;0.00441;0.001518;0.001446;138.959671;93.959663;0.001928;0.002587;0.001602;0.002032;-0.00106;0.004326;-0.003093;0.745107;0.005928;-0.005928;0.0225
1.307997;-4.769695;0.747416;-0.779423;0.054283;-0.058088;0.783467;-0.002133;0.002036;-0.00231;1.031756;1.047775;0.954404;0.969221;0.003063;-0.00316;0.003111;113.353607;68.353607;0.004148;0.003593;-0.002133;-0.004575;-4.47044e-05;0.002036;0.00453;0.689328;-9.725438e-05;9.725438e-05;0.011318
1.375163;-4.769695;0.701047;-0.779208;0.054384;-0.058056;0.783258;0.018361;0.002212;-0.012097;0.171478;-8.300324;-0.120477;5.831668;0.024831;-0.004258;0.014544;171.250748;126.250748;0.019393;0.018141;0.018361;-0.0249;7.056323e-04;0.002212;0.025606;0.64299;0.020573;-0.020573;0.028448
1.442328;-4.769695;0.606136;-0.779396;0.054476;-0.064471;0.783953;0.013971;0.001918;-0.010576;0.210168;-7.28591;-0.137251;4.758109;0.020117;-0.004228;0.012172;167.857376;122.857384;0.01623;0.01502;0.013971;-0.021495;3.443489e-04;0.001918;0.02184;0.541665;0.015889;-0.015889;0.044396
1.509493;-4.769695;0.514305;-0.779564;0.054447;-0.06376;0.78406;-0.008403;1.913498e-04;0.010267;2.169101;43.913906;0.022772;0.46102;0.007024;-0.015235;0.01113;157.516312;112.516312;0.014839;0.01314;-0.008403;0.020267;2.65919e-04;1.913498e-04;-0.020001;0.450545;-0.008212;0.008212;0.039198
-0.236806;-4.836861;0.528259;-0.777803;0.053136;-0.054666;0.78153;-0.032127;0.003597;-0.00745;6.606105;8.930401;0.111977;0.151375;0.005089;-0.033618;0.019354;72.928406;27.928406;0.025805;0.024287;-0.032127;-0.01679;0.00189;0.003597;0.01868;0.473594;-0.028529;0.028529;0.019819
-0.169641;-4.836861;0.592853;-0.77771;0.053274;-0.060736;0.781895;-0.002256;0.002118;-0.002492;1.042574;1.065254;0.938743;0.959164;0.003246;-0.003385;0.003316;113.783821;68.783821;0.004421;0.003829;-0.002256;-0.005915;9.313441e-04;0.002118;0.006846;0.532116;-1.382128e-04;1.382128e-04;0.018012
-0.102475;-4.836861;0.658036;-0.777886;0.053273;-0.056039;0.781719;0.032839;-2.820159e-04;0.003367;0.018713;116.44487;0.008588;53.437813;0.033178;-6.208744e-04;0.0169;57.940449;12.940451;0.022533;0.022329;0.032839;0.007543;-8.087117e-04;-2.820159e-04;-0.008352;0.601996;0.032557;-0.032557;0.00716
-0.03531;-4.836861;0.73516;-0.777942;0.053022;-0.049439;0.781313;0.015649;0.002229;-0.005675;-0.008497;-7.020989;-0.14243;-117.685341;0.017728;1.506365e-04;0.008789;11.971173;146.971176;0.011718;0.011769;0.015649;-0.010003;-0.001348;0.002229;0.008656;0.685722;0.017878;-0.017878;0.012405
0.031855;-4.836861;0.791352;-0.778069;0.053034;-0.050962;0.781537;-0.028681;0.006938;-0.005837;3.762889;4.134153;0.241887;0.265753;0.00787;-0.029613;0.018741;75.920517;30.920517;0.024988;0.022822;-0.028681;-0.016224;0.00455;0.006938;0.020774;0.740391;-0.021743;0.021743;0.031942
0.099021;-4.836861;0.802163;-0.777786;0.053625;-0.063603;0.782223;-0.020913;0.001722;-0.005363;7.553587;12.14663;0.082327;0.132387;0.002928;-0.022119;0.012524;74.828819;29.828821;0.016698;0.015813;-0.020913;-0.011909;0.001182;0.001722;0.013091;0.73856;-0.019191;0.019191;0.013874
0.166186;-4.836861;0.879458;-0.778057;0.053421;-0.06129;0.782293;0.018872;0.002816;-0.001328;-0.142639;-6.700555;-0.149241;-7.010689;0.018981;0.002707;0.008137;41.413872;176.413864;0.010849;0.011855;0.018872;-9.075425e-04;-0.001748;0.002816;-8.400966e-04;0.818167;0.021688;-0.021688;0.00834
0.233352;-4.836861;0.917926;-0.778278;0.053115;-0.05605;0.782099;0.018563;0.00209;1.841764e-04;-0.112473;-8.881245;-0.112597;-8.890987;0.018565;0.002088;0.008238;42.537655;177.537659;0.010985;0.011743;0.018563;-9.386836e-04;0.001307;0.00209;0.002246;0.861876;0.020653;-0.020653;0.017664
0.300517;-4.836861;0.92808;-0.778439;0.053628;-0.051792;0.782001;0.00786;0.004202;-0.001231;-0.464696;-1.870318;-0.534669;-2.151944;0.008235;0.003827;0.002204;15.357296;150.3573;0.002939;0.004759;0.00786;-0.004088;0.001627;0.004202;0.005714;0.876288;0.012062;-0.012062;0.004235
0.367682;-4.836861;0.962629;-0.778257;0.053524;-0.052056;0.78183;0.006434;0.005648;-0.005094;-0.083638;-1.139136;-0.877858;-11.956234;0.01115;9.325807e-04;0.005109;164.908203;119.908203;0.006812;0.007143;0.006434;-0.009261;-9.267819e-04;0.005648;0.008334;0.910573;0.012083;-0.012083;0.039666
0.434848;-4.836861;0.980561;-0.778483;0.053597;-0.04855;0.781835;0.002816;0.002159;-0.001366;-0.278222;-1.304068;-0.766831;-3.594254;0.003892;0.001083;0.001405;168.583374;123.583374;0.001873;0.00232;0.002816;-0.003197;4.648303e-04;0.002159;0.003661;0.932011;0.004975;-0.004975;0.04851
0.502013;-4.836861;0.975662;-0.778223;0.053501;-0.048031;0.781538;-0.003607;0.006107;0.002743;0.633821;0.590603;1.693185;1.577733;0.006828;-0.004328;0.005578;153.117355;108.117363;0.007437;0.006494;-0.003607;0.005509;-2.439044e-05;0.006107;-0.005534;0.927631;0.0025;-0.0025;0.02521
0.569178;-4.836861;1.000847;-0.778369;0.053592;-0.05125;0.781893;-0.021173;0.013042;7.583581e-04;1.622594;1.623396;0.615992;0.616297;0.013059;-0.02119;0.017124;45.00943;0.009429;0.022833;0.019958;-0.021173;5.768092e-04;9.39907e-04;0.013042;3.630978e-04;0.949597;-0.008131;0.008131;0.021499
0.636344;-4.836861;1.024032;-0.778802;0.053769;-0.0573;0.782756;-0.011011;0.006928;-0.004085;1.52262;1.589476;0.629138;0.656763;0.007814;-0.011898;0.009856;90.373444;45.373444;0.013141;0.011462;-0.011011;-0.008728;5.588609e-04;0.006928;0.009287;0.966732;-0.004084;0.004084;0.039335
0.703509;-4.836861;1.025371;-0.778737;0.053643;-0.059329;0.782834;0.005867;0.002835;0.00125;-0.377795;-2.06919;-0.483281;-2.64694;0.006316;0.002386;0.001965;68.046577;23.046574;0.00262;0.003683;0.005867;0.001752;7.489587e-04;0.002835;-0.001003;0.966042;0.008702;-0.008702;0.001912
0.770674;-4.836861;0.996231;-0.778733;0.05375;-0.063821;0.783191;0.001412;0.006604;0.004986;0.167565;-0.21376;-4.678136;5.96783;0.009629;-0.001613;0.005621;122.729065;77.729065;0.007495;0.007019;0.001412;0.008112;0.00186;0.006604;-0.006252;0.93241;0.008015;-0.008015;0.025229
0.83784;-4.836861;0.990683;-0.778629;0.053806;-0.064062;0.78311;-0.012649;0.006544;-2.103443e-04;1.93271;1.933039;0.51732;0.517408;0.006546;-0.012651;0.009599;49.652176;4.652174;0.012798;0.011269;-0.012649;-6.420191e-04;2.213305e-04;0.006544;8.633496e-04;0.926621;-0.006105;0.006105;0.026405
0.905005;-4.836861;0.983048;-0.778803;0.053932;-0.050402;0.782293;-0.022024;0.0059;-0.001295;3.705438;3.732923;0.267887;0.269874;0.00596;-0.022084;0.014022;55.016632;10.01663;0.018696;0.01706;-0.022024;-0.003415;8.249662e-04;0.0059;0.00424;0.932646;-0.016124;0.016124;0.012981
0.97217;-4.836861;0.947454;-0.779153;0.054065;-0.047382;0.782462;0.006092;0.004109;-0.003278;-0.196627;-1.482657;-0.674465;-5.085773;0.008525;0.001676;0.003424;172.805557;127.805557;0.004566;0.005215;0.006092;-0.00637;-1.860025e-04;0.004109;0.006184;0.900072;0.010202;-0.010202;0.004799
1.039336;-4.836861;0.913345;-0.77899;0.054132;-0.050732;0.782514;0.016214;0.007187;0.005187;-0.259739;-2.255864;-0.443289;-3.850024;0.018576;0.004825;0.006876;80.089302;35.089306;0.009167;0.01113;0.016214;0.009726;6.475264e-04;0.007187;-0.009079;0.862612;0.023401;-0.023401;0.023987
1.106501;-4.836861;0.898215;-0.779187;0.053911;-0.056131;0.783064;0.003007;0.012632;0.007291;0.055333;-0.238072;-4.200412;18.072363;0.016555;-9.160583e-04;0.008736;126.678246;81.678246;0.011648;0.011355;0.003007;0.013836;7.456995e-04;0.012632;-0.01309;0.842084;0.015639;-0.015639;0.027701
1.173667;-4.836861;0.870006;-0.779013;0.053863;-0.05531;0.782829;-0.001586;0.006795;0.011659;0.65259;0.233415;4.284206;1.532356;0.014993;-0.009785;0.012389;138.166458;93.166458;0.016519;0.01441;-0.001586;0.02256;7.576059e-04;0.006795;-0.021802;0.814696;0.005209;-0.005209;0.007267
1.240832;-4.836861;0.810025;-0.77911;0.054091;-0.056751;0.783045;0.008805;0.003987;0.003008;-0.247995;-2.208486;-0.452799;-4.032341;0.01025;0.002542;0.003854;82.883636;37.883636;0.005139;0.006163;0.008805;0.005917;9.954835e-05;0.003987;-0.005818;0.753275;0.012792;-0.012792;0.003942
1.307997;-4.836861;0.760987;-0.779233;0.054061;-0.056469;0.783144;0.00221;0.003212;-0.002382;-0.053788;-0.688259;-1.452941;-18.591572;0.005145;2.767601e-04;0.002434;149.624283;104.624283;0.003246;0.003342;0.00221;-0.005488;7.237439e-04;0.003212;0.006212;0.704518;0.005422;-0.005422;0.036037
1.375163;-4.836861;0.705036;-0.77916;0.05427;-0.056051;0.783057;0.018665;0.002207;-2.532975e-04;-0.118016;-8.456691;-0.11825;-8.473419;0.018669;0.002203;0.008233;38.939117;173.939117;0.010977;0.011781;0.018665;-0.002161;0.001654;0.002207;0.003815;0.648985;0.020872;-0.020872;0.046948
1.442328;-4.836861;0.607794;-0.779381;0.05436;-0.061064;0.783657;-0.011217;0.001364;0.010266;2.385136;8.225769;0.121569;0.419263;0.007114;-0.016967;0.01204;163.873535;118.873543;0.016054;0.014286;-0.011217;0.020256;2.766876e-04;0.001364;-0.019979;0.546731;-0.009853;0.009853;0.039092
1.509493;-4.836861;0.503952;-0.779536;0.054316;-0.050909;0.783082;-0.057108;0.001829;0.024121;6.293454;31.21706;0.032034;0.158895;0.010443;-0.065721;0.038082;4.525938;139.52594;0.050776;0.047678;-0.057108;0.048701;-4.577773e-04;0.001829;-0.049158;0.453043;-0.055278;0.055278;0.011559
-0.236806;-4.904026;0.521865;-0.777488;0.052751;-0.056626;0.78133;-0.014648;0.011121;0.017003;1.180208;1.317111;0.759237;0.847308;0.01957;-0.023096;0.021333;156.734253;111.734245;0.028444;0.024661;-0.014648;0.032938;0.001067;0.011121;-0.031871;0.465239;-0.003527;0.003527;0.017466
-0.169641;-4.904026;0.59166;-0.777393;0.052995;-0.060015;0.781505;-0.003445;0.00623;0.005615;0.683668;0.552985;1.808366;1.462698;0.008804;-0.006019;0.007411;146.556122;101.556122;0.009882;0.008608;-0.003445;0.009995;0.001235;0.00623;-0.00876;0.531644;0.002785;-0.002785;0.004323
-0.102475;-4.904026;0.660729;-0.777583;0.053202;-0.059992;0.781707;0.023875;0.004915;0.005115;-0.143978;-4.85726;-0.205877;-6.945529;0.025167;0.003623;0.010772;68.933334;23.933332;0.014362;0.01571;0.023875;0.010217;1.239588e-05;0.004915;-0.010205;0.600737;0.02879;-0.02879;0.008147
-0.03531;-4.904026;0.747975;-0.777892;0.053085;-0.054109;0.781577;0.018111;0.00411;0.01307;0.143285;-4.406835;-0.22692;6.97911;0.025938;-0.003716;0.014827;101.859673;56.859676;0.01977;0.018655;0.018111;0.027237;-0.001097;0.00411;-0.028334;0.693866;0.022221;-0.022221;0.010974
0.031855;-4.904026;0.80391;-0.778017;0.052929;-0.052636;0.78159;-0.018219;0.001305;0.007889;5.13093;13.959496;0.071636;0.194896;0.004094;-0.021008;0.012551;4.867768;139.867767;0.016735;0.015551;-0.018219;0.015324;4.540332e-04;0.001305;-0.01487;0.751274;-0.016914;0.016914;0.019317
0.099021;-4.904026;0.810328;-0.777815;0.053135;-0.058454;0.781816;-0.015109;0.010356;-0.002338;1.449628;1.458873;0.685461;0.689832;0.010569;-0.015321;0.012945;78.563721;33.563717;0.01726;0.015032;-0.015109;-0.005958;0.001282;0.010356;0.00724;0.751873;-0.004752;0.004752;0.003096
0.166186;-4.904026;0.867454;-0.778091;0.053017;-0.058971;0.782121;0.007817;0.004833;-0.0113;0.286239;-1.617298;-0.618315;3.493581;0.017723;-0.005073;0.011398;153.966064;108.966064;0.015197;0.01382;0.007817;-0.022075;-5.243054e-04;0.004833;0.021551;0.808483;0.01265;-0.01265;0.017227
0.233352;-4.904026;0.921513;-0.778407;0.053123;-0.056929;0.782291;0.013548;0.002007;-8.633839e-05;-0.148103;-6.749574;-0.148157;-6.752069;0.013549;0.002007;0.005771;38.647442;173.647446;0.007695;0.008443;0.013548;-0.001718;0.001545;0.002007;0.003263;0.864584;0.015555;-0.015555;0.020975
0.300517;-4.904026;0.930078;-0.778546;0.053272;-0.052513;0.782132;0.010456;0.002739;0.002399;-0.184337;-3.817921;-0.261923;-5.42485;0.011141;0.002054;0.004544;68.779686;23.779688;0.006058;0.006846;0.010456;0.004252;5.459683e-04;0.002739;-0.003706;0.877565;0.013195;-0.013195;0.001561
0.367682;-4.904026;0.956353;-0.77823;0.053116;-0.051068;0.78171;0.007711;0.004635;0.002371;-0.371919;-1.663525;-0.601133;-2.688756;0.008999;0.003347;0.002826;84.975143;39.975147;0.003768;0.005252;0.007711;0.004981;-2.386234e-04;0.004635;-0.00522;0.905285;0.012346;-0.012346;0.019785
0.434848;-4.904026;0.98458;-0.778518;0.053281;-0.050415;0.781966;-0.001091;0.005863;3.283979e-04;0.188243;0.1861;5.373449;5.312296;0.005879;-0.001107;0.003493;139.61676;94.61676;0.004657;0.004335;-0.001091;9.511849e-04;-2.943891e-04;0.005863;-0.001246;0.934165;0.004772;-0.004772;0.047862
0.502013;-4.904026;0.95479;-0.77837;0.053335;-0.054322;0.782084;-0.002659;0.00617;2.451711e-05;0.430988;0.430981;2.320285;2.320251;0.00617;-0.002659;0.004415;136.35733;91.357323;0.005886;0.00523;-0.002659;1.175248e-04;-6.849061e-05;0.00617;-1.860154e-04;0.900468;0.003511;-0.003511;0.030482
0.569178;-4.904026;0.981613;-0.778404;0.053448;-0.056617;0.782289;-0.013003;0.003826;0.001839;3.280089;3.398463;0.294251;0.30487;0.004025;-0.013201;0.008613;40.151474;175.151474;0.011484;0.010405;-0.013003;0.001628;0.00205;0.003826;4.218318e-04;0.924996;-0.009177;0.009177;0.011673
0.636344;-4.904026;0.99627;-0.778361;0.053589;-0.060731;0.782563;-0.008221;0.002378;-0.003831;2.615304;3.457428;0.289232;0.382365;0.003617;-0.009461;0.006539;93.24073;48.24073;0.008719;0.007798;-0.008221;-0.00902;0.001358;0.002378;0.010378;0.935539;-0.005843;0.005843;0.031087
0.703509;-4.904026;1.031526;-0.778566;0.0535;-0.059233;0.782647;-0.004189;-6.12323e-04;-0.002478;8.328122;-6.840862;-0.14618;0.120075;6.551666e-04;-0.005456;0.003056;98.869514;53.869511;0.004074;0.003874;-0.004189;-0.005729;7.730823e-04;-6.12323e-04;0.006502;0.972293;-0.004801;0.004801;0.001412
0.770674;-4.904026;1.017224;-0.778915;0.053532;-0.059761;0.783036;-0.0034;-0.002534;0.005802;3.081073;-1.34192;-0.745201;0.324562;0.002851;-0.008784;0.005818;156.884064;111.884064;0.007757;0.007003;-0.0034;0.009401;0.002203;-0.002534;-0.007198;0.957463;-0.005933;0.005933;0.021491
0.83784;-4.904026;0.995027;-0.778757;0.053405;-0.055875;0.782584;-0.006448;0.002674;0.003263;2.01394;2.411;0.414766;0.496539;0.003722;-0.007495;0.005608;26.100883;161.100891;0.007478;0.006597;-0.006448;0.003336;0.00319;0.002674;-1.459154e-04;0.939152;-0.003773;0.003773;0.005909
0.905005;-4.904026;0.973542;-0.778679;0.053578;-0.051113;0.782192;-0.002944;7.201611e-04;-0.002819;1.988092;4.08774;0.244634;0.502995;0.00225;-0.004474;0.003362;111.793121;66.793121;0.004483;0.003953;-0.002944;-0.007487;0.001848;7.201611e-04;0.009335;0.922429;-0.002224;0.002224;0.017755
0.97217;-4.904026;0.959216;-0.77873;0.053636;-0.057138;0.782664;0.003793;-0.005983;-0.01366;1.163306;0.633899;1.577538;0.859619;0.013413;-0.015603;0.014508;143.10556;98.105553;0.019344;0.016768;0.003793;-0.031682;0.004363;-0.005983;0.036046;0.902078;-0.00219;0.00219;0.012524
1.039336;-4.904026;0.943381;-0.778683;0.053648;-0.055095;0.782471;-0.003853;0.002832;-0.00885;1.114161;1.360772;0.734877;0.897536;0.008949;-0.009971;0.00946;123.484589;78.484589;0.012613;0.010929;-0.003853;-0.021358;0.003658;0.002832;0.025016;0.888286;-0.001022;0.001022;0.034194
1.106501;-4.904026;0.911839;-0.779018;0.053947;-0.054909;0.782812;-0.00355;0.003475;-0.002743;1.017044;1.021676;0.978784;0.983242;0.004419;-0.004494;0.004457;108.715675;63.715672;0.005942;0.005146;-0.00355;-0.006607;0.001121;0.003475;0.007729;0.85693;-7.531582e-05;7.531582e-05;0.052969
1.173667;-4.904026;0.873254;-0.779023;0.053804;-0.051225;0.782557;0.005643;0.002975;-0.001741;-0.325395;-1.896434;-0.527306;-3.073185;0.006502;0.002116;0.002193;8.8428;143.842804;0.002924;0.00383;0.005643;-0.00329;-1.928713e-04;0.002975;0.003097;0.822029;0.008618;-0.008618;0.025771
1.240832;-4.904026;0.801344;-0.779031;0.053968;-0.055938;0.782899;0.019725;0.004326;-0.002164;-0.201161;-4.559287;-0.219333;-4.971153;0.020024;0.004028;0.007998;33.236572;168.236572;0.010664;0.01223;0.019725;-0.003817;-5.114381e-04;0.004326;0.003306;0.745405;0.024052;-0.024052;0.010726
1.307997;-4.904026;0.757105;-0.779258;0.053756;-0.059929;0.783405;0.004127;0.00491;-8.622608e-04;-0.653488;-0.840615;-1.189605;-1.530249;0.005465;0.003571;9.468763e-04;156.361176;111.361176;0.001263;0.003205;0.004127;-0.002768;0.001044;0.00491;0.003812;0.697176;0.009037;-0.009037;0.019177
1.375163;-4.904026;0.700298;-0.779146;0.054099;-0.058645;0.783221;0.015415;0.00355;-0.001437;-0.216772;-4.341719;-0.230324;-4.613136;0.015587;0.003379;0.006104;26.945387;161.945389;0.008139;0.009468;0.015415;-0.005363;0.002488;0.00355;0.007851;0.641654;0.018965;-0.018965;0.027259
1.442328;-4.904026;0.602809;-0.779347;0.054373;-0.062593;0.783745;-0.017798;0.003615;-0.00399;4.272238;4.923308;0.203115;0.234069;0.004334;-0.018517;0.011426;69.781982;24.781986;0.015234;0.014015;-0.017798;-0.007941;-3.869441e-05;0.003615;0.007902;0.540216;-0.014183;0.014183;0.027881
1.509493;-4.904026;0.508516;-0.779558;0.054113;-0.052767;0.783214;-0.063691;0.0044;-0.007636;12.302093;14.474803;0.069086;0.081287;0.005246;-0.064537;0.034891;56.854988;11.854986;0.046522;0.044875;-0.063691;-0.013435;-0.001837;0.0044;0.011598;0.455749;-0.059291;0.059291;0.024519
-0.236806;-4.971192;0.491491;-0.7774;0.052353;-0.063704;0.781761;0.022505;0.007734;0.009309;-0.119893;-2.909712;-0.343677;-8.340764;0.027002;0.003237;0.011882;82.959694;37.959694;0.015843;0.017025;0.022505;0.016151;0.002467;0.007734;-0.013684;0.427787;0.03024;-0.03024;0.037325
-0.169641;-4.971192;0.572526;-0.777608;0.052572;-0.059808;0.781675;0.015273;0.006067;-0.002553;-0.339354;-2.51719;-0.397268;-2.946779;0.015933;0.005407;0.005263;18.101976;153.101974;0.007017;0.009356;0.015273;-0.007479;0.002374;0.006067;0.009853;0.512718;0.02134;-0.02134;0.04038
-0.102475;-4.971192;0.628646;-0.77761;0.052745;-0.05791;0.781546;0.014383;0.005341;-0.007374;-0.065505;-2.692776;-0.371364;-15.26609;0.018512;0.001213;0.00865;176.259918;131.259918;0.011533;0.011957;0.014383;-0.015358;6.097166e-04;0.005341;0.015968;0.570736;0.019724;-0.019724;0.048276
-0.03531;-4.971192;0.720745;-0.777713;0.052641;-0.055086;0.781437;5.020071e-04;0.00516;0.007542;0.472092;-0.097297;-10.277764;2.118233;0.010724;-0.005063;0.007894;133.099838;88.099838;0.010525;0.009308;5.020071e-04;0.014933;1.520732e-04;0.00516;-0.014781;0.665658;0.005662;-0.005662;0.011191
0.031855;-4.971192;0.82775;-0.778053;0.052641;-0.057048;0.781915;-0.010456;0.003587;0.013791;1.57046;2.914844;0.343071;0.636756;0.012041;-0.01891;0.015475;156.874496;111.874496;0.020634;0.018015;-0.010456;0.025191;0.002391;0.003587;-0.0228;0.770701;-0.006869;0.006869;0.007247
0.099021;-4.971192;0.848523;-0.777812;0.052751;-0.057694;0.78173;0.00829;0.003991;-7.182991e-04;-0.460757;-2.077537;-0.481339;-2.170344;0.008407;0.003874;0.002267;25.345644;160.345642;0.003022;0.004859;0.00829;-0.003055;0.001618;0.003991;0.004674;0.790829;0.012281;-0.012281;0.006667
0.166186;-4.971192;0.869309;-0.777821;0.052942;-0.055234;0.781575;0.006872;0.006599;-0.01426;0.358408;-1.041284;-0.960353;2.79012;0.020997;-0.007525;0.014261;146.197311;101.197311;0.019015;0.017068;0.006872;-0.03106;0.00254;0.006599;0.0336;0.814075;0.013471;-0.013471;0.039004
0.233352;-4.971192;0.91536;-0.778205;0.052981;-0.056435;0.782045;-0.002555;0.004663;-0.009264;0.80831;0.547977;1.824893;1.237149;0.010996;-0.008889;0.009942;127.117867;82.117867;0.013257;0.011502;-0.002555;-0.020167;0.001639;0.004663;0.021806;0.858925;0.002108;-0.002108;0.012823
0.300517;-4.971192;0.939817;-0.778404;0.053219;-0.055276;0.782177;0.002551;0.001023;2.393947e-04;-0.381093;-2.494264;-0.40092;-2.624032;0.002588;9.8613e-04;8.007532e-04;69.242989;24.242989;0.001068;0.001508;0.002551;0.001317;-8.381273e-04;0.001023;-0.002155;0.88454;0.003574;-0.003574;0.001389
0.367682;-4.971192;0.950781;-0.778268;0.052955;-0.053144;0.781876;0.005317;-0.001403;0.00311;0.401131;3.788815;0.263935;2.492952;0.006535;-0.002622;0.004578;101.339478;56.339478;0.006105;0.005445;0.005317;0.008456;-0.002237;-0.001403;-0.010693;0.897637;0.003914;-0.003914;0.022841
0.434848;-4.971192;0.962338;-0.778422;0.053022;-0.049327;0.781783;-0.001718;0.002153;1.820218e-04;0.798965;0.798168;1.25287;1.251619;0.002161;-0.001727;0.001944;92.238983;47.238979;0.002592;0.002249;-0.001718;-0.001069;0.001433;0.002153;0.002502;0.913011;4.344633e-04;-4.344633e-04;0.041398
0.502013;-4.971192;0.957409;-0.778396;0.053132;-0.05316;0.782016;-0.00324;0.002177;0.002922;1.307862;1.48821;0.671948;0.764607;0.003453;-0.004515;0.003984;35.697128;170.697128;0.005312;0.004614;-0.00324;0.002632;0.003211;0.002177;5.785738e-04;0.904249;-0.001063;0.001063;0.023261
0.569178;-4.971192;1.0023;-0.778462;0.053316;-0.053751;0.782135;-0.00248;0.004083;-0.001191;0.626586;0.607435;1.646266;1.59595;0.004293;-0.00269;0.003491;109.038414;64.038414;0.004655;0.004067;-0.00248;-0.003639;0.001257;0.004083;0.004895;0.948549;0.001603;-0.001603;0.029098
0.636344;-4.971192;0.993863;-0.778257;0.053412;-0.056137;0.782105;-0.001821;3.072338e-04;-0.003541;1.514651;5.926482;0.168734;0.660218;0.002941;-0.004455;0.003698;122.548218;77.548218;0.00493;0.0043;-0.001821;-0.008806;0.001723;3.072338e-04;0.010529;0.937727;-0.001514;0.001514;0.035035
0.703509;-4.971192;0.99146;-0.778562;0.053219;-0.057813;0.782517;-0.003347;-6.981682e-04;-0.002741;4.959266;-4.794586;-0.208569;0.201643;0.001022;-0.005067;0.003045;106.35421;61.354206;0.004059;0.003765;-0.003347;-0.006042;5.59365e-04;-6.981682e-04;0.006601;0.933646;-0.004046;0.004046;0.004896
0.770674;-4.971192;0.969542;-0.779128;0.053264;-0.059604;0.783218;-0.004868;0.001327;0.003554;2.202226;3.666898;0.27271;0.454086;0.002945;-0.006485;0.004715;175.145187;130.145187;0.006286;0.005571;-0.004868;0.005723;0.001386;0.001327;-0.004338;0.909938;-0.00354;0.00354;0.013078
0.83784;-4.971192;0.98572;-0.778807;0.053379;-0.053178;0.782444;0.008186;0.001358;0.001961;-0.095941;-6.025673;-0.165957;-10.423048;0.008709;8.355252e-04;0.003937;64.334084;19.334085;0.005249;0.005548;0.008186;0.002699;0.001222;0.001358;-0.001477;0.932542;0.009544;-0.009544;0.004161
0.905005;-4.971192;1.001858;-0.77864;0.053458;-0.054711;0.782388;0.004336;-6.557087e-04;0.001074;0.192412;6.613266;0.151211;5.197175;0.004558;-8.769392e-04;0.002717;47.175182;2.175181;0.003623;0.003369;0.004336;4.427839e-04;0.001705;-6.557087e-04;0.001262;0.947147;0.003681;-0.003681;0.024319
0.97217;-4.971192;0.988184;-0.778855;0.053378;-0.062;0.78314;-0.00678;9.537072e-04;-8.577064e-04;6.561201;7.109215;0.140663;0.152411;0.001048;-0.006874;0.003961;63.517609;18.517609;0.005281;0.004969;-0.00678;-0.002187;4.717028e-04;9.537072e-04;0.002659;0.926185;-0.005826;0.005826;0.006275
1.039336;-4.971192;0.921487;-0.77883;0.05351;-0.053792;0.782517;-0.016244;-1.549858e-04;0.0076;6.719542;-104.808502;-0.009541;0.14882;0.002867;-0.019266;0.011067;8.240843;143.240845;0.014755;0.013899;-0.016244;0.012362;0.002838;-1.549858e-04;-0.009524;0.867695;-0.016399;0.016399;0.003834
1.106501;-4.971192;0.863456;-0.779051;0.053851;-0.057615;0.783033;0.002926;6.39521e-04;0.001331;-0.007968;-4.574861;-0.218586;-125.496101;0.003537;2.818459e-05;0.001754;85.046768;40.046764;0.002339;0.002349;0.002926;0.002392;2.702977e-04;6.39521e-04;-0.002121;0.80584;0.003565;-0.003565;0.052217
1.173667;-4.971192;0.840822;-0.779147;0.053487;-0.054931;0.78291;0.010152;0.001372;-0.006803;0.168489;-7.40079;-0.135121;5.935106;0.013858;-0.002335;0.008097;175.255707;130.255707;0.010796;0.010108;0.010152;-0.01205;-0.001556;0.001372;0.010493;0.785891;0.011523;-0.011523;0.059013
1.240832;-4.971192;0.79372;-0.778984;0.053549;-0.05809;0.78298;0.008658;-5.550512e-05;-0.005766;0.253774;155.98526;0.006411;3.940515;0.011528;-0.002925;0.007227;175.465515;130.465515;0.009636;0.008824;0.008658;-0.010242;-0.001289;-5.550512e-05;0.008953;0.73563;0.008602;-0.008602;0.054157
1.307997;-4.971192;0.770026;-0.779288;0.053253;-0.05651;0.783147;-0.003461;0.003659;0.006031;0.972085;0.945819;1.057284;1.028717;0.007102;-0.006904;0.007003;149.693207;104.693214;0.009337;0.008087;-0.003461;0.010892;0.001169;0.003659;-0.009723;0.713517;1.982528e-04;-1.982528e-04;0.041444
1.375163;-4.971192;0.725139;-0.779184;0.053746;-0.057603;0.783157;0.02125;0.00288;0.008149;0.008803;-7.379564;-0.135509;113.599915;0.024344;-2.142946e-04;0.012279;78.144463;33.144459;0.016372;0.016301;0.02125;0.013701;0.002597;0.00288;-0.011103;0.667536;0.02413;-0.02413;0.038619
1.442328;-4.971192;0.624027;-0.779178;0.053905;-0.061454;0.783454;-0.009679;0.00413;-0.002709;2.19511;2.343336;0.426742;0.455558;0.004643;-0.010191;0.007417;76.30603;31.306032;0.009889;0.008762;-0.009679;-0.005137;-2.805975e-04;0.00413;0.004856;0.562573;-0.005548;0.005548;0.021482
1.509493;-4.971192;0.525266;-0.779251;0.053627;-0.054643;0.783004;-0.052533;0.003245;-0.009062;11.530499;16.188313;0.061773;0.086727;0.004681;-0.053969;0.029325;62.410954;17.410955;0.039099;0.037636;-0.052533;-0.016513;-0.001612;0.003245;0.014901;0.470623;-0.049288;0.049288;0.017905
-0.236806;-5.038357;0.508226;-0.777359;0.051753;-0.061872;0.781532;-0.006177;0.002198;-0.039246;1.106182;2.81075;0.355777;0.904011;0.037479;-0.041459;0.039469;130.485382;85.48539;0.052625;0.045594;-0.006177;-0.078006;-4.865151e-04;0.002198;0.077519;0.446354;-0.00398;0.00398;0.040082
-0.169641;-5.038357;0.583279;-0.77763;0.05211;-0.057129;0.781465;0.01038;0.00521;-0.01446;0.306652;-1.992358;-0.501918;3.261024;0.022485;-0.006895;0.01469;153.135178;108.13517;0.019586;0.01774;0.01038;-0.030347;0.001426;0.00521;0.031773;0.52615;0.01559;-0.01559;0.025526
-0.102475;-5.038357;0.645192;-0.777837;0.052322;-0.054987;0.781532;0.002603;0.003585;-0.001928;-0.21723;-0.726135;-1.377154;-4.603423;0.005083;0.001104;0.00199;152.572678;107.572678;0.002653;0.003087;0.002603;-0.004577;7.209719e-04;0.003585;0.005298;0.590205;0.006188;-0.006188;0.036092
-0.03531;-5.038357;0.741087;-0.777789;0.052444;-0.056815;0.781623;-0.015672;0.003038;0.003826;4.333133;5.158187;0.193867;0.23078;0.00379;-0.016424;0.010107;21.080589;156.080597;0.013476;0.012407;-0.015672;0.006852;7.997745e-04;0.003038;-0.006052;0.684271;-0.012634;0.012634;0.006059
0.031855;-5.038357;0.803307;-0.777903;0.05258;-0.062427;0.782173;-0.002567;0.003023;6.124269e-04;0.852368;0.849131;1.177675;1.173202;0.00309;-0.002633;0.002862;160.525528;115.525536;0.003815;0.003308;-0.002567;0.001068;1.5682e-04;0.003023;-9.112139e-04;0.74088;4.561181e-04;-4.561181e-04;0.021915
0.099021;-5.038357;0.828042;-0.777823;0.05249;-0.057883;0.781738;0.037572;0.00176;-0.008289;0.001654;-21.344767;-0.04685;604.529724;0.039397;-6.517013e-05;0.019731;20.980698;155.980698;0.026308;0.026287;0.037572;-0.016717;1.396946e-04;0.00176;0.016857;0.770159;0.039332;-0.039332;0.016103
0.166186;-5.038357;0.881538;-0.777829;0.052622;-0.049554;0.78118;0.016148;0.009784;-0.014941;0.081785;-1.65039;-0.605917;12.227173;0.028242;-0.00231;0.015276;160.71254;115.712547;0.020368;0.019644;0.016148;-0.030725;8.427161e-04;0.009784;0.031568;0.831984;0.025933;-0.025933;0.013374
0.233352;-5.038357;0.915006;-0.77804;0.052765;-0.050445;0.781457;-0.014658;0.00615;-0.008308;1.939148;2.383546;0.419543;0.51569;0.00906;-0.017568;0.013314;97.859352;52.859352;0.017752;0.015633;-0.014658;-0.018384;0.001769;0.00615;0.020152;0.864561;-0.008508;0.008508;0.003794
0.300517;-5.038357;0.956301;-0.77798;0.05289;-0.055257;0.781731;-0.014107;0.002664;-0.002412;4.808621;5.294619;0.188871;0.20796;0.003004;-0.014447;0.008726;66.451614;21.451618;0.011634;0.010773;-0.014107;-0.005309;4.851158e-04;0.002664;0.005794;0.901043;-0.011443;0.011443;0.009345
0.367682;-5.038357;0.974644;-0.777895;0.052807;-0.059236;0.781933;-0.00106;-5.054668e-04;0.001361;3.581582;-2.096977;-0.476877;0.279206;6.063796e-04;-0.002172;0.001389;153.342072;108.342064;0.001852;0.001687;-0.00106;0.003027;-3.043595e-04;-5.054668e-04;-0.003331;0.915408;-0.001565;0.001565;0.033676
0.434848;-5.038357;0.977987;-0.778137;0.052834;-0.05715;0.78202;-0.0031;-0.004189;3.031362e-04;-1.412451;-0.74008;-1.351206;-0.707989;-0.003022;-0.004268;6.23118e-04;145.545776;100.545776;8.30824e-04;0.002534;-0.0031;8.165349e-04;-2.102625e-04;-0.004189;-0.001027;0.920837;-0.007289;0.007289;0.020347
0.502013;-5.038357;0.978225;-0.778335;0.052793;-0.05972;0.782406;-9.288276e-04;-7.627837e-04;0.001414;3.966789;-1.217681;-0.821233;0.252093;5.701825e-04;-0.002262;0.001416;152.478683;107.478676;0.001888;0.00173;-9.288276e-04;0.002789;3.850347e-05;-7.627837e-04;-0.00275;0.918505;-0.001692;0.001692;0.014911
0.569178;-5.038357;0.978689;-0.778532;0.05304;-0.051651;0.782044;0.0024;0.003872;0.001412;-0.326401;-0.619818;-1.613376;-3.063713;0.004729;0.001543;0.001593;115.103531;70.103531;0.002124;0.002785;0.0024;0.002723;1.017642e-04;0.003872;-0.002621;0.927038;0.006272;-0.006272;0.057682
0.636344;-5.038357;0.978658;-0.778344;0.052826;-0.054532;0.782038;-4.276414e-04;0.003625;-0.001148;0.185964;0.117976;8.476315;5.377383;0.003928;-7.303864e-04;0.002329;145.117966;100.117966;0.003105;0.002893;-4.276414e-04;-0.00141;-8.863641e-04;0.003625;5.238065e-04;0.924126;0.003197;-0.003197;0.063261
0.703509;-5.038357;0.993878;-0.778192;0.052875;-0.057454;0.782099;-0.001038;0.003222;0.001449;0.40462;0.322252;3.103161;2.471455;0.003668;-0.001484;0.002576;101.022636;56.022636;0.003435;0.003063;-0.001038;7.191306e-04;0.002178;0.003222;0.001459;0.936424;0.002184;-0.002184;0.00163
0.770674;-5.038357;0.971106;-0.77865;0.053197;-0.059213;0.782708;-0.004294;0.002004;-0.002573;1.783822;2.142662;0.466709;0.560594;0.002921;-0.005211;0.004066;103.698128;58.698128;0.005422;0.004757;-0.004294;-0.008028;0.002882;0.002004;0.010909;0.911893;-0.00229;0.00229;0.001528
0.83784;-5.038357;0.985825;-0.778646;0.053313;-0.055382;0.782431;0.006309;0.001253;-0.001335;-0.138951;-5.033242;-0.198679;-7.196807;0.00664;9.226238e-04;0.002859;13.957625;148.957626;0.003812;0.004153;0.006309;-0.003909;0.001239;0.001253;0.005148;0.930443;0.007563;-0.007563;0.015461
0.905005;-5.038357;0.998986;-0.77854;0.053454;-0.054843;0.782298;0.002143;-0.001463;-0.002119;0.782303;1.464403;0.682872;1.278277;0.003122;-0.002442;0.002782;158.329514;113.329521;0.003709;0.00322;0.002143;-0.005219;9.815943e-04;-0.001463;0.0062;0.944143;6.796151e-04;-6.796151e-04;0.033247
0.97217;-5.038357;0.971119;-0.778853;0.053446;-0.058746;0.782892;-0.009241;0.001233;0.005367;3.291472;7.494099;0.133438;0.303815;0.003495;-0.011503;0.007499;0.034846;135.034851;0.009998;0.009061;-0.009241;0.009264;0.001469;0.001233;-0.007795;0.912373;-0.008008;0.008008;0.016328
1.039336;-5.038357;0.917193;-0.778915;0.053564;-0.050536;0.782388;-0.02296;0.004838;0.003599;4.421453;4.745616;0.210721;0.22617;0.005297;-0.023418;0.014358;32.493378;167.493378;0.019143;0.017645;-0.02296;0.005278;0.00192;0.004838;-0.003357;0.866657;-0.018122;0.018122;0.014348
1.106501;-5.038357;0.883;-0.779015;0.053737;-0.053177;0.782675;0.006691;0.009835;0.008955;0.047787;-0.680337;-1.469861;20.926054;0.017355;-8.293414e-04;0.009092;116.057068;71.057068;0.012123;0.011856;0.006691;0.016436;0.001474;0.009835;-0.014963;0.829822;0.016526;-0.016526;0.02484
1.173667;-5.038357;0.88254;-0.779003;0.053513;-0.055452;0.782805;0.019802;0.003827;0.007888;-0.025524;-5.174718;-0.193247;-39.178276;0.023041;5.880978e-04;0.011226;82.598816;37.598812;0.014968;0.015168;0.019802;0.014863;9.135801e-04;0.003827;-0.01395;0.827088;0.023629;-0.023629;0.025302
1.240832;-5.038357;0.838178;-0.77899;0.053627;-0.061355;0.783241;-0.007398;0.001622;0.003094;3.237656;4.561149;0.219243;0.308865;0.002581;-0.008357;0.005469;5.988163;140.988159;0.007292;0.006602;-0.007398;0.005841;3.465993e-04;0.001622;-0.005495;0.776823;-0.005776;0.005776;0.017916
1.307997;-5.038357;0.778532;-0.779182;0.053435;-0.054253;0.782894;-0.01897;-1.364388e-04;0.016425;3.036941;-139.034561;-0.007192;0.329279;0.00938;-0.028486;0.018933;166.681732;121.681732;0.025244;0.022771;-0.01897;0.030838;0.002012;-1.364388e-04;-0.028825;0.72428;-0.019106;0.019106;0.037281
1.375163;-5.038357;0.687138;-0.779197;0.05382;-0.056443;0.783091;0.030369;-0.003328;0.023721;0.365484;9.124324;0.109597;2.736101;0.042617;-0.015576;0.029096;101.621796;56.621792;0.038795;0.034786;0.030369;0.045897;0.001546;-0.003328;-0.044351;0.630695;0.027041;-0.027041;0.044336
1.442328;-5.038357;0.60114;-0.778982;0.05363;-0.063074;0.783369;0.00592;-2.595123e-04;0.010461;0.58797;22.811869;0.043837;1.700766;0.013738;-0.008078;0.010908;119.630661;74.630661;0.014544;0.012736;0.00592;0.021578;-6.555895e-04;-2.595123e-04;-0.022233;0.538066;0.00566;-0.00566;0.034585
1.509493;-5.038357;0.541418;-0.779042;0.05374;-0.056714;0.78295;-0.043496;3.117967e-05;0.002193;308.475739;1395.024292;7.168334e-04;0.003242;1.413615e-04;-0.043607;0.021874;38.671764;173.671768;0.029165;0.029118;-0.043496;0.004824;-4.384513e-04;3.117967e-05;-0.005262;0.484704;-0.043465;0.043465;0.048967
-0.303971;-5.105522;0.355676;-0.776986;0.053075;-0.047184;0.780225;-0.031062;0.003983;-0.019222;3.171285;7.798168;0.128235;0.31533;0.012471;-0.039549;0.02601;90.83387;45.833866;0.03468;0.031361;-0.031062;-0.032306;-0.006139;0.003983;0.026166;0.308492;-0.027078;0.027078;0.073256
-0.236806;-5.105522;0.504907;-0.777441;0.052026;-0.049929;0.780778;-0.026683;5.438036e-05;-0.021177;3.270236;490.674957;0.002038;0.305788;0.011729;-0.038358;0.025044;101.030449;56.030453;0.033392;0.03025;-0.026683;-0.039723;-0.002632;5.438036e-05;0.037091;0.454978;-0.026629;0.026629;0.034474
-0.169641;-5.105522;0.592715;-0.777277;0.052514;-0.055388;0.781015;-0.010745;2.015243e-04;-0.009169;2.950025;53.318501;0.018755;0.33898;0.005407;-0.01595;0.010679;106.315102;61.315105;0.014238;0.012822;-0.010745;-0.019726;0.001387;2.015243e-04;0.021113;0.537327;-0.010543;0.010543;0.039667
-0.102475;-5.105522;0.669445;-0.777628;0.052174;-0.057856;0.781521;0.001127;0.002037;-0.010695;0.742515;-0.553385;-1.807059;1.346774;0.012286;-0.009123;0.010704;138.18338;93.183372;0.014273;0.012405;0.001127;-0.02091;-4.792192e-04;0.002037;0.020431;0.611589;0.003164;-0.003164;0.038173
-0.03531;-5.105522;0.740387;-0.777455;0.05217;-0.056537;0.781252;-0.009902;0.002296;-0.018426;1.487379;4.312844;0.231866;0.672323;0.015606;-0.023212;0.019409;120.441658;75.441658;0.025879;0.022555;-0.009902;-0.038358;0.001506;0.002296;0.039865;0.683851;-0.007606;0.007606;0.012292
0.031855;-5.105522;0.785121;-0.777597;0.052351;-0.060306;0.781687;0.004608;6.349054e-04;-0.019969;0.768935;-7.257314;-0.137792;1.3005;0.022689;-0.017446;0.020068;141.43132;96.43132;0.026757;0.023238;0.004608;-0.040772;8.336373e-04;6.349054e-04;0.041605;0.724815;0.005243;-0.005243;0.024153
0.099021;-5.105522;0.825288;-0.778009;0.052157;-0.050808;0.781409;0.031501;0.004363;-0.011789;0.001203;-7.220335;-0.138498;831.5271;0.035907;-4.318173e-05;0.017975;10.036439;145.036438;0.023967;0.023952;0.031501;-0.021705;-0.001873;0.004363;0.019832;0.77448;0.035864;-0.035864;0.032131
0.166186;-5.105522;0.900355;-0.777944;0.052024;-0.047332;0.781117;0.011528;0.003071;0.002163;-0.211622;-3.75396;-0.266385;-4.725404;0.012049;0.00255;0.00475;58.531231;13.531232;0.006333;0.007332;0.011528;0.002159;0.002166;0.003071;6.867619e-06;0.853023;0.014599;-0.014599;0.030569
0.233352;-5.105522;0.912898;-0.777902;0.052614;-0.049417;0.781244;-0.009586;0.004356;5.561169e-04;2.194721;2.200795;0.454381;0.455639;0.004378;-0.009608;0.006993;68.738968;23.738966;0.009324;0.008261;-0.009586;-0.002796;0.003908;0.004356;0.006704;0.863481;-0.00523;0.00523;0.003792
0.300517;-5.105522;0.937682;-0.777998;0.052749;-0.054065;0.781656;-0.016266;4.575681e-04;-0.007554;5.698697;35.547905;0.028131;0.175479;0.003364;-0.019172;0.011268;89.804138;44.804134;0.015024;0.014038;-0.016266;-0.016184;0.001076;4.575681e-04;0.01726;0.883617;-0.015808;0.015808;0.006811
0.367682;-5.105522;0.960104;-0.77787;0.052907;-0.057876;0.781812;-0.005652;-0.002539;-0.003682;-82.700211;-2.226487;-0.449138;-0.012092;-9.786402e-05;-0.008093;0.003998;106.518478;61.518478;0.00533;0.005363;-0.005652;-0.009744;0.00238;-0.002539;0.012124;0.902228;-0.008191;0.008191;0.041494
0.434848;-5.105522;0.98319;-0.778008;0.052973;-0.055423;0.781776;-0.004708;5.899786e-04;-4.001606e-05;7.975579;7.979152;0.125327;0.125383;5.902809e-04;-0.004708;0.002649;58.7621;13.762099;0.003532;0.003353;-0.004708;-0.001074;9.9358e-04;5.899786e-04;0.002067;0.927767;-0.004118;0.004118;0.008224
0.502013;-5.105522;0.976929;-0.77841;0.052945;-0.05873;0.782416;-0.003211;-0.001207;-9.856677e-04;-4.498755;-2.660398;-0.375884;-0.222284;-8.034717e-04;-0.003615;0.001406;78.498482;33.498482;0.001874;0.002192;-0.003211;-0.001899;-7.204438e-05;-0.001207;0.001827;0.918199;-0.004418;0.004418;0.003807
0.569178;-5.105522;0.983283;-0.778531;0.05294;-0.054552;0.782233;7.294409e-04;-0.00346;-8.490722e-04;4.050802;0.210829;4.743175;0.246865;8.949859e-04;-0.003625;0.00226;127.385704;82.385704;0.003014;0.002764;7.294409e-04;-0.001013;-6.853938e-04;-0.00346;3.273569e-04;0.928731;-0.00273;0.00273;0.032506
0.636344;-5.105522;0.985623;-0.778348;0.052777;-0.056175;0.782155;0.001982;-0.002858;0.002865;1.264538;0.693438;1.44209;0.790803;0.003312;-0.004188;0.00375;122.484688;77.484688;0.005;0.00434;0.001982;0.004482;0.001248;-0.002858;-0.003234;0.929448;-8.761121e-04;8.761121e-04;0.030536
0.703509;-5.105522;1.009676;-0.778082;0.052959;-0.056163;0.781902;-0.001347;-8.369366e-04;0.002063;3.213112;-1.60898;-0.621512;0.311225;9.86643e-04;-0.00317;0.002078;27.756538;162.756531;0.002771;0.002508;-0.001347;8.300008e-04;0.003295;-8.369366e-04;0.002465;0.953513;-0.002184;0.002184;0.02107
0.770674;-5.105522;1.003617;-0.778348;0.053162;-0.058847;0.782378;-0.004656;-4.469561e-04;-0.001665;39.745033;-10.417984;-0.095988;0.02516;1.317159e-04;-0.005235;0.002683;88.914612;43.914612;0.003578;0.003535;-0.004656;-0.004651;0.001322;-4.469561e-04;0.005973;0.944771;-0.005103;0.005103;0.003576
0.83784;-5.105522;0.990104;-0.778498;0.053218;-0.054302;0.782202;-0.005552;0.002496;-0.0023;1.983702;2.224509;0.449537;0.504108;0.003107;-0.006163;0.004635;89.969353;44.969357;0.00618;0.005448;-0.005552;-0.004967;3.666754e-04;0.002496;0.005334;0.935802;-0.003056;0.003056;0.009476
0.905005;-5.105522;0.967032;-0.778469;0.05325;-0.050967;0.78195;5.401567e-04;0.005116;0.001194;-0.045753;-0.105591;-9.470545;-21.856611;0.005408;2.474442e-04;0.00258;132.512909;87.512909;0.003441;0.003526;5.401567e-04;0.00237;1.767947e-05;0.005116;-0.002352;0.916065;0.005656;-0.005656;0.023561
0.97217;-5.105522;0.975998;-0.77865;0.053065;-0.057119;0.782544;0.003926;0.004289;0.002696;-0.206375;-0.915463;-1.092343;-4.845543;0.00681;0.001405;0.002702;101.441742;56.441746;0.003603;0.004152;0.003926;0.004114;0.001279;0.004289;-0.002835;0.918879;0.008216;-0.008216;0.009651
1.039336;-5.105522;0.952097;-0.778947;0.053232;-0.055744;0.782751;-0.019451;0.001714;-0.006622;5.906174;11.349144;0.088112;0.169314;0.003615;-0.021352;0.012484;81.457077;36.457073;0.016645;0.01558;-0.019451;-0.014298;0.001053;0.001714;0.015351;0.896353;-0.017737;0.017737;0.018566
1.106501;-5.105522;0.915629;-0.779176;0.053327;-0.049039;0.782536;0.002062;0.004183;-0.006618;0.364379;-0.492864;-2.028955;2.744393;0.009825;-0.00358;0.006702;143.738297;98.738297;0.008936;0.008014;0.002062;-0.012858;-3.777815e-04;0.004183;0.01248;0.86659;0.006245;-0.006245;0.003616
1.173667;-5.105522;0.869174;-0.77894;0.053473;-0.053765;0.782622;0.023109;0.004035;-0.002981;-0.15191;-5.727702;-0.17459;-6.582853;0.023564;0.00358;0.009992;26.339544;161.339539;0.013323;0.014663;0.023109;-0.007911;0.001949;0.004035;0.00986;0.81541;0.027144;-0.027144;0.012774
1.240832;-5.105522;0.840662;-0.778978;0.053765;-0.057612;0.782954;-0.014527;0.001869;0.003556;5.855308;7.772614;0.128657;0.170785;0.002607;-0.015265;0.008936;21.946547;156.946548;0.011914;0.011148;-0.014527;0.006198;9.141717e-04;0.001869;-0.005284;0.78305;-0.012658;0.012658;0.008312
1.307997;-5.105522;0.783617;-0.779002;0.053694;-0.049511;0.782419;-0.028085;0.003052;0.007103;6.447486;9.202885;0.108662;0.155099;0.004595;-0.029629;0.017112;18.729073;153.729065;0.022816;0.021449;-0.028085;0.013763;4.420947e-04;0.003052;-0.013321;0.734106;-0.025034;0.025034;0.018796
1.375163;-5.105522;0.68302;-0.779434;0.053793;-0.048008;0.782761;0.026673;0.004195;0.009808;-0.017046;-6.357952;-0.157283;-58.663528;0.03035;5.173626e-04;0.014916;80.713684;35.713684;0.019889;0.020063;0.026673;0.018833;7.829432e-04;0.004195;-0.01805;0.635011;0.030868;-0.030868;0.018246
1.442328;-5.105522;0.613125;-0.779376;0.053711;-0.05876;0.783432;0.019644;0.003267;0.007924;-0.002656;-6.012511;-0.16632;-376.457916;0.02285;6.069798e-05;0.011395;83.638718;38.638718;0.015193;0.015213;0.019644;0.015425;4.231374e-04;0.003267;-0.015002;0.554365;0.022911;-0.022911;0.001359
1.509493;-5.105522;0.549026;-0.779289;0.053792;-0.054805;0.783063;-0.023617;0.00116;-1.985831e-04;20.327719;20.354229;0.04913;0.049194;0.001162;-0.023619;0.01239;44.43906;179.439056;0.01652;0.016147;-0.023617;2.014111e-04;-5.985772e-04;0.00116;-7.999883e-04;0.494222;-0.022457;0.022457;0.007241
-0.303971;-5.172688;0.360694;-0.777253;0.052463;-0.047368;0.780461;-0.027965;0.010769;-0.009426;2.328799;2.596829;0.385085;0.429406;0.012941;-0.030137;0.021539;77.843651;32.843651;0.028719;0.025523;-0.027965;-0.016573;-0.002279;0.010769;0.014294;0.313326;-0.017196;0.017196;0.075444
-0.236806;-5.172688;0.524162;-0.777437;0.051853;-0.052975;0.780964;-0.033474;0.005251;5.187126e-04;6.367595;6.374696;0.15687;0.157045;0.005258;-0.033481;0.01937;41.576569;176.576569;0.025826;0.024264;-0.033474;0.001831;-7.934421e-04;0.005251;-0.002624;0.471187;-0.028223;0.028223;0.011049
-0.169641;-5.172688;0.577717;-0.777171;0.052193;-0.055973;0.78093;-0.010516;0.003602;0.007362;2.025476;2.919623;0.34251;0.493711;0.006742;-0.013656;0.010199;170.745926;125.745926;0.013599;0.012;-0.010516;0.013947;7.763236e-04;0.003602;-0.013171;0.521744;-0.006914;0.006914;0.040782
-0.102475;-5.172688;0.658277;-0.777525;0.052054;-0.052147;0.781008;0.011092;0.002524;0.001551;-0.198143;-4.394563;-0.227554;-5.046865;0.011364;0.002252;0.004556;62.953342;17.953344;0.006075;0.006948;0.011092;0.003503;-4.005577e-04;0.002524;-0.003904;0.60613;0.013616;-0.013616;0.034552
-0.03531;-5.172688;0.738234;-0.777608;0.052087;-0.049819;0.780941;-0.005062;0.001709;0.002802;2.233293;2.961461;0.337671;0.447769;0.002718;-0.006071;0.004395;176.67894;131.67894;0.005859;0.005196;-0.005062;0.005386;2.1795e-04;0.001709;-0.005168;0.688415;-0.003353;0.003353;0.024625
0.031855;-5.172688;0.774441;-0.777741;0.052117;-0.050438;0.781116;-0.009112;-4.893765e-04;0.0083;3.10887;-18.618967;-0.053709;0.32166;0.004553;-0.014154;0.009353;166.994934;121.994934;0.012471;0.011264;-0.009112;0.014778;0.001823;-4.893765e-04;-0.012955;0.724002;-0.009601;0.009601;0.022108
0.099021;-5.172688;0.848364;-0.777846;0.052293;-0.053206;0.781415;0.002839;-0.005694;0.021552;1.138976;0.498607;2.005586;0.877982;0.020543;-0.023398;0.02197;131.48175;86.481758;0.029294;0.025387;0.002839;0.041172;0.001932;-0.005694;-0.039239;0.795158;-0.002855;0.002855;0.040552
0.166186;-5.172688;0.915688;-0.777797;0.051955;-0.053538;0.781367;0.00899;0.002711;0.01921;0.53778;-3.316026;-0.301566;1.859497;0.025315;-0.013614;0.019465;121.199615;76.199615;0.025953;0.022812;0.00899;0.036881;0.001539;0.002711;-0.035342;0.86215;0.011701;-0.011701;0.057887
0.233352;-5.172688;0.903127;-0.777727;0.052301;-0.05107;0.781155;-0.001848;0.007482;0.002344;0.299034;0.24697;4.049082;3.344099;0.008038;-0.002404;0.005221;143.990356;98.990364;0.006961;0.006314;-0.001848;0.005128;-4.397872e-04;0.007482;-0.005568;0.852057;0.005634;-0.005634;0.035946
0.300517;-5.172688;0.896546;-0.778058;0.052444;-0.053939;0.781686;-0.009547;0.003289;-1.362399e-05;2.902964;2.902972;0.344475;0.344476;0.003289;-0.009547;0.006418;66.074249;21.074253;0.008557;0.007699;-0.009547;-0.002834;0.002807;0.003289;0.00564;0.842607;-0.006258;0.006258;9.458821e-04
0.367682;-5.172688;0.930999;-0.778228;0.052601;-0.054546;0.781909;-0.01176;0.002179;-2.195969e-04;5.389998;5.396966;0.185289;0.185529;0.002182;-0.011764;0.006973;57.298157;12.298157;0.009297;0.008662;-0.01176;-0.002233;0.001793;0.002179;0.004026;0.876453;-0.009581;0.009581;0.040407
0.434848;-5.172688;0.995626;-0.778108;0.052875;-0.057633;0.782029;-0.004653;0.003773;-1.778782e-04;1.233142;1.233374;0.810784;0.810937;0.003777;-0.004657;0.004217;56.843571;11.843573;0.005622;0.004878;-0.004653;-3.492514e-04;-6.504919e-06;0.003773;3.427465e-04;0.937993;-8.804825e-04;8.804825e-04;0.019833
0.502013;-5.172688;0.996928;-0.778198;0.052856;-0.058613;0.782191;-0.002033;0.007035;-0.001186;0.304088;0.288987;3.460368;3.288522;0.007188;-0.002186;0.004687;130.492126;85.492126;0.006249;0.005663;-0.002033;-0.002283;-8.963107e-05;0.007035;0.002194;0.938314;0.005002;-0.005002;0.009701
0.569178;-5.172688;0.996325;-0.778384;0.052669;-0.060577;0.782512;-4.218036e-05;0.004164;-5.483522e-04;0.026571;0.010131;98.709892;37.635384;0.004234;-1.124989e-04;0.002173;147.006226;102.006226;0.002898;0.002861;-4.218036e-05;-2.072967e-04;-8.894078e-04;0.004164;-6.821111e-04;0.935748;0.004121;-0.004121;0.002872
0.636344;-5.172688;0.997807;-0.778312;0.052662;-0.060801;0.782457;0.004586;0.003379;0.001098;-0.521307;-1.3571;-0.736865;-1.918254;0.005236;0.00273;0.001253;71.027893;26.027889;0.001671;0.003024;0.004586;4.560025e-04;0.001741;0.003379;0.001285;0.937006;0.007966;-0.007966;0.015824
0.703509;-5.172688;1.004614;-0.777913;0.05297;-0.055941;0.781718;8.861861e-05;0.002969;2.730261e-05;-0.029758;-0.029848;-33.503632;-33.604679;0.002969;8.835984e-05;0.00144;106.529869;61.529869;0.001921;0.001951;8.861861e-05;-0.002227;0.002281;0.002969;0.004508;0.948673;0.003058;-0.003058;0.036743
0.770674;-5.172688;0.995963;-0.778148;0.052975;-0.063114;0.782498;-0.004479;0.003701;-9.10048e-05;1.21021;1.210268;0.826263;0.826303;0.003702;-0.00448;0.004091;75.060379;30.060379;0.005454;0.004731;-0.004479;-7.345825e-04;5.525729e-04;0.003701;0.001287;0.932849;-7.781173e-04;7.781173e-04;0.040082
0.83784;-5.172688;0.99363;-0.778686;0.052924;-0.057047;0.782564;-8.062075e-04;0.002036;-0.002938;0.682926;0.395965;2.525477;1.464288;0.003879;-0.002649;0.003264;128.188522;83.18853;0.004352;0.003791;-8.062075e-04;-0.005785;-9.14076e-05;0.002036;0.005694;0.936583;0.00123;-0.00123;0.028553
0.905005;-5.172688;0.997984;-0.778634;0.052823;-0.050862;0.782079;0.001416;-0.001234;3.498564e-04;0.875212;1.147828;0.87121;1.14258;0.001461;-0.001279;0.00137;95.828423;50.828423;0.001827;0.001583;0.001416;0.002015;-0.001315;-0.001234;-0.00333;0.947123;1.823768e-04;-1.823768e-04;0.041034
0.97217;-5.172688;0.98782;-0.778588;0.052952;-0.054869;0.782314;0.011334;-5.634188e-05;-0.004749;0.136106;201.159241;0.004971;7.347221;0.013054;-0.001777;0.007415;0.04634;135.046341;0.009887;0.009351;0.011334;-0.011489;0.00199;-5.634188e-05;0.013479;0.932951;0.011277;-0.011277;0.038763
1.039336;-5.172688;0.930186;-0.77873;0.053275;-0.056973;0.782626;-0.01549;0.001771;-0.001523;8.204782;8.747442;0.114319;0.12188;0.001904;-0.015623;0.008764;50.30072;5.300721;0.011685;0.011105;-0.01549;-0.001594;-0.001452;0.001771;1.418984e-04;0.873213;-0.013719;0.013719;0.019176
1.106501;-5.172688;0.893906;-0.778707;0.052982;-0.055616;0.782486;0.002945;0.00423;-0.005429;0.207546;-0.696166;-1.43644;4.818207;0.009055;-0.001879;0.005467;148.439438;103.439445;0.007289;0.006751;0.002945;-0.010823;-3.523335e-05;0.00423;0.010788;0.83829;0.007175;-0.007175;0.009277
1.173667;-5.172688;0.854438;-0.778697;0.053016;-0.057524;0.782616;0.013581;0.00556;-0.007305;-0.069112;-2.442695;-0.409384;-14.469212;0.017904;0.001237;0.008333;170.092361;125.092361;0.011111;0.011546;0.013581;-0.018155;0.003545;0.00556;0.0217;0.796914;0.019141;-0.019141;0.001505
1.240832;-5.172688;0.835858;-0.778922;0.053366;-0.058079;0.782905;-0.018426;0.003336;-0.005199;4.342556;5.522867;0.181065;0.230279;0.004514;-0.019604;0.012059;77.406425;32.406425;0.016079;0.014805;-0.018426;-0.011369;9.713803e-04;0.003336;0.01234;0.777779;-0.015089;0.015089;0.028615
1.307997;-5.172688;0.787628;-0.779008;0.053242;-0.05264;0.782598;-0.021788;0.0032;-0.010431;3.662434;6.809266;0.146859;0.273042;0.006982;-0.02557;0.016276;89.073799;44.073799;0.021701;0.019788;-0.021788;-0.020858;-3.238915e-06;0.0032;0.020855;0.734988;-0.018588;0.018588;0.03423
1.375163;-5.172688;0.715797;-0.779365;0.053277;-0.052501;0.782946;0.023277;0.002212;-0.016683;0.215091;-10.521746;-0.095041;4.649194;0.032474;-0.006985;0.01973;169.157104;124.157104;0.026306;0.024315;0.023277;-0.034193;8.268461e-04;0.002212;0.03502;0.663297;0.025489;-0.025489;0.024825
1.442328;-5.172688;0.657084;-0.779414;0.053509;-0.058461;0.783432;0.01958;0.004291;-0.00949;0.010368;-4.562843;-0.219162;96.448494;0.024121;-2.500945e-04;0.012186;179.859268;134.859268;0.016248;0.016165;0.01958;-0.019201;2.221052e-04;0.004291;0.019424;0.598622;0.023871;-0.023871;9.1858e-04
1.509493;-5.172688;0.557348;-0.779383;0.053454;-0.059441;0.783472;-0.002447;0.005237;-0.009203;0.754523;0.467155;2.140618;1.325341;0.011368;-0.008577;0.009973;128.015961;83.015968;0.013297;0.011553;-0.002447;-0.018332;-7.440819e-05;0.005237;0.018257;0.497906;0.002791;-0.002791;0.005989
-0.303971;-5.239853;0.351571;-0.777022;0.051135;-0.043865;0.779937;-0.053655;0.007495;-0.044523;2.492382;7.158762;0.139689;0.401223;0.03093;-0.07709;0.05401;104.691856;59.691856;0.072014;0.064236;-0.053655;-0.091556;0.00251;0.007495;0.094066;0.307707;-0.04616;0.04616;0.087007
-0.236806;-5.239853;0.515703;-0.777382;0.051798;-0.049683;0.780688;-0.05961;0.004505;-0.010516;9.908843;13.232946;0.075569;0.10092;0.006185;-0.061291;0.033738;66.107361;21.107361;0.044984;0.043071;-0.05961;-0.022814;0.001782;0.004505;0.024596;0.46602;-0.055106;0.055106;0.025301
-0.169641;-5.239853;0.587422;-0.777421;0.051857;-0.060935;0.781528;-0.01621;0.002008;0.010304;3.134992;8.073548;0.123861;0.31898;0.006652;-0.020854;0.013753;173.928879;128.928879;0.018337;0.016571;-0.01621;0.019942;6.660819e-04;0.002008;-0.019276;0.526487;-0.014202;0.014202;0.032281
-0.102475;-5.239853;0.662766;-0.777591;0.051921;-0.055701;0.781311;0.010541;0.002317;0.016239;0.445293;-4.5487;-0.219843;2.245712;0.023181;-0.010322;0.016752;116.574768;71.574768;0.022336;0.019812;0.010541;0.031653;8.250169e-04;0.002317;-0.030828;0.607065;0.012859;-0.012859;0.036517
-0.03531;-5.239853;0.74492;-0.777762;0.051981;-0.058748;0.781708;-0.010504;0.005066;0.019072;1.304083;2.073232;0.482339;0.766822;0.017881;-0.023319;0.0206;150.442169;105.442169;0.027467;0.023856;-0.010504;0.036881;0.001263;0.005066;-0.035618;0.686172;-0.005437;0.005437;0.00427
0.031855;-5.239853;0.810753;-0.777598;0.051961;-0.060705;0.781693;-0.013888;0.003818;0.016725;1.724993;3.637321;0.274928;0.579712;0.013889;-0.023959;0.018924;157.833328;112.833321;0.025232;0.022108;-0.013888;0.032431;0.00102;0.003818;-0.031411;0.750048;-0.01007;0.01007;0.002202
0.099021;-5.239853;0.870501;-0.777507;0.052049;-0.061468;0.781668;-0.011263;0.007185;0.013134;1.291056;1.567543;0.637941;0.77456;0.01401;-0.018088;0.016049;157.031784;112.031776;0.021399;0.018582;-0.011263;0.026031;2.36329e-04;0.007185;-0.025795;0.809032;-0.004078;0.004078;0.013766
0.166186;-5.239853;0.885256;-0.777638;0.052093;-0.06179;0.781827;0.014293;0.009432;0.01145;-0.006694;-1.515299;-0.659936;-149.384903;0.023567;1.577627e-04;0.011705;106.284943;61.284943;0.015606;0.015659;0.014293;0.023129;-2.292596e-04;0.009432;-0.023358;0.823466;0.023725;-0.023725;0.033711
0.233352;-5.239853;0.906905;-0.777803;0.052161;-0.055131;0.781497;0.011118;5.589329e-04;0.002069;-0.01459;-19.891479;-0.050273;-68.541985;0.011509;1.67912e-04;0.005671;53.535435;8.535435;0.007561;0.007617;0.011118;0.001627;0.002511;5.589329e-04;8.843559e-04;0.851774;0.011677;-0.011677;0.062705
0.300517;-5.239853;0.914504;-0.778019;0.052444;-0.053571;0.781622;-0.005474;0.001404;0.001786;3.212276;3.899894;0.256417;0.311306;0.00184;-0.005911;0.003875;36.924305;171.924301;0.005167;0.004676;-0.005474;0.00138;0.002193;0.001404;8.132793e-04;0.860933;-0.004071;0.004071;0.019507
0.367682;-5.239853;0.936364;-0.778235;0.052549;-0.055908;0.782009;-0.010723;0.002641;-0.001812;3.803655;4.05978;0.246319;0.262905;0.002883;-0.010965;0.006924;64.807335;19.807331;0.009231;0.008436;-0.010723;-0.003649;2.484972e-05;0.002641;0.003674;0.880456;-0.008082;0.008082;0.011656
0.434848;-5.239853;0.976538;-0.778387;0.052437;-0.057641;0.782278;0.007342;-1.838791e-04;-0.007765;0.413674;39.926792;0.025046;2.417364;0.012208;-0.00505;0.008629;163.021011;118.021011;0.011505;0.010246;0.007342;-0.013917;-0.001613;-1.838791e-04;0.012304;0.918898;0.007158;-0.007158;0.015808
0.502013;-5.239853;1.004237;-0.77813;0.052195;-0.052162;0.781621;7.04631e-04;-8.41933e-04;-0.00371;1.036895;0.83692;1.194857;0.964418;0.003721;-0.003859;0.00379;140.538635;95.538628;0.005053;0.004377;7.04631e-04;-0.009368;0.001947;-8.41933e-04;0.011315;0.952075;-1.37302e-04;1.37302e-04;0.01313
0.569178;-5.239853;0.991997;-0.778245;0.052438;-0.05477;0.781931;0.004984;0.001115;-1.650116e-04;-0.221965;-4.47052;-0.223688;-4.505211;0.004991;0.001108;0.001941;22.17453;157.17453;0.002589;0.003026;0.004984;-0.002795;0.002465;0.001115;0.00526;0.937227;0.006099;-0.006099;0.003882
0.636344;-5.239853;0.981673;-0.778236;0.052412;-0.059917;0.782297;0.001446;0.001447;0.001081;-0.144555;-0.999336;-1.000665;-6.917783;0.002527;3.65281e-04;0.001081;93.801216;48.801216;0.001441;0.001577;0.001446;0.001273;8.884668e-04;0.001447;-3.847201e-04;0.921756;0.002892;-0.002892;0.043623
0.703509;-5.239853;0.990326;-0.77809;0.052567;-0.05301;0.781663;-6.930511e-04;4.371381e-04;0.00128;1.201347;1.585428;0.630744;0.832399;0.001271;-0.001527;0.001399;43.592884;178.59288;0.001865;0.001618;-6.930511e-04;0.001025;0.001535;4.371381e-04;5.101816e-04;0.937316;-2.559131e-04;2.559131e-04;0.037519
0.770674;-5.239853;0.988998;-0.77831;0.052736;-0.062275;0.782577;-0.004039;1.02304e-04;1.763833e-04;36.849506;39.47744;0.025331;0.027137;1.098033e-04;-0.004046;0.002078;52.930244;7.930246;0.002771;0.002735;-0.004039;-5.685022e-04;9.212688e-04;1.02304e-04;0.00149;0.926723;-0.003936;0.003936;0.056328
0.83784;-5.239853;0.999218;-0.778641;0.05282;-0.054831;0.782354;0.008729;0.001697;-0.00181;-0.137292;-5.143224;-0.194431;-7.283746;0.009168;0.001259;0.003954;17.828772;152.828766;0.005273;0.005738;0.008729;-0.004478;8.579757e-04;0.001697;0.005336;0.944387;0.010426;-0.010426;0.049306
0.905005;-5.239853;1.008764;-0.77836;0.052954;-0.052377;0.781915;0.00847;7.538613e-04;-0.00236;-0.009796;-11.23568;-0.089002;-102.078629;0.009135;8.948513e-05;0.004523;9.613996;144.613998;0.00603;0.00606;0.00847;-0.006137;0.001418;7.538613e-04;0.007556;0.956388;0.009224;-0.009224;0.043738
0.97217;-5.239853;0.985909;-0.778194;0.053021;-0.062974;0.782537;0.005882;0.001095;-0.010929;0.52462;-5.370351;-0.186208;1.906141;0.014677;-0.0077;0.011188;149.922928;104.922935;0.014918;0.013127;0.005882;-0.021998;1.387751e-04;0.001095;0.022137;0.922935;0.006977;-0.006977;0.035654
1.039336;-5.239853;0.919303;-0.778566;0.053151;-0.053392;0.782202;-0.028447;-3.672334e-04;-0.009519;12.274926;-77.463257;-0.012909;0.081467;0.002556;-0.03137;0.016963;77.08284;32.082836;0.022617;0.021815;-0.028447;-0.017847;-0.001192;-3.672334e-04;0.016655;0.865911;-0.028814;0.028814;0.008174
1.106501;-5.239853;0.86213;-0.778841;0.05305;-0.051825;0.782364;0.01261;-0.002433;-0.00995;0.420478;5.182843;0.192944;2.378246;0.017562;-0.007384;0.012473;166.581085;121.581085;0.016631;0.014797;0.01261;-0.020349;4.496591e-04;-0.002433;0.020799;0.810305;0.010177;-0.010177;0.010583
1.173667;-5.239853;0.856112;-0.778696;0.053314;-0.058932;0.782741;0.012128;-0.001891;-0.008429;0.363441;6.412475;0.155946;2.751478;0.016081;-0.005845;0.010963;165.665482;120.665474;0.014617;0.013111;0.012128;-0.021367;0.004509;-0.001891;0.025876;0.797181;0.010237;-0.010237;0.021285
1.240832;-5.239853;0.844374;-0.77852;0.053218;-0.059383;0.782593;-0.025707;8.991601e-04;-0.00914;7.639348;28.590075;0.034977;0.130901;0.003736;-0.028544;0.01614;79.511757;34.511761;0.021521;0.02039;-0.025707;-0.017675;-6.049037e-04;8.991601e-04;0.01707;0.784992;-0.024808;0.024808;0.04682
1.307997;-5.239853;0.789355;-0.77879;0.053228;-0.051778;0.782323;-0.014351;0.001534;-0.007635;3.781078;9.354417;0.106901;0.264475;0.004609;-0.017426;0.011017;89.878525;44.878521;0.01469;0.01342;-0.014351;-0.014246;-0.001024;0.001534;0.013221;0.737576;-0.012817;0.012817;0.067329
1.375163;-5.239853;0.715358;-0.778913;0.053079;-0.057222;0.782814;0.020588;0.002784;-0.006493;-0.029414;-7.394967;-0.135227;-33.997425;0.022704;6.678209e-04;0.011018;13.603203;148.603195;0.014691;0.014919;0.020588;-0.012367;-6.183349e-04;0.002784;0.011749;0.658136;0.023372;-0.023372;0.040226
1.442328;-5.239853;0.630273;-0.779055;0.053005;-0.058562;0.783049;0.010492;0.003374;1.968146e-04;-0.320933;-3.109282;-0.321618;-3.115915;0.010497;0.003369;0.003564;44.657631;179.657623;0.004752;0.006189;0.010492;-2.697877e-04;6.634168e-04;0.003374;9.332045e-04;0.571711;0.013866;-0.013866;0.02199
1.509493;-5.239853;0.533053;-0.7791;0.053136;-0.058947;0.783132;0.004275;0.001569;0.003879;0.168713;-2.725418;-0.366916;5.927238;0.00703;-0.001186;0.004108;101.28228;56.282284;0.005477;0.005128;0.004275;0.006491;0.001266;0.001569;-0.005225;0.474106;0.005844;-0.005844;0.020267
-0.303971;-5.307018;0.336593;-0.777683;0.0508;-0.027297;0.779818;-0.107531;0.007343;-0.012813;12.44305;14.643081;0.068292;0.080366;0.008755;-0.108943;0.058849;60.935032;15.93503;0.078465;0.075716;-0.107531;-0.03035;0.004724;0.007343;0.035074;0.309296;-0.100187;0.100187;0.086972
-0.236806;-5.307018;0.514365;-0.77737;0.051644;-0.052453;0.780847;-0.089267;0.004345;0.011506;15.799311;20.545488;0.048672;0.063294;0.005738;-0.09066;0.048199;32.54425;167.54425;0.064266;0.062441;-0.089267;0.019837;0.003174;0.004345;-0.016663;0.461912;-0.084922;0.084922;0.040729
-0.169641;-5.307018;0.615084;-0.777373;0.051585;-0.060957;0.781463;-0.014332;0.003788;0.010163;2.263668;3.783175;0.264328;0.441761;0.008343;-0.018887;0.013615;170.226913;125.226921;0.018153;0.016109;-0.014332;0.019777;5.495595e-04;0.003788;-0.019227;0.554127;-0.010543;0.010543;0.015123
-0.102475;-5.307018;0.671812;-0.77748;0.05163;-0.05702;0.781276;0.013149;0.004659;7.954958e-04;-0.346771;-2.822154;-0.354339;-2.883745;0.013223;0.004585;0.004319;53.614193;8.614194;0.005759;0.007753;0.013149;0.001828;-2.370878e-04;0.004659;-0.002065;0.614792;0.017809;-0.017809;0.013033
-0.03531;-5.307018;0.718801;-0.777617;0.051582;-0.058573;0.781524;-0.002319;0.006099;-0.00618;0.596436;0.380184;2.630306;1.676626;0.009367;-0.005587;0.007477;126.420837;81.420837;0.009969;0.008725;-0.002319;-0.012324;-3.546031e-05;0.006099;0.012289;0.660228;0.00378;-0.00378;2.803908e-04
0.031855;-5.307018;0.78764;-0.77766;0.051664;-0.055986;0.781383;-0.006484;0.002727;-0.009911;1.415157;2.377842;0.420549;0.706635;0.009051;-0.012808;0.010929;117.4328;72.4328;0.014572;0.012682;-0.006484;-0.020342;5.188397e-04;0.002727;0.02086;0.731655;-0.003757;0.003757;0.025782
0.099021;-5.307018;0.851236;-0.777599;0.051565;-0.060112;0.781622;-0.011446;6.392078e-04;-0.007371;3.618099;17.906202;0.055847;0.276388;0.004128;-0.014934;0.009531;100.288986;55.28899;0.012708;0.01158;-0.011446;-0.0167;0.001959;6.392078e-04;0.01866;0.791124;-0.010807;0.010807;0.033551
0.166186;-5.307018;0.85174;-0.777717;0.051945;-0.060149;0.781767;0.013999;0.002864;-0.001084;-0.195654;-4.887944;-0.204585;-5.111072;0.014104;0.002759;0.005672;29.813948;164.81395;0.007563;0.008631;0.013999;-0.004046;0.001877;0.002864;0.005923;0.791591;0.016863;-0.016863;0.030359
0.233352;-5.307018;0.926591;-0.777657;0.05198;-0.053125;0.7812;0.018415;-0.002992;0.007058;0.248866;6.154309;0.162488;4.01823;0.020532;-0.00511;0.012821;74.307144;29.307142;0.017095;0.015672;0.018415;0.010689;0.003427;-0.002992;-0.007261;0.873466;0.015422;-0.015422;0.039511
0.300517;-5.307018;0.938724;-0.777769;0.052371;-0.052115;0.78127;-0.003543;-0.004899;0.002824;-5.410283;-0.723182;-1.382778;-0.184833;-0.001317;-0.007126;0.002904;172.45462;127.45462;0.003872;0.004378;-0.003543;0.002941;0.002707;-0.004899;-2.34046e-04;0.886609;-0.008443;0.008443;0.007305
0.367682;-5.307018;0.931954;-0.778018;0.052363;-0.055994;0.781786;-0.001144;0.004362;-0.002312;0.381718;0.262392;3.81109;2.619734;0.005203;-0.001986;0.003595;142.327957;97.327957;0.004793;0.004287;-0.001144;-0.003074;-0.001549;0.004362;0.001525;0.875961;0.003217;-0.003217;0.028402
0.434848;-5.307018;0.942386;-0.778313;0.051948;-0.052098;0.781783;0.013421;0.005759;-0.008413;-0.018398;-2.330295;-0.42913;-54.353603;0.018834;3.465143e-04;0.009244;176.320526;131.320526;0.012325;0.012442;0.013421;-0.014369;-0.002457;0.005759;0.011912;0.890288;0.019181;-0.019181;0.034999
0.502013;-5.307018;0.986868;-0.777912;0.051842;-0.05;0.781239;-0.002461;0.002814;-7.076174e-04;0.878707;0.874686;1.143267;1.138036;0.002907;-0.002554;0.002731;99.64286;54.642864;0.003641;0.003155;-0.002461;-0.00307;0.001655;0.002814;0.004726;0.936868;3.52605e-04;-3.52605e-04;0.038464
0.569178;-5.307018;0.982949;-0.778106;0.052352;-0.056073;0.781878;0.003464;0.001673;-4.643268e-04;-0.436149;-2.069952;-0.483103;-2.292794;0.003577;0.00156;0.001008;8.091166;143.091171;0.001345;0.002071;0.003464;-0.003162;0.002233;0.001673;0.005395;0.926875;0.005137;-0.005137;0.017831
0.636344;-5.307018;0.98671;-0.778094;0.052255;-0.05965;0.782125;-0.001374;0.001767;-4.292909e-04;0.784824;0.77781;1.285661;1.27417;0.001825;-0.001432;0.001628;103.659515;58.659519;0.002171;0.001885;-0.001374;-0.00135;4.916555e-04;0.001767;0.001842;0.92706;3.926293e-04;-3.926293e-04;0.04151
0.703509;-5.307018;0.98132;-0.77826;0.052389;-0.052489;0.781786;-0.002137;0.001165;0.001483;1.56061;1.834131;0.545217;0.640775;0.001734;-0.002706;0.00222;59.759708;14.75971;0.00296;0.002583;-0.002137;3.469772e-05;0.002932;0.001165;0.002897;0.928831;-9.719332e-04;9.719332e-04;0.016323
0.770674;-5.307018;0.977109;-0.778491;0.052582;-0.057769;0.782401;-0.001274;0.002042;-2.18359e-04;0.626501;0.623882;1.602867;1.596168;0.002056;-0.001288;0.001672;101.164574;56.164574;0.00223;0.001948;-0.001274;-0.001669;0.001232;0.002042;0.002902;0.919341;7.680896e-04;-7.680896e-04;0.028791
0.83784;-5.307018;1.001907;-0.778337;0.05259;-0.051903;0.781837;0.006161;0.003157;1.962565e-04;-0.509291;-1.951529;-0.512419;-1.963514;0.006174;0.003144;0.001515;38.587337;173.587341;0.00202;0.003565;0.006161;-0.001524;0.001917;0.003157;0.003441;0.950004;0.009318;-0.009318;0.043089
0.905005;-5.307018;0.99069;-0.778375;0.052925;-0.053578;0.78201;0.011501;0.001572;0.002571;-0.07798;-7.31751;-0.136659;-12.823752;0.012127;9.45642e-04;0.005591;55.909477;10.909478;0.007454;0.007788;0.011501;0.001935;0.003206;0.001572;0.001271;0.937112;0.013072;-0.013072;0.034592
0.97217;-5.307018;0.978032;-0.778353;0.052996;-0.063661;0.782748;0.002308;0.005036;0.003665;0.031456;-0.458383;-2.18158;31.79006;0.007583;-2.38528e-04;0.003911;108.147484;63.14748;0.005214;0.005137;0.002308;0.00471;0.00262;0.005036;-0.00209;0.914371;0.007344;-0.007344;0.005479
1.039336;-5.307018;0.952184;-0.778507;0.052964;-0.058392;0.782488;-0.016447;0.006699;-0.001096;2.443897;2.455067;0.407321;0.409183;0.006751;-0.016499;0.011625;59.990204;14.990202;0.0155;0.013811;-0.016447;-0.003325;0.001132;0.006699;0.004456;0.893792;-0.009748;0.009748;0.003832
1.106501;-5.307018;0.902092;-0.778781;0.053017;-0.060238;0.782905;0.030446;-0.009658;-0.001312;0.318164;3.152548;0.317204;3.143033;0.030489;-0.009701;0.020095;35.805397;170.805389;0.026793;0.024216;0.030446;-0.004028;0.001404;-0.009658;0.005433;0.841854;0.020789;-0.020789;0.008029
1.173667;-5.307018;0.863336;-0.778748;0.053309;-0.068396;0.783562;0.008705;-0.001286;-0.002212;0.19118;6.769493;0.147722;5.230663;0.009172;-0.001754;0.005463;9.161797;144.161789;0.007284;0.006776;0.008705;-0.006302;0.001879;-0.001286;0.00818;0.79494;0.007419;-0.007419;0.040037
1.240832;-5.307018;0.832749;-0.778491;0.053214;-0.061952;0.782763;-0.031817;0.002279;-0.002068;13.286579;13.960361;0.071631;0.075264;0.002404;-0.031942;0.017173;49.035885;4.035884;0.022898;0.02214;-0.031817;-0.002366;-0.00177;0.002279;5.955326e-04;0.770797;-0.029538;0.029538;0.045344
1.307997;-5.307018;0.789605;-0.778599;0.053012;-0.054272;0.782287;-0.016404;0.001655;-0.004764;6.203093;9.912437;0.100883;0.16121;0.002835;-0.017583;0.010209;71.496201;26.496199;0.013612;0.012772;-0.016404;-0.00823;-0.001298;0.001655;0.006932;0.735333;-0.014749;0.014749;0.032543
1.375163;-5.307018;0.734403;-0.77868;0.05296;-0.055328;0.782437;0.008063;0.001387;0.003494;0.011207;-5.811413;-0.172075;89.228607;0.009558;-1.071143e-04;0.004832;88.911148;43.911148;0.006443;0.006408;0.008063;0.007676;-6.875108e-04;0.001387;-0.008364;0.679075;0.009451;-0.009451;0.014866
1.442328;-5.307018;0.638901;-0.778809;0.052817;-0.057265;0.782695;0.004724;0.001945;0.014941;0.63634;-2.42837;-0.411799;1.571488;0.01834;-0.01167;0.015005;125.395439;80.395439;0.020007;0.017468;0.004724;0.028419;0.001462;0.001945;-0.026957;0.581636;0.006669;-0.006669;0.003005
1.509493;-5.307018;0.529708;-0.778969;0.053316;-0.058088;0.78295;0.002547;0.002836;0.020002;0.762769;-0.898199;-1.113339;1.311012;0.022694;-0.01731;0.020002;130.535706;85.535698;0.02667;0.023166;0.002547;0.036364;0.003639;0.002836;-0.032726;0.47162;0.005384;-0.005384;0.011526
-0.303971;-5.374184;0.379919;-0.778095;0.050312;-0.036184;0.780559;-0.118765;0.001147;0.041503;9.335443;103.509758;0.009661;0.107119;0.01411;-0.131728;0.072919;11.936563;146.936569;0.097225;0.09288;-0.118765;0.077449;0.005556;0.001147;-0.071893;0.343736;-0.117617;0.117617;0.034825
-0.236806;-5.374184;0.520147;-0.777318;0.05127;-0.058199;0.781178;-0.087971;0.003614;0.028375;8.214649;24.341715;0.041082;0.121734;0.011692;-0.09605;0.053871;13.809759;148.809753;0.071828;0.068265;-0.087971;0.053316;0.003434;0.003614;-0.049882;0.461947;-0.084357;0.084357;0.043068
-0.169641;-5.374184;0.59131;-0.777274;0.051216;-0.063709;0.78156;0.011747;0.00393;-0.002031;-0.280457;-2.989263;-0.334531;-3.565606;0.012243;0.003434;0.004405;22.1033;157.103302;0.005873;0.007292;0.011747;-0.004629;5.674324e-04;0.00393;0.005197;0.527602;0.015677;-0.015677;0.015313
-0.102475;-5.374184;0.685566;-0.777428;0.051426;-0.056715;0.781188;0.031244;0.004458;-0.023939;0.211558;-7.008296;-0.142688;4.726842;0.045283;-0.00958;0.027431;169.002594;124.002594;0.036575;0.033837;0.031244;-0.046158;-0.001721;0.004458;0.044437;0.628851;0.035703;-0.035703;0.001817
-0.03531;-5.374184;0.73855;-0.777655;0.05089;-0.055853;0.781317;-0.007231;0.003085;-0.019458;1.229584;2.343789;0.42666;0.813283;0.018057;-0.022203;0.02013;124.513802;79.513802;0.02684;0.023286;-0.007231;-0.038771;-1.454094e-04;0.003085;0.038626;0.682697;-0.004146;0.004146;0.024516
0.031855;-5.374184;0.772741;-0.777595;0.051222;-0.056271;0.78131;-0.011978;-3.662781e-04;-0.008125;4.236423;-32.700706;-0.03058;0.236048;0.003814;-0.016158;0.009986;102.132896;57.1329;0.013315;0.012243;-0.011978;-0.018735;0.002485;-3.662781e-04;0.02122;0.716471;-0.012344;0.012344;0.058075
0.099021;-5.374184;0.846552;-0.777407;0.051495;-0.057566;0.781235;-0.007812;6.940145e-05;-0.006694;2.987075;112.567642;0.008884;0.334776;0.003897;-0.01164;0.007768;107.791756;62.791756;0.010358;0.009334;-0.007812;-0.015418;0.002029;6.940145e-05;0.017447;0.788986;-0.007743;0.007743;0.06498
0.166186;-5.374184;0.883048;-0.7776;0.051787;-0.058999;0.781553;-0.006252;0.001739;-0.004792;2.133007;3.594763;0.278182;0.468822;0.003983;-0.008496;0.00624;105.736214;60.736214;0.008319;0.00736;-0.006252;-0.011456;0.001871;0.001739;0.013327;0.824049;-0.004513;0.004513;0.033772
0.233352;-5.374184;0.943442;-0.777588;0.051845;-0.061894;0.781768;-0.003978;0.001362;0.00772;1.381292;2.920962;0.342353;0.72396;0.006861;-0.009477;0.008169;150.800949;105.800941;0.010892;0.009473;-0.003978;0.013607;0.001833;0.001362;-0.011775;0.881548;-0.002616;0.002616;0.016145
0.300517;-5.374184;0.94746;-0.777925;0.051976;-0.061136;0.782053;0.002359;-9.813085e-04;0.002426;0.620942;2.403904;0.41599;1.610456;0.003634;-0.002257;0.002946;111.846901;66.846901;0.003927;0.003432;0.002359;0.005734;-8.80862e-04;-9.813085e-04;-0.006614;0.886324;0.001378;-0.001378;0.003975
0.367682;-5.374184;0.955313;-0.778028;0.051776;-0.056832;0.781818;0.012363;-0.003259;-0.008356;0.430677;3.793072;0.263639;2.321926;0.01599;-0.006887;0.011438;4.826348;139.826355;0.015251;0.013552;0.012363;-0.011359;-0.005353;-0.003259;0.006007;0.898482;0.009104;-0.009104;0.052333
0.434848;-5.374184;0.977763;-0.778163;0.051803;-0.049468;0.781453;0.004463;-0.008472;0.001933;1.844712;0.526815;1.898201;0.54209;0.004746;-0.008754;0.00675;120.275475;75.275475;0.009;0.007908;0.004463;0.004015;-1.491981e-04;-0.008472;-0.004164;0.928295;-0.004009;0.004009;0.050193
0.502013;-5.374184;1.009836;-0.777679;0.051879;-0.054722;0.781327;-5.997212e-05;-0.01217;0.008755;3.699741;-0.004928;-202.921783;0.270289;0.00453;-0.01676;0.010645;138.2509;93.250908;0.014193;0.01295;-5.997212e-05;0.015747;0.001762;-0.01217;-0.013985;0.955115;-0.01223;0.01223;0.004763
0.569178;-5.374184;0.982971;-0.777704;0.05223;-0.056085;0.781471;-0.002685;-0.002123;-0.001395;-3.90077;-1.264368;-0.790909;-0.25636;-9.810461e-04;-0.003827;0.001423;103.630753;58.630753;0.001897;0.002295;-0.002685;-0.003317;5.266833e-04;-0.002123;0.003843;0.926885;-0.004808;0.004808;0.010561
0.636344;-5.374184;0.988808;-0.778019;0.052088;-0.051415;0.781454;-0.002892;0.0048;-0.001418;0.622423;0.602518;1.6597;1.606624;0.005053;-0.003145;0.004099;110.698395;65.698395;0.005466;0.004776;-0.002892;-0.003883;0.001047;0.0048;0.004929;0.937393;0.001908;-0.001908;0.028259
0.703509;-5.374184;0.97737;-0.778186;0.052291;-0.054399;0.781836;-0.001279;-2.485274e-04;0.003194;1.617827;-5.144891;-0.194368;0.618113;0.002472;-0.003999;0.003235;12.538916;147.53891;0.004314;0.00377;-0.001279;0.002976;0.003412;-2.485274e-04;4.355384e-04;0.92297;-0.001527;0.001527;0.014276
0.770674;-5.374184;0.98206;-0.778513;0.052425;-0.05821;0.782444;2.534241e-04;-0.002803;8.831257e-04;6.19946;0.090425;11.058862;0.161304;4.902735e-04;-0.003039;0.001765;164.094894;119.094894;0.002353;0.002208;2.534241e-04;2.007459e-04;0.001566;-0.002803;0.001365;0.92385;-0.002549;0.002549;0.014018
0.83784;-5.374184;1.003636;-0.778314;0.052311;-0.054068;0.781942;0.002602;-0.002189;0.002285;0.882684;1.188456;0.841428;1.132908;0.003517;-0.003104;0.003311;26.342211;161.342209;0.004414;0.003825;0.002602;9.880576e-04;0.003582;-0.002189;0.002594;0.949568;4.12574e-04;-4.12574e-04;0.032331
0.905005;-5.374184;1.020409;-0.778425;0.052605;-0.058795;0.782412;0.00483;5.180637e-04;0.004558;0.306935;-9.323272;-0.107258;3.258023;0.007717;-0.002368;0.005043;103.603706;58.603706;0.006723;0.006089;0.00483;0.008046;0.001071;5.180637e-04;-0.006975;0.961614;0.005348;-0.005348;0.031979
0.97217;-5.374184;0.999135;-0.778256;0.052736;-0.057231;0.782137;-0.008385;0.010324;0.001173;0.813508;0.812185;1.231247;1.229244;0.010397;-0.008458;0.009428;167.92775;122.92775;0.01257;0.010905;-0.008385;0.004345;-0.001999;0.010324;-0.006343;0.941904;0.001939;-0.001939;0.010862
1.039336;-5.374184;0.981596;-0.778216;0.052674;-0.051637;0.781704;-0.006083;0.013523;0.009569;0.572897;0.449847;2.222976;1.745516;0.01742;-0.00998;0.0137;146.721985;101.721977;0.018266;0.016012;-0.006083;0.018663;4.758218e-04;0.013523;-0.018187;0.929959;0.00744;-0.00744;0.012603
1.106501;-5.374184;0.947811;-0.778497;0.052583;-0.057782;0.782408;0.027248;0.01479;0.023775;0.078049;-1.842401;-0.54277;12.812401;0.045597;-0.003559;0.024578;104.94487;59.94487;0.032771;0.031651;0.027248;0.044483;0.003068;0.01479;-0.041415;0.890029;0.042038;-0.042038;0.049015
1.173667;-5.374184;0.891688;-0.778601;0.052818;-0.062307;0.782873;-0.002822;0.019781;0.02782;0.559587;0.142645;7.010409;1.787033;0.038508;-0.021549;0.030028;135.942612;90.942612;0.040038;0.035132;-0.002822;0.050839;0.004802;0.019781;-0.046037;0.829381;0.016959;-0.016959;0.055974
1.240832;-5.374184;0.843196;-0.778373;0.053131;-0.055655;0.782167;-0.017445;0.01246;0.016856;1.248724;1.400025;0.714273;0.800818;0.02004;-0.025025;0.022533;160.325348;115.325348;0.030043;0.026071;-0.017445;0.032459;0.001254;0.01246;-0.031205;0.78754;-0.004984;0.004984;0.027786
1.307997;-5.374184;0.793198;-0.778536;0.052846;-0.057248;0.782424;-0.006905;0.002699;0.004847;1.890976;2.557919;0.390943;0.528827;0.00472;-0.008925;0.006823;167.903671;122.903664;0.009097;0.008002;-0.006905;0.010304;-6.107592e-04;0.002699;-0.010915;0.735951;-0.004205;0.004205;0.010188
1.375163;-5.374184;0.72301;-0.778729;0.053024;-0.054192;0.782412;-0.004492;0.001555;0.001043;2.697734;2.888536;0.346196;0.370682;0.00173;-0.004667;0.003198;11.906644;146.906647;0.004264;0.00382;-0.004492;0.002626;-5.406179e-04;0.001555;-0.003167;0.668819;-0.002937;0.002937;0.028316
1.442328;-5.374184;0.636205;-0.778666;0.052886;-0.053512;0.782292;-0.004831;0.003219;0.00636;1.239794;1.500642;0.666382;0.806585;0.006721;-0.008333;0.007527;154.885254;109.885254;0.010036;0.008708;-0.004831;0.012528;1.920967e-04;0.003219;-0.012336;0.582694;-0.001612;0.001612;0.004051
1.509493;-5.374184;0.554802;-0.778723;0.053042;-0.052238;0.782274;-0.0124;0.006965;0.016287;1.334854;1.780299;0.561703;0.749145;0.01623;-0.021665;0.018947;155.728088;110.728081;0.025263;0.021953;-0.0124;0.030633;0.00194;0.006965;-0.028693;0.502564;-0.005435;0.005435;0.013545
-0.303971;-5.441349;0.422096;-0.778687;0.050311;-0.047728;0.781769;-0.114065;-0.002328;0.001413;-49.378082;-48.991589;-0.020412;-0.020252;-0.00231;-0.114083;0.055886;46.123669;1.123669;0.074515;0.075297;-0.114065;-0.002346;0.005172;-0.002328;0.007519;0.374368;-0.116394;0.116394;0.044839
-0.236806;-5.441349;0.508518;-0.777559;0.051012;-0.060225;0.781554;-0.059;-6.410733e-04;-0.009215;77.528221;-92.032387;-0.010866;0.012899;7.793279e-04;-0.06042;0.0306;64.870743;19.870745;0.040799;0.040542;-0.059;-0.021394;0.002964;-6.410733e-04;0.024358;0.448293;-0.059641;0.059641;0.03684
-0.169641;-5.441349;0.594842;-0.777295;0.051005;-0.060815;0.781337;0.035876;0.002987;-0.024368;0.204099;-12.010707;-0.083259;4.899584;0.048829;-0.009966;0.029397;171.041092;126.041092;0.039197;0.036333;0.035876;-0.049177;4.418996e-04;0.002987;0.049619;0.534027;0.038863;-0.038863;0.016288
-0.102475;-5.441349;0.683446;-0.777193;0.051203;-0.046365;0.780257;0.040162;0.001271;-0.020744;0.157011;-31.609539;-0.031636;6.368966;0.049149;-0.007717;0.028433;178.746033;133.746033;0.037911;0.035618;0.040162;-0.041941;4.531869e-04;0.001271;0.042394;0.63708;0.041432;-0.041432;0.00718
-0.03531;-5.441349;0.718715;-0.777607;0.051264;-0.04702;0.780712;-0.021644;-0.005024;-0.009049;-24.446836;-4.30839;-0.232105;-0.040905;-0.001048;-0.025619;0.012286;86.837715;41.837715;0.016381;0.016741;-0.021644;-0.018821;7.236389e-04;-0.005024;0.019545;0.671694;-0.026667;0.026667;0.013111
0.031855;-5.441349;0.76866;-0.777618;0.0515;-0.055424;0.78129;-0.023319;-0.002761;-0.006233;-24.605906;-8.446049;-0.118399;-0.040641;-0.001018;-0.025061;0.012021;75.083984;30.083986;0.016028;0.016378;-0.023319;-0.013442;9.750082e-04;-0.002761;0.014417;0.713237;-0.026079;0.026079;0.024426
0.099021;-5.441349;0.83757;-0.777358;0.051543;-0.056899;0.78114;-0.002164;8.311355e-05;-0.003957;1.676941;26.033403;0.038412;0.596324;0.003074;-0.005154;0.004114;121.757469;76.757469;0.005485;0.004801;-0.002164;-0.009496;0.001581;8.311355e-05;0.011078;0.780671;-0.002081;0.002081;0.055091
0.166186;-5.441349;0.880681;-0.777543;0.051822;-0.054145;0.781146;-0.007557;0.001604;-0.007995;1.954503;4.712747;0.21219;0.511639;0.006237;-0.012191;0.009214;110.841881;65.841881;0.012285;0.010823;-0.007557;-0.016887;8.974822e-04;0.001604;0.017785;0.826536;-0.005954;0.005954;0.048511
0.233352;-5.441349;0.921155;-0.777508;0.05167;-0.060067;0.781535;-0.010042;-0.001052;-0.010162;2.99395;-9.543603;-0.104782;0.334007;0.005564;-0.016659;0.011112;108.751907;63.751907;0.014815;0.013353;-0.010042;-0.020322;-1.39595e-06;-0.001052;0.020321;0.861088;-0.011095;0.011095;0.018713
0.300517;-5.441349;0.942332;-0.777637;0.051971;-0.058931;0.781597;0.005711;-9.806236e-04;-0.004451;0.403721;5.824028;0.171702;2.47696;0.007933;-0.003203;0.005568;166.96254;121.96254;0.007424;0.00662;0.005711;-0.009095;1.931499e-04;-9.806236e-04;0.009288;0.883401;0.004731;-0.004731;0.020276
0.367682;-5.441349;0.996022;-0.77782;0.051914;-0.05436;0.781443;0.009203;8.1976e-04;0.005065;0.134929;-11.22668;-0.089074;7.411301;0.011586;-0.001563;0.006575;89.361206;44.361206;0.008766;0.008295;0.009203;0.009028;0.001103;8.1976e-04;-0.007925;0.941662;0.010023;-0.010023;0.04622
0.434848;-5.441349;1.018065;-0.778331;0.051917;-0.055272;0.782016;-0.00441;-0.00299;0.006473;3.631982;-1.474944;-0.677992;0.275332;0.002812;-0.010212;0.006512;149.225677;104.225677;0.008682;0.007913;-0.00441;0.015543;-0.002598;-0.00299;-0.018141;0.962793;-0.0074;0.0074;0.04166
0.502013;-5.441349;1.008399;-0.778009;0.051709;-0.059582;0.781999;0.002665;2.200124e-04;0.001439;0.133739;-12.113936;-0.08255;7.477239;0.003331;-4.454412e-04;0.001888;97.028915;52.028915;0.002517;0.002383;0.002665;0.003455;-5.773613e-04;2.200124e-04;-0.004032;0.948817;0.002885;-0.002885;0.019943
0.569178;-5.441349;1.010731;-0.777961;0.051944;-0.062949;0.78223;6.726544e-04;-0.00195;-0.003584;1.401937;0.344998;2.898566;0.713299;0.003177;-0.004454;0.003816;140.836868;95.836876;0.005088;0.004427;6.726544e-04;-0.007895;7.283419e-04;-0.00195;0.008624;0.947782;-0.001277;0.001277;0.027607
0.636344;-5.441349;1.00441;-0.778047;0.051894;-0.05036;0.781401;-0.001637;0.002177;-0.004717;0.899224;0.752014;1.329763;1.112071;0.005358;-0.004818;0.005088;125.229813;80.229813;0.006784;0.005878;-0.001637;-0.010959;0.001525;0.002177;0.012484;0.954051;5.399508e-04;-5.399508e-04;1.217445e-04
0.703509;-5.441349;0.996304;-0.777886;0.052067;-0.058959;0.781853;-0.002768;0.005021;0.012124;0.83741;0.551205;1.814206;1.194158;0.013861;-0.011607;0.012734;140.316269;95.316261;0.016979;0.014723;-0.002768;0.021072;0.003175;0.005021;-0.017897;0.937346;0.002254;-0.002254;0.023732
0.770674;-5.441349;1.016231;-0.778226;0.052284;-0.059665;0.782259;-0.001768;5.755547e-04;-0.00117;2.125035;3.071666;0.325556;0.47058;0.00106;-0.002252;0.001656;88.033669;43.033669;0.002208;0.001953;-0.001768;-0.00169;-6.500743e-04;5.755547e-04;0.00104;0.956566;-0.001192;0.001192;0.026891
0.83784;-5.441349;1.019526;-0.778359;0.052303;-0.055582;0.782092;0.002212;0.001679;-0.001413;-0.150149;-1.317203;-0.759184;-6.660071;0.003383;5.080082e-04;0.001438;165.200134;120.200134;0.001917;0.002107;0.002212;-0.003061;2.358746e-04;0.001679;0.003297;0.963943;0.003891;-0.003891;0.005184
0.905005;-5.441349;1.038862;-0.778254;0.052329;-0.057334;0.782116;0.004765;0.003418;1.161275e-04;-0.713747;-1.394074;-0.717322;-1.401056;0.004775;0.003408;6.833731e-04;42.834969;177.834976;9.111641e-04;0.002839;0.004765;-9.125819e-04;0.001145;0.003418;0.002057;0.981528;0.008182;-0.008182;0.01473
0.97217;-5.441349;0.998308;-0.778051;0.052377;-0.057972;0.781964;-0.008291;0.005425;-8.025283e-04;1.523832;1.528351;0.6543;0.65624;0.005472;-0.008338;0.006905;76.235321;31.235321;0.009206;0.00803;-0.008291;-0.002911;0.001306;0.005425;0.004217;0.940335;-0.002866;0.002866;0.017747
1.039336;-5.441349;0.977278;-0.778339;0.052476;-0.051683;0.781816;-0.011579;0.007;-0.005837;1.527489;1.654196;0.604523;0.654669;0.008681;-0.01326;0.010971;97.247253;52.247257;0.014628;0.01276;-0.011579;-0.013034;0.001361;0.007;0.014395;0.925594;-0.004579;0.004579;0.028112
1.106501;-5.441349;0.933974;-0.778507;0.052513;-0.051549;0.781977;0.00339;0.002352;-2.741775e-04;-0.660366;-1.441677;-0.693636;-1.514313;0.003458;0.002284;5.872501e-04;17.49778;152.497772;7.830001e-04;0.00203;0.00339;-0.001748;0.001199;0.002352;0.002947;0.882426;0.005742;-0.005742;0.024129
1.173667;-5.441349;0.88466;-0.778493;0.052596;-0.052234;0.782015;-0.001656;9.747471e-04;0.008584;1.081632;1.698768;0.588662;0.924529;0.008344;-0.009025;0.008684;140.934296;95.934296;0.011579;0.01003;-0.001656;0.014758;0.00241;9.747471e-04;-0.012348;0.832426;-6.81122e-04;6.81122e-04;0.016897
1.240832;-5.441349;0.854793;-0.778346;0.052929;-0.051067;0.781813;0.007833;0.003604;-2.137598e-04;-0.458114;-2.173344;-0.46012;-2.182861;0.007844;0.003593;0.002125;40.190311;175.190308;0.002834;0.004534;0.007833;-5.982912e-04;1.707715e-04;0.003604;7.690627e-04;0.803726;0.011437;-0.011437;0.037902
1.307997;-5.441349;0.805296;-0.778707;0.052788;-0.055329;0.782452;0.00695;0.004661;-0.009365;0.238113;-1.491052;-0.670667;4.199678;0.015241;-0.003629;0.009435;155.971954;110.971954;0.01258;0.011562;0.00695;-0.017664;-0.001066;0.004661;0.016598;0.749967;0.011612;-0.011612;0.004655
1.375163;-5.441349;0.731628;-0.778614;0.052803;-0.054304;0.78229;-9.135962e-04;0.002;-0.01343;0.922665;0.456724;2.189508;1.083817;0.014052;-0.012965;0.013509;133.070816;88.070808;0.018012;0.015603;-9.135962e-04;-0.026766;-9.39285e-05;0.002;0.026672;0.677325;0.001087;-0.001087;0.021077
1.442328;-5.441349;0.663271;-0.77852;0.052596;-0.056461;0.782335;-0.01223;9.65881e-05;-0.014509;2.25121;126.615395;0.007898;0.444205;0.009697;-0.02183;0.015763;112.366798;67.366798;0.021018;0.018646;-0.01223;-0.029336;3.186739e-04;9.65881e-05;0.029655;0.60681;-0.012133;0.012133;0.006593
1.509493;-5.441349;0.573938;-0.778798;0.052796;-0.051307;0.782269;-0.03228;0.001026;-0.008263;11.546831;31.463688;0.031783;0.086604;0.002963;-0.034217;0.01859;74.045624;29.045624;0.024787;0.023861;-0.03228;-0.017915;0.001388;0.001026;0.019303;0.522631;-0.031254;0.031254;0.016684
-0.303971;-5.508514;0.392217;-0.778003;0.050782;-0.037184;0.780544;-0.115151;-0.007333;-0.035462;38.29229;-15.70224;-0.063685;0.026115;0.003284;-0.125768;0.064526;77.515106;32.515106;0.086035;0.084962;-0.115151;-0.073275;0.002352;-0.007333;0.075627;0.355033;-0.122484;0.122484;0.065181
-0.236806;-5.508514;0.500201;-0.777158;0.051245;-0.05544;0.780816;-0.047943;-8.672769e-04;-0.020223;8.365129;-55.279541;-0.01809;0.119544;0.006627;-0.055437;0.031032;85.444214;40.44421;0.041376;0.039354;-0.047943;-0.040861;4.154165e-04;-8.672769e-04;0.041277;0.444761;-0.04881;0.04881;0.006572
-0.169641;-5.508514;0.609316;-0.777103;0.050977;-0.053578;0.780614;0.022692;0.001094;-0.009329;0.090889;-20.745546;-0.048203;11.002393;0.026163;-0.002378;0.014271;5.631502;140.6315;0.019028;0.018286;0.022692;-0.018592;-6.681122e-05;0.001094;0.018525;0.555738;0.023785;-0.023785;0.021731
-0.102475;-5.508514;0.691562;-0.777183;0.051151;-0.04801;0.780343;0.012821;-0.001621;0.016477;0.525221;7.909623;0.126428;1.903959;0.02359;-0.01239;0.01799;112.746346;67.746346;0.023987;0.021106;0.012821;0.031187;0.001768;-0.001621;-0.029419;0.643552;0.0112;-0.0112;2.533913e-04
-0.03531;-5.508514;0.703675;-0.777379;0.051398;-0.053109;0.780885;-0.013031;-0.003385;0.015491;3.047899;-3.849301;-0.259787;0.328095;0.008016;-0.024432;0.016224;159.050568;114.050568;0.021632;0.019517;-0.013031;0.029256;0.001726;-0.003385;-0.02753;0.650566;-0.016416;0.016416;0.007354
0.031855;-5.508514;0.769484;-0.77735;0.051532;-0.052977;0.780856;-0.013534;0.003163;3.672909e-04;4.270964;4.279315;0.233682;0.234139;0.003171;-0.013542;0.008357;42.343727;177.343735;0.011142;0.01025;-0.013534;6.203217e-04;1.142601e-04;0.003163;-5.060616e-04;0.716507;-0.010372;0.010372;0.008243
0.099021;-5.508514;0.836513;-0.777557;0.051364;-0.056883;0.781325;-0.006953;0.005853;-0.003293;1.165482;1.18802;0.841737;0.858014;0.00665;-0.00775;0.0072;99.199799;54.199799;0.0096;0.008322;-0.006953;-0.00684;2.546695e-04;0.005853;0.007095;0.779631;-0.0011;0.0011;0.045783
0.166186;-5.508514;0.882685;-0.777541;0.051484;-0.055198;0.781196;0.005148;0.004984;-0.002357;-0.364687;-1.03293;-0.96812;-2.742078;0.007425;0.002708;0.002358;168.732559;123.732567;0.003145;0.004339;0.005148;-0.004669;-4.519519e-05;0.004984;0.004624;0.827488;0.010132;-0.010132;0.049599
0.233352;-5.508514;0.923012;-0.777524;0.051277;-0.053698;0.781061;-0.00248;0.004893;-0.006308;0.71659;0.506889;1.972819;1.395499;0.008513;-0.0061;0.007306;124.154869;79.154869;0.009742;0.008475;-0.00248;-0.014275;0.001659;0.004893;0.015934;0.869314;0.002413;-0.002413;0.010588
0.300517;-5.508514;0.921215;-0.77775;0.05164;-0.055848;0.781461;-0.008458;0.002321;-0.00525;2.377187;3.643513;0.27446;0.420665;0.004456;-0.010593;0.007525;100.931686;55.931683;0.010033;0.008926;-0.008458;-0.0127;0.002199;0.002321;0.0149;0.865367;-0.006137;0.006137;0.018246
0.367682;-5.508514;0.958585;-0.777709;0.051723;-0.059934;0.781728;-0.009859;0.004963;-7.835222e-04;1.978331;1.986473;0.503405;0.505477;0.005004;-0.0099;0.007452;48.573196;3.573195;0.009937;0.008759;-0.009859;-8.310139e-04;-7.360305e-04;0.004963;9.49834e-05;0.898652;-0.004896;0.004896;0.05875
0.434848;-5.508514;1.0027;-0.777932;0.051781;-0.061272;0.782058;-9.053504e-04;0.003359;-8.893503e-04;0.30632;0.269547;3.709928;3.264563;0.003537;-0.001083;0.00231;120.322426;75.322426;0.00308;0.00279;-9.053504e-04;-0.002459;6.806432e-04;0.003359;0.00314;0.941428;0.002453;-0.002453;0.001072
0.502013;-5.508514;1.001293;-0.777844;0.051656;-0.058492;0.781749;-1.796758e-04;6.712876e-04;-0.003508;0.869923;0.267658;3.736106;1.149527;0.003779;-0.003288;0.003534;133.755829;88.755821;0.004711;0.004084;-1.796758e-04;-0.006683;-3.332279e-04;6.712876e-04;0.006349;0.942801;4.916119e-04;-4.916119e-04;0.013223
0.569178;-5.508514;1.018735;-0.777965;0.051627;-0.061666;0.782111;0.008734;0.008861;-0.008315;-0.028145;-0.98561;-1.0146;-35.530098;0.017113;4.816469e-04;0.008316;158.512222;113.512215;0.011088;0.011252;0.008734;-0.016387;-2.439161e-04;0.008861;0.016143;0.957068;0.017595;-0.017595;0.004166
0.636344;-5.508514;1.032273;-0.778047;0.051883;-0.050173;0.781387;0.001279;0.00733;-0.004529;0.117141;-0.17449;-5.730994;8.536722;0.009752;-0.001142;0.005447;149.003616;104.003624;0.007263;0.006913;0.001279;-0.006842;-0.002216;0.00733;0.004626;0.9821;0.008609;-0.008609;0.022636
0.703509;-5.508514;1.028448;-0.777946;0.051809;-0.053144;0.781479;-1.793579e-04;0.006919;0.007902;0.439867;0.025922;38.576809;2.273416;0.012032;-0.005293;0.008662;133.169159;88.169159;0.01155;0.010252;-1.793579e-04;0.01428;0.001524;0.006919;-0.012756;0.975304;0.00674;-0.00674;0.02347
0.770674;-5.508514;1.039476;-0.778201;0.052097;-0.058929;0.782166;-0.002042;0.003025;0.001592;0.717818;0.67503;1.481415;1.39311;0.003484;-0.002501;0.002993;89.216232;44.216228;0.00399;0.003471;-0.002042;7.602711e-04;0.002424;0.003025;0.001664;0.980547;9.831592e-04;-9.831592e-04;0.006902
0.83784;-5.508514;1.02003;-0.778283;0.052038;-0.056591;0.782071;-0.001325;-0.001019;0.002359;2.966059;-1.300672;-0.768834;0.337148;0.001192;-0.003536;0.002364;157.588135;112.588127;0.003152;0.002839;-0.001325;0.003685;0.001033;-0.001019;-0.002653;0.963439;-0.002344;0.002344;0.00979
0.905005;-5.508514;1.009772;-0.777927;0.051975;-0.054905;0.781592;3.15285e-04;-0.008401;0.006525;3.125891;0.037528;26.646801;0.319909;0.003804;-0.01189;0.007847;136.491837;91.491844;0.010462;0.009453;3.15285e-04;0.011944;0.001106;-0.008401;-0.010839;0.954867;-0.008086;0.008086;0.003823
0.97217;-5.508514;0.974639;-0.777969;0.052136;-0.057032;0.781797;0.003453;-0.009935;0.006743;2.035308;0.347591;2.876946;0.491326;0.006261;-0.012743;0.009502;122.545654;77.545654;0.012669;0.011182;0.003453;0.015704;-0.002218;-0.009935;-0.017922;0.917607;-0.006482;0.006482;0.021415
1.039336;-5.508514;0.978472;-0.778402;0.052213;-0.061257;0.782553;-0.002775;0.001469;9.286508e-04;1.785283;1.889194;0.529326;0.560135;0.001663;-0.002969;0.002316;60.678677;15.678678;0.003088;0.002709;-0.002775;-3.762496e-06;0.001861;0.001469;0.001865;0.917215;-0.001306;0.001306;0.046941
1.106501;-5.508514;0.92937;-0.778445;0.052392;-0.057047;0.782289;-0.009526;0.004427;-0.007206;1.681729;2.151896;0.464707;0.594626;0.00748;-0.012579;0.01003;104.573967;59.573967;0.013373;0.011705;-0.009526;-0.015663;0.001251;0.004427;0.016914;0.872323;-0.005099;0.005099;0.044269
1.173667;-5.508514;0.872776;-0.77853;0.052438;-0.055681;0.782278;2.676071e-04;0.001195;-0.008356;0.839232;-0.223851;-4.467266;1.191566;0.009101;-0.007637;0.008369;135.525574;90.525566;0.011159;0.009676;2.676071e-04;-0.018249;0.001537;0.001195;0.019787;0.817095;0.001463;-0.001463;0.033636
1.240832;-5.508514;0.838079;-0.778642;0.052699;-0.056942;0.782497;0.011451;0.002339;-0.007957;0.141587;-4.896497;-0.204228;7.06277;0.016064;-0.002275;0.00917;173.565048;128.565048;0.012226;0.011543;0.011451;-0.014312;-0.001603;0.002339;0.012709;0.781137;0.01379;-0.01379;0.037575
1.307997;-5.508514;0.780379;-0.778987;0.052266;-0.062029;0.783198;0.006881;0.004388;3.807328e-04;-0.624251;-1.568213;-0.637668;-1.601919;0.006938;0.004331;0.001303;58.945686;13.945685;0.001738;0.004047;0.006881;0.001467;-7.051888e-04;0.004388;-0.002172;0.71835;0.011269;-0.011269;0.011459
1.375163;-5.508514;0.734642;-0.778421;0.052613;-0.05831;0.782373;0.006558;0.002838;3.612418e-04;-0.425187;-2.310854;-0.432741;-2.351906;0.006592;0.002803;0.001895;41.986313;176.986313;0.002526;0.00382;0.006558;-0.001077;0.001799;0.002838;0.002876;0.676332;0.009395;-0.009395;0.017632
1.442328;-5.508514;0.664505;-0.778363;0.052699;-0.06021;0.782465;-0.011582;0.001724;-0.008437;2.694922;6.716754;0.148881;0.371068;0.005816;-0.015674;0.010745;101.388878;56.388878;0.014326;0.012835;-0.011582;-0.017342;4.675884e-04;0.001724;0.01781;0.604295;-0.009858;0.009858;0.032086
1.509493;-5.508514;0.56602;-0.778758;0.052752;-0.054122;0.782417;-0.039089;0.002486;-0.013358;6.711417;15.720757;0.06361;0.149;0.006409;-0.043011;0.02471;79.987564;34.987564;0.032946;0.031032;-0.039089;-0.027275;5.578508e-04;0.002486;0.027833;0.511899;-0.036602;0.036602;0.03702
-0.236806;-5.57568;0.510104;-0.777231;0.051046;-0.0539;0.780769;-0.028779;0.004877;0.002718;5.691514;5.901302;0.169454;0.1757;0.005095;-0.028997;0.017046;33.027744;168.02774;0.022728;0.021234;-0.028779;0.005869;-4.330337e-04;0.004877;-0.006302;0.456204;-0.023902;0.023902;0.020222
-0.169641;-5.57568;0.606942;-0.77726;0.050885;-0.053253;0.780743;-0.006462;0.005193;0.010138;1.114738;1.244339;0.803639;0.897072;0.011059;-0.012328;0.011693;151.801727;106.80172;0.015591;0.013509;-0.006462;0.019918;3.577873e-04;0.005193;-0.01956;0.55369;-0.001269;0.001269;0.005686
-0.102475;-5.57568;0.698751;-0.77729;0.051137;-0.05719;0.781067;-0.010406;0.00338;0.022736;1.347076;3.078876;0.324794;0.742349;0.020244;-0.027271;0.023758;148.319183;103.319191;0.031677;0.027533;-0.010406;0.043134;0.002337;0.00338;-0.040797;0.641561;-0.007026;0.007026;0.015342
-0.03531;-5.57568;0.737694;-0.777259;0.051001;-0.056991;0.781013;0.006298;-0.002432;0.016311;0.794525;2.590049;0.386093;1.258613;0.018818;-0.014952;0.016885;123.92247;78.92247;0.022513;0.01954;0.006298;0.031674;9.4796e-04;-0.002432;-0.030726;0.680703;0.003867;-0.003867;0.040478
0.031855;-5.57568;0.806123;-0.777418;0.05107;-0.053094;0.7809;0.00253;-5.390623e-04;0.011018;0.835746;4.692764;0.213094;1.196535;0.012119;-0.010129;0.011124;128.759827;83.759834;0.014832;0.012862;0.00253;0.023519;-0.001484;-5.390623e-04;-0.025003;0.753028;0.001991;-0.001991;0.011311
0.099021;-5.57568;0.847549;-0.777641;0.050814;-0.05373;0.781149;-0.010378;0.001992;0.008018;2.413424;5.210787;0.19191;0.414349;0.005933;-0.014319;0.010126;167.023819;122.023811;0.013502;0.012022;-0.010378;0.016464;-4.273174e-04;0.001992;-0.016891;0.793819;-0.008386;0.008386;0.034022
0.166186;-5.57568;0.879368;-0.777439;0.051128;-0.05665;0.781175;0.005207;0.005104;0.011441;0.378694;-1.02013;-0.980267;2.640652;0.016597;-0.006285;0.011441;122.615097;77.615097;0.015254;0.013651;0.005207;0.022748;1.339223e-04;0.005104;-0.022614;0.822717;0.010312;-0.010312;0.037228
0.233352;-5.57568;0.925627;-0.777412;0.051086;-0.052013;0.780823;0.004356;-5.437274e-04;0.011251;0.715932;8.011874;0.124815;1.39678;0.013421;-0.009609;0.011515;123.838959;78.838959;0.015353;0.013357;0.004356;0.022021;4.816153e-04;-5.437274e-04;-0.021539;0.873614;0.003813;-0.003813;0.017843
0.300517;-5.57568;0.932567;-0.777604;0.051415;-0.053381;0.781128;-0.011542;-0.007436;0.010212;21.467278;-1.552194;-0.644249;0.046583;9.27265e-04;-0.019906;0.010417;165.353195;120.353195;0.013889;0.01359;-0.011542;0.018363;0.002061;-0.007436;-0.016302;0.879186;-0.018979;0.018979;0.004883
0.367682;-5.57568;0.967627;-0.777636;0.051226;-0.055969;0.781328;-0.01303;-0.003422;0.007357;30.346008;-3.807616;-0.262632;0.032953;5.606161e-04;-0.017012;0.008787;178.092224;133.092224;0.011715;0.011533;-0.01303;0.013546;0.001168;-0.003422;-0.012379;0.911658;-0.016452;0.016452;0.052964
0.434848;-5.57568;0.984686;-0.777722;0.051479;-0.05771;0.781557;0.00193;2.878631e-05;2.024355e-04;0;-67.053665;-0.014913;0;0.001952;7.473069e-06;9.720339e-04;15.526875;150.526871;0.001296;0.001299;0.00193;-0.002637;0.003042;2.878631e-05;0.005679;0.926977;0.001959;-0.001959;0.004994
0.502013;-5.57568;1.009536;-0.777797;0.051755;-0.053915;0.781379;0.007467;0.001542;-0.003613;0.018256;-4.843139;-0.206478;54.777313;0.009177;-1.67527e-04;0.004672;2.537683;137.537689;0.006229;0.006174;0.007467;-0.006683;-5.420141e-04;0.001542;0.006141;0.95562;0.009009;-0.009009;0.024368
0.569178;-5.57568;1.02397;-0.777911;0.051621;-0.050922;0.781284;0.005267;0.0013;-0.00376;0.128352;-4.050363;-0.246891;7.7911;0.007535;-9.670836e-04;0.004251;164.512665;119.512665;0.005668;0.005375;0.005267;-0.009179;0.00166;0.0013;0.010839;0.973047;0.006568;-0.006568;0.003855
0.636344;-5.57568;1.038756;-0.777989;0.051799;-0.051707;0.781424;-0.001031;-1.45546e-04;-1.434275e-05;-7.099248;-7.086329;-0.141117;-0.14086;-1.453138e-04;-0.001032;4.431524e-04;80.580444;35.580448;5.908699e-04;6.447893e-04;-0.001031;-0.001572;0.001543;-1.45546e-04;0.003116;0.987049;-0.001177;0.001177;0.026639
0.703509;-5.57568;1.028134;-0.778037;0.05185;-0.052434;0.781524;0.001326;4.443031e-04;-4.356335e-04;-0.176337;-2.984536;-0.33506;-5.670974;0.001505;2.653798e-04;6.19791e-04;27.26874;162.268738;8.26388e-04;9.275895e-04;0.001326;-2.923412e-04;-5.789258e-04;4.443031e-04;-2.865845e-04;0.9757;0.00177;-0.00177;0.027096
0.770674;-5.57568;1.016322;-0.778267;0.05202;-0.057267;0.782103;-2.227484e-04;0.002273;-0.001824;0.366304;0.098014;10.202675;2.729972;0.003235;-0.001185;0.00221;130.558502;85.558495;0.002946;0.002642;-2.227484e-04;-0.003974;3.257082e-04;0.002273;0.004299;0.959055;0.00205;-0.00205;0.024036
0.83784;-5.57568;1.00305;-0.778117;0.051946;-0.052664;0.781626;-0.004936;0.003067;-6.33946e-04;1.599825;1.609586;0.621278;0.625068;0.003117;-0.004986;0.004051;81.997604;36.997608;0.005402;0.00472;-0.004936;-0.002638;0.00137;0.003067;0.004008;0.950386;-0.001869;0.001869;0.031962
0.905005;-5.57568;0.995973;-0.777875;0.052134;-0.052134;0.781362;-0.009438;0.001668;9.690417e-04;5.435392;5.65855;0.176724;0.183979;0.001752;-0.009522;0.005637;47.669689;2.66969;0.007516;0.007005;-0.009438;-8.929447e-05;0.002027;0.001668;0.002117;0.943839;-0.00777;0.00777;0.002736
0.97217;-5.57568;0.962185;-0.778069;0.052151;-0.046258;0.781186;0.001095;-0.001546;0.003236;1.13806;0.708098;1.412235;0.878688;0.00327;-0.003721;0.003495;126.803375;81.803375;0.004661;0.004039;0.001095;0.005455;0.001017;-0.001546;-0.004438;0.915927;-4.514192e-04;4.514192e-04;0.017416
1.039336;-5.57568;0.945812;-0.77838;0.052151;-0.054609;0.782034;0.007835;-0.002333;0.004066;0.405942;3.357778;0.297816;2.463407;0.009261;-0.003759;0.00651;91.702896;46.702892;0.00868;0.007738;0.007835;0.007959;1.734506e-04;-0.002333;-0.007786;0.891203;0.005502;-0.005502;0.017736
1.106501;-5.57568;0.921807;-0.778376;0.052108;-0.055548;0.782094;-0.001447;0.00248;0.006968;0.866863;0.583631;1.713411;1.153585;0.007755;-0.006723;0.007239;140.229797;95.229797;0.009652;0.008366;-0.001447;0.012555;0.00138;0.00248;-0.011175;0.866259;0.001033;-0.001033;0.021781
1.173667;-5.57568;0.893841;-0.77825;0.052527;-0.056591;0.782071;0.002079;0.002553;0.005121;0.377717;-0.814287;-1.228069;2.647481;0.007442;-0.002811;0.005127;113.552025;68.552025;0.006835;0.006118;0.002079;0.007393;0.002849;0.002553;-0.004544;0.83725;0.004631;-0.004631;0.030472
1.240832;-5.57568;0.857901;-0.778358;0.052679;-0.056595;0.782189;-0.008334;0.005045;0.00678;1.417452;1.652027;0.605317;0.705491;0.00788;-0.011169;0.009524;161.884811;116.884804;0.012699;0.011052;-0.008334;0.016988;-0.003428;0.005045;-0.020416;0.801306;-0.003289;0.003289;0.001222
1.307997;-5.57568;0.802111;-0.778941;0.051955;-0.052751;0.782452;0.002633;0.007245;0.014646;0.500232;-0.36347;-2.751256;1.999071;0.019766;-0.009887;0.014826;131.013504;86.013504;0.019769;0.017434;0.002633;0.030882;-0.00159;0.007245;-0.032472;0.74936;0.009878;-0.009878;0.026501
1.375163;-5.57568;0.734842;-0.778522;0.052479;-0.054317;0.782177;0.025738;0.001902;0.002874;-0.059814;-13.535068;-0.073882;-16.718386;0.026079;0.00156;0.01226;53.459541;8.459541;0.016346;0.01689;0.025738;0.003686;0.002062;0.001902;-0.001623;0.680525;0.027639;-0.027639;0.033551
1.442328;-5.57568;0.654218;-0.778517;0.052531;-0.059848;0.782579;-0.001524;0.002506;-0.010504;0.912214;0.608187;1.644232;1.096234;0.011187;-0.010205;0.010696;130.853409;85.853416;0.014261;0.012355;-0.001524;-0.021453;4.444388e-04;0.002506;0.021897;0.59437;9.820423e-04;-9.820423e-04;0.037215
1.509493;-5.57568;0.564806;-0.77871;0.052553;-0.056086;0.782494;-0.034611;0.003152;-0.010493;6.357602;10.980813;0.091068;0.157292;0.005872;-0.03733;0.021601;76.891792;31.891788;0.028801;0.027057;-0.034611;-0.021393;4.067261e-04;0.003152;0.0218;0.508719;-0.031459;0.031459;0.009139
-0.236806;-5.642845;0.523484;-0.777068;0.05036;-0.052118;0.780441;-0.023498;0.006703;0.003436;3.368968;3.505411;0.285273;0.296827;0.007089;-0.023884;0.015487;26.488234;161.488235;0.020649;0.018738;-0.023498;0.007211;-3.379622e-04;0.006703;-0.007549;0.471366;-0.016795;0.016795;0.00643
-0.169641;-5.642845;0.610198;-0.777327;0.050287;-0.056017;0.780964;-0.016458;0.006156;0.007009;2.263851;2.6737;0.374014;0.441725;0.008152;-0.018455;0.013303;3.910003;138.910004;0.017738;0.01574;-0.016458;0.013233;7.852546e-04;0.006156;-0.012448;0.554181;-0.010303;0.010303;0.023259
-0.102475;-5.642845;0.68942;-0.777327;0.050506;-0.059841;0.781262;-0.005488;0.006257;-0.004699;0.902718;0.877086;1.140139;1.107766;0.007906;-0.007137;0.007522;111.07795;66.07795;0.010029;0.008689;-0.005488;-0.011005;0.001607;0.006257;0.012612;0.629579;7.691339e-04;-7.691339e-04;0.021107
-0.03531;-5.642845;0.749484;-0.777199;0.050674;-0.05933;0.781106;0.001854;0.005553;-0.003041;-0.019891;-0.333849;-2.99537;-50.272827;0.007263;1.44471e-04;0.003559;140.125839;95.125832;0.004746;0.004795;0.001854;-0.007218;0.001136;0.005553;0.008354;0.690154;0.007407;-0.007407;0.014685
0.031855;-5.642845;0.805852;-0.777163;0.050833;-0.058283;0.781001;-0.004766;0.004497;0.008203;1.02893;1.059738;0.94363;0.971883;0.009286;-0.009555;0.009421;150.246674;105.246674;0.012561;0.010878;-0.004766;0.015569;8.375956e-04;0.004497;-0.014732;0.747569;-2.686552e-04;2.686552e-04;0.005535
0.099021;-5.642845;0.854741;-0.777158;0.050796;-0.060511;0.781164;-0.008018;0.003448;0.009341;1.526885;2.325779;0.429964;0.654928;0.008675;-0.013246;0.01096;157.393646;112.393646;0.014614;0.012747;-0.008018;0.019047;-3.645624e-04;0.003448;-0.019412;0.79423;-0.004571;0.004571;0.021108
0.166186;-5.642845;0.868691;-0.777223;0.050914;-0.061422;0.781307;0.001362;3.034067e-04;0.00706;0.789587;-4.487385;-0.222847;1.266485;0.007913;-0.006248;0.00708;129.746521;84.746521;0.00944;0.008194;0.001362;0.014696;-5.756708e-04;3.034067e-04;-0.015272;0.807269;0.001665;-0.001665;0.037525
0.233352;-5.642845;0.940505;-0.777195;0.050619;-0.062434;0.78134;0.001588;-0.002206;0.010398;1.060166;0.72012;1.388657;0.943248;0.010261;-0.010878;0.010569;131.337219;86.337219;0.014092;0.012206;0.001588;0.016259;0.004536;-0.002206;-0.011723;0.87807;-6.173417e-04;6.173417e-04;0.050125
0.300517;-5.642845;0.969374;-0.777301;0.051268;-0.06114;0.781386;-0.006756;-0.004104;0.012621;2.495576;-1.646114;-0.607491;0.400709;0.007261;-0.018121;0.012691;156.940018;111.94001;0.016921;0.015095;-0.006756;0.019601;0.005642;-0.004104;-0.013958;0.908234;-0.01086;0.01086;0.016132
0.367682;-5.642845;1.025527;-0.777432;0.051287;-0.06279;0.781648;-0.003773;-0.003748;0.005892;4.527996;-1.006652;-0.993392;0.220848;0.002132;-0.009652;0.005892;159.690292;114.6903;0.007856;0.007251;-0.003773;0.009131;0.002653;-0.003748;-0.006478;0.962738;-0.007521;0.007521;0.022597
0.434848;-5.642845;1.016102;-0.777592;0.051532;-0.061083;0.781688;-1.368621e-04;2.229202e-04;-7.380883e-04;0.892792;0.613951;1.628795;1.120081;8.027232e-04;-7.16665e-04;7.596941e-04;128.753632;83.753624;0.001013;8.776881e-04;-1.368621e-04;-0.002784;0.001308;2.229202e-04;0.004092;0.955019;8.605815e-05;-8.605815e-05;0.012048
0.502013;-5.642845;1.020804;-0.777626;0.051484;-0.060377;0.781664;0.006873;-5.471461e-04;1.228143e-04;0.079882;12.561298;0.07961;12.518516;0.006875;-5.491783e-04;0.003712;60.029408;15.029407;0.004949;0.004777;0.006873;0.001816;-0.00157;-5.471461e-04;-0.003387;0.960427;0.006326;-0.006326;0.025728
0.569178;-5.642845;1.02985;-0.777552;0.05164;-0.054223;0.781149;0.002344;-1.482374e-04;4.135588e-04;0.089192;15.815152;0.06323;11.211823;0.002411;-2.150605e-04;0.001313;37.35968;172.35968;0.001751;0.001684;0.002344;-3.170473e-04;0.001144;-1.482374e-04;0.001461;0.975627;0.002196;-0.002196;0.006981
0.636344;-5.642845;1.021775;-0.77766;0.051901;-0.053996;0.781259;-0.002809;0.003275;-6.472861e-05;0.857743;0.857713;1.165892;1.165851;0.003275;-0.002809;0.003042;94.906403;49.906403;0.004057;0.003517;-0.002809;-0.001606;0.001477;0.003275;0.003083;0.967779;4.659518e-04;-4.659518e-04;0.022349
0.703509;-5.642845;1.038053;-0.777899;0.051739;-0.057854;0.781762;-0.005616;-7.728816e-04;0.002576;19.751442;-7.266252;-0.137623;0.050629;3.407116e-04;-0.00673;0.003535;2.854935;137.854935;0.004714;0.004604;-0.005616;0.005029;1.22131e-04;-7.728816e-04;-0.004907;0.980199;-0.006389;0.006389;0.023401
0.770674;-5.642845;1.047395;-0.777846;0.051666;-0.059721;0.781845;-0.001038;-0.002557;-0.005778;1.891887;-0.406013;-2.462974;0.528573;0.00403;-0.007625;0.005828;129.486465;84.486465;0.00777;0.006835;-0.001038;-0.011145;-4.105888e-04;-0.002557;0.010735;0.987675;-0.003595;0.003595;0.002954
0.83784;-5.642845;1.00948;-0.777893;0.051593;-0.057089;0.78169;-0.007549;1.701575e-04;-0.006303;2.993217;44.361839;0.022542;0.334089;0.003702;-0.01108;0.007391;107.85923;62.85923;0.009855;0.008882;-0.007549;-0.015078;0.002471;1.701575e-04;0.017549;0.952391;-0.007378;0.007378;0.014291
0.905005;-5.642845;0.992093;-0.777901;0.051988;-0.058233;0.781808;-0.009126;8.508019e-04;-0.005845;3.333279;10.72665;0.093226;0.300005;0.003547;-0.011822;0.007684;99.743629;54.743629;0.010246;0.009292;-0.009126;-0.013002;0.001312;8.508019e-04;0.014314;0.933861;-0.008275;0.008275;0.028036
0.97217;-5.642845;0.963614;-0.777885;0.051899;-0.052191;0.781359;-0.003156;-0.00291;-0.007211;2.451771;-1.084279;-0.922272;0.407868;0.004179;-0.010245;0.007212;121.792442;76.792442;0.009616;0.008569;-0.003156;-0.013587;-8.345347e-04;-0.00291;0.012752;0.911423;-0.006066;0.006066;0.042211
1.039336;-5.642845;0.951236;-0.778031;0.052079;-0.055524;0.781746;-8.929056e-06;1.518095e-04;-0.00154;0.911468;0;0;1.097132;0.001614;-0.001471;0.001542;134.92337;89.923363;0.002057;0.001782;-8.929056e-06;-0.002984;-9.693929e-05;1.518095e-04;0.002887;0.895712;1.428805e-04;-1.428805e-04;0.03576
1.106501;-5.642845;0.933914;-0.778209;0.052001;-0.052377;0.781701;-2.920077e-04;0.005019;0.003656;0.313209;0.058186;17.186216;3.192754;0.006882;-0.002156;0.004519;128.712524;83.712524;0.006025;0.00545;-2.920077e-04;0.005743;0.00157;0.005019;-0.004172;0.881537;0.004726;-0.004726;0.041122
1.173667;-5.642845;0.894415;-0.778388;0.052387;-0.054823;0.782073;0.006951;0.002737;0.002645;-0.177818;-2.539482;-0.393781;-5.623737;0.008225;0.001463;0.003381;69.847908;24.847908;0.004508;0.005067;0.006951;0.002496;0.002794;0.002737;2.981345e-04;0.839593;0.009688;-0.009688;0.032059
1.240832;-5.642845;0.851021;-0.778284;0.052577;-0.053723;0.781906;-0.012659;0.001026;-0.0059;4.614467;12.339303;0.081042;0.21671;0.003218;-0.014851;0.009035;83.578186;38.578186;0.012046;0.01113;-0.012659;-0.010186;-0.001614;0.001026;0.008572;0.797298;-0.011633;0.011633;0.031224
1.307997;-5.642845;0.820239;-0.77865;0.052229;-0.050748;0.782048;0.017135;-0.002472;-0.013392;0.387246;6.930094;0.144298;2.582339;0.023928;-0.009266;0.016597;167.565491;122.565483;0.022129;0.019778;0.017135;-0.026658;-1.264052e-04;-0.002472;0.026532;0.769491;0.014662;-0.014662;0.009745
1.375163;-5.642845;0.749935;-0.77842;0.052308;-0.060152;0.782491;0.041495;-0.001361;-0.023538;0.226675;30.489073;0.032799;4.411606;0.051898;-0.011764;0.031831;175.787552;130.787552;0.042442;0.039114;0.041495;-0.048089;0.001012;-0.001361;0.049101;0.689784;0.040134;-0.040134;0.020692
1.442328;-5.642845;0.663593;-0.778383;0.052313;-0.063414;0.782712;0.015363;6.755528e-04;-0.026931;0.553665;-22.741182;-0.043973;1.806148;0.035934;-0.019895;0.027914;150.777634;105.777634;0.037219;0.032673;0.015363;-0.05435;4.881313e-04;6.755528e-04;0.054838;0.600179;0.016038;-0.016038;0.021563
-0.169641;-5.71001;0.612355;-0.777182;0.050163;-0.059259;0.781051;0.007574;0.002102;0.008705;0.307025;-3.604162;-0.277457;3.257064;0.013963;-0.004287;0.009125;111.530609;66.530609;0.012167;0.011019;0.007574;0.01726;1.497815e-04;0.002102;-0.01711;0.553097;0.009676;-0.009676;0.036509
-0.102475;-5.71001;0.692191;-0.777123;0.050254;-0.052319;0.780501;0.01015;0.006359;-0.024972;0.504191;-1.596097;-0.626528;1.983374;0.033298;-0.016789;0.025043;146.121521;101.121513;0.033391;0.029437;0.01015;-0.050525;5.81881e-04;0.006359;0.051107;0.639872;0.01651;-0.01651;0.031637
-0.03531;-5.71001;0.758268;-0.776931;0.050319;-0.054552;0.780468;-0.014021;0.008706;-0.020368;1.257173;1.610486;0.620931;0.795435;0.020666;-0.025981;0.023324;117.032005;72.032005;0.031098;0.02699;-0.014021;-0.042722;0.001986;0.008706;0.044708;0.703716;-0.005315;0.005315;0.013602
0.031855;-5.71001;0.802719;-0.776987;0.050426;-0.05879;0.780838;-0.016359;0.0045;-0.003175;3.385116;3.635574;0.27506;0.295411;0.004972;-0.016832;0.010902;73.646851;28.646854;0.014536;0.013195;-0.016359;-0.008215;0.001865;0.0045;0.01008;0.743928;-0.011859;0.011859;0.005058
0.099021;-5.71001;0.83172;-0.77736;0.050639;-0.060441;0.781348;-0.001124;0.002849;-0.002968;0.610913;0.394408;2.535446;1.636894;0.004434;-0.002709;0.003571;127.897041;82.897041;0.004762;0.004164;-0.001124;-0.005393;-5.43414e-04;0.002849;0.004849;0.771279;0.001725;-0.001725;0.029329
0.166186;-5.71001;0.913857;-0.777322;0.050594;-0.057982;0.781121;0.003487;0.012721;-0.013683;0.281069;-0.274138;-3.647795;3.557845;0.022545;-0.006337;0.014441;144.417542;99.417542;0.019254;0.017528;0.003487;-0.024252;-0.003114;0.012721;0.021138;0.855875;0.016208;-0.016208;0.030123
0.233352;-5.71001;0.960207;-0.777291;0.050375;-0.058651;0.781127;-0.00456;0.01709;-0.00791;0.363036;0.266809;3.748;2.75455;0.019672;-0.007142;0.013407;121.244431;76.244431;0.017876;0.016034;-0.00456;-0.020567;0.004748;0.01709;0.025315;0.901556;0.01253;-0.01253;0.035627
0.300517;-5.71001;0.957698;-0.777514;0.050886;-0.060059;0.781488;-0.002582;0.001275;-0.003231;1.420467;2.025279;0.493759;0.703994;0.003109;-0.004417;0.003763;117.616348;72.616348;0.005017;0.004367;-0.002582;-0.012741;0.006279;0.001275;0.01902;0.897638;-0.001307;0.001307;0.013629
0.367682;-5.71001;1.004222;-0.777408;0.051065;-0.059483;0.781351;0.006783;-0.007428;-0.006049;1.071558;0.913206;1.095043;0.933221;0.009009;-0.009654;0.009332;158.776291;113.776299;0.012442;0.010777;0.006783;-0.015107;0.003008;-0.007428;0.018115;0.944738;-6.44692e-04;6.44692e-04;0.007596
0.434848;-5.71001;1.011359;-0.777731;0.051405;-0.055441;0.781397;-8.186394e-04;-0.001492;-0.001741;4.736741;-0.548711;-1.822452;0.211116;6.183383e-04;-0.002929;0.001774;109.265099;64.265099;0.002365;0.002188;-8.186394e-04;-0.002345;-0.001138;-0.001492;0.001207;0.955917;-0.002311;0.002311;0.013983
0.502013;-5.71001;1.027106;-0.77787;0.051271;-0.057295;0.78166;9.11595e-04;0.006579;-0.002067;-0.032826;-0.138561;-7.217044;-30.463501;0.007253;2.380732e-04;0.003507;138.056519;93.056526;0.004676;0.004758;9.11595e-04;-0.004228;9.486879e-05;0.006579;0.004323;0.969811;0.007491;-0.007491;0.010723
0.569178;-5.71001;1.04636;-0.777524;0.051179;-0.058725;0.781416;0.001882;7.712826e-04;-5.214257e-04;-0.270467;-2.440268;-0.409791;-3.697312;0.002089;5.648803e-04;7.618291e-04;168.707275;123.707275;0.001016;0.001247;0.001882;-0.00405;0.003007;7.712826e-04;0.007057;0.987635;0.002653;-0.002653;0.021861
0.636344;-5.71001;1.024348;-0.777465;0.051489;-0.056743;0.781231;-0.002619;0.001964;4.565675e-04;1.325647;1.333113;0.750124;0.754348;0.00201;-0.002664;0.002337;7.059793;142.059799;0.003116;0.002707;-0.002619;0.001146;-2.329134e-04;0.001964;-0.001379;0.967605;-6.543955e-04;6.543955e-04;0.001949
0.703509;-5.71001;1.050092;-0.777848;0.051313;-0.057938;0.781689;-0.007441;0.004142;0.001711;1.751298;1.796183;0.556736;0.571005;0.00439;-0.007688;0.006039;6.198208;141.198212;0.008052;0.007059;-0.007441;0.004704;-0.001282;0.004142;-0.005985;0.992153;-0.003298;0.003298;0.017065
0.770674;-5.71001;1.064697;-0.777458;0.05138;-0.059951;0.781457;-0.001162;0.003166;-0.003641;0.617455;0.367063;2.724328;1.619552;0.005238;-0.003234;0.004236;126.525574;81.525574;0.005648;0.004936;-0.001162;-0.007729;4.4631e-04;0.003166;0.008176;1.004746;0.002004;-0.002004;0.037765
0.83784;-5.71001;1.022606;-0.777623;0.051474;-0.05659;0.781376;-0.012182;0.004838;5.333362e-04;2.512639;2.517859;0.397163;0.397988;0.004855;-0.012198;0.008527;55.271019;10.271019;0.011369;0.010145;-0.012182;-0.001111;0.002178;0.004838;0.003289;0.966016;-0.007344;0.007344;0.036474
0.905005;-5.71001;0.997785;-0.777772;0.051788;-0.055319;0.781454;-0.005024;0.005604;4.573593e-04;0.896846;0.896484;1.115469;1.115019;0.005624;-0.005044;0.005334;90.668175;45.668179;0.007112;0.006162;-0.005024;-0.002189;0.003103;0.005604;0.005292;0.942466;5.801095e-04;-5.801095e-04;0.019406
0.97217;-5.71001;0.989121;-0.777733;0.051727;-0.055236;0.781406;-0.001512;-0.001235;-0.00337;2.374224;-1.225141;-0.816232;0.42119;0.001999;-0.004746;0.003372;125.799095;80.799095;0.004497;0.004;-0.001512;-0.008147;0.001408;-0.001235;0.009555;0.933885;-0.002747;0.002747;0.012491
1.039336;-5.71001;0.97974;-0.777848;0.051753;-0.055522;0.781542;-0.007165;0.001314;-0.004568;2.76915;5.45191;0.183422;0.361122;0.003307;-0.009158;0.006232;94.275085;49.275082;0.00831;0.007456;-0.007165;-0.008234;-9.020952e-04;0.001314;0.007332;0.924218;-0.005851;0.005851;0.01789
1.106501;-5.71001;0.953489;-0.778057;0.051916;-0.051148;0.781463;4.461408e-04;0.00317;0.002128;0.165789;-0.140756;-7.104479;6.031754;0.004334;-7.185843e-04;0.002526;92.251663;47.251663;0.003369;0.003156;4.461408e-04;0.001162;0.003094;0.00317;0.001932;0.902341;0.003616;-0.003616;0.024156
1.173667;-5.71001;0.920511;-0.778378;0.052057;-0.05741;0.782226;0.015506;-0.005851;-0.00362;0.400437;2.649986;0.37736;2.497272;0.016103;-0.006448;0.011275;5.626387;140.626389;0.015034;0.013411;0.015506;-0.011988;0.004749;-0.005851;0.016737;0.863101;0.009655;-0.009655;0.016928
1.240832;-5.71001;0.885113;-0.778119;0.052162;-0.057677;0.781995;-0.003143;-0.010909;-0.017542;2.284445;-0.288159;-3.470312;0.437743;0.01094;-0.024993;0.017967;130.437775;85.437767;0.023956;0.021268;-0.003143;-0.035284;1.996324e-04;-0.010909;0.035483;0.827436;-0.014052;0.014052;0.007605
1.307997;-5.71001;0.831678;-0.778394;0.052104;-0.057862;0.782278;0.022683;-0.00453;-0.02849;0.55343;5.006964;0.199722;1.806913;0.040649;-0.022496;0.031573;157.509155;112.509155;0.042097;0.036956;0.022683;-0.054135;-0.002845;-0.00453;0.05129;0.773816;0.018153;-0.018153;0.01861
1.375163;-5.71001;0.7526;-0.778234;0.052009;-0.062938;0.782505;0.043364;0.002358;-0.027076;0.195369;-18.390419;-0.054376;5.118514;0.056824;-0.011102;0.033963;173.835373;128.835373;0.045284;0.042074;0.043364;-0.053809;-3.425269e-04;0.002358;0.053466;0.689662;0.045722;-0.045722;0.023057
