Coordinates.Image X [Pixel],Coordinates.Image Y [Pixel],coor.X [mm],coor.Y [mm],coor.Z [mm],disp.Horizontal Displacement U [mm],disp.Vertical Displacement V [mm],disp.Out-Of-Plane: W [mm],disp.Displacement Magnitude [mm],strain.Strain-global frame: Exx [ ],strain.Strain-global frame: Eyy [ ],strain.Strain-global frame: Exy [ ],strain.Maximum Principal Strain: EI [ ],strain.Minimum Principal Strain: EII [ ],strain.Shear Angle Gamma [deg],strain.Von Mises Equivalent Strain [ ],ext.Current Image [#],ext.Time [s],ext.Force [N]
1196,1130,6.68633E-001,-2.32960E+000,8.54009E-003,1.24961E-002,-1.13428E-002,6.23452E-003,1.79911E-002,1.76797E-004,5.60642E-005,2.60177E-006,1.76853E-004,5.60081E-005,1.23394E+000,2.43089E-004,7,6.99997E+000,3.20280E-001
1211,1070,9.41366E-001,-3.45898E+000,1.36923E-003,1.32273E-002,-1.18266E-002,-6.29174E-004,1.77546E-002,2.88167E-004,5.67247E-005,-5.71434E-005,3.01507E-004,4.33848E-005,-1.31401E+001,3.75712E-004,7,6.99997E+000,3.20280E-001
1196,1175,6.78027E-001,-1.48382E+000,-2.11800E-003,1.37611E-002,-1.21518E-002,-2.58214E-003,1.85392E-002,1.41752E-004,2.90210E-005,7.63158E-005,1.80261E-004,-9.48797E-006,2.67755E+001,2.02892E-004,7,6.99997E+000,3.20280E-001
1121,1100,-7.52120E-001,-2.89465E+000,-2.27634E-003,1.33240E-002,-1.13901E-002,2.93273E-004,1.75314E-002,-2.51652E-004,-5.74376E-005,-4.23586E-005,-4.86011E-005,-2.60489E-004,-7.82165E+001,3.32418E-004,7,6.99997E+000,3.20280E-001
1226,1250,1.25603E+000,-6.99409E-002,3.88539E-003,1.17155E-002,-1.04024E-002,7.61266E-003,1.74188E-002,9.83819E-005,-1.11424E-005,1.46515E-004,2.00034E-004,-1.12794E-004,3.47530E+001,2.00577E-004,7,6.99997E+000,3.20280E-001
1166,1280,1.31872E-001,4.93212E-001,-2.76467E-003,1.45700E-002,-1.17620E-002,-3.82601E-003,1.91120E-002,-1.69121E-004,1.22826E-005,4.25927E-005,2.17853E-005,-1.78624E-004,7.74229E+001,1.94901E-004,7,6.99997E+000,3.20280E-001
1091,1250,-1.28560E+000,-6.96569E-002,3.24567E-002,1.47666E-002,-1.17923E-002,9.44846E-004,1.89210E-002,-5.26014E-004,4.43806E-005,-9.03357E-005,5.83456E-005,-5.39979E-004,-8.12122E+001,5.92707E-004,7,6.99997E+000,3.20280E-001
1091,950,-1.34580E+000,-5.71389E+000,1.69960E-003,1.27485E-002,-1.12338E-002,5.47673E-003,1.78527E-002,-4.08722E-004,4.70567E-005,4.31112E-005,5.10986E-005,-4.12764E-004,8.46438E+001,4.50028E-004,7,6.99997E+000,3.20280E-001
1166,905,6.17137E-002,-6.56142E+000,1.56517E-003,1.34250E-002,-1.15615E-002,5.84803E-004,1.77268E-002,4.07125E-005,1.58635E-005,-4.72098E-005,7.71054E-005,-2.05294E-005,-3.76277E+001,7.98646E-005,7,6.99997E+000,3.20280E-001
1196,1340,7.08236E-001,1.62447E+000,4.69661E-003,1.29052E-002,-1.14284E-002,7.76886E-004,1.72556E-002,-1.87098E-004,1.14512E-005,-4.19740E-006,1.15399E-005,-1.87187E-004,-8.87895E+001,2.09800E-004,7,6.99997E+000,3.20280E-001
1121,1055,-7.60479E-001,-3.74050E+000,5.85266E-003,1.27326E-002,-1.14216E-002,4.91103E-003,1.77958E-002,-2.90323E-004,-9.65903E-006,-4.61829E-005,-2.25502E-006,-2.97727E-004,-8.08919E+001,3.45094E-004,7,6.99997E+000,3.20280E-001
1196,1280,6.95532E-001,4.94021E-001,4.66026E-003,1.18808E-002,-1.12855E-002,5.17734E-003,1.71849E-002,-7.32483E-005,-1.44966E-005,7.93970E-005,4.07846E-005,-1.28530E-004,5.51519E+001,1.31358E-004,7,6.99997E+000,3.20280E-001
1151,965,-2.11337E-001,-5.43265E+000,9.98410E-003,1.24434E-002,-1.08068E-002,9.87687E-003,1.92140E-002,-9.89941E-006,1.26204E-005,-5.22856E-005,5.48448E-005,-5.21238E-005,-5.10766E+001,6.18182E-005,7,6.99997E+000,3.20280E-001
1196,935,6.33009E-001,-5.99727E+000,7.04622E-003,1.30557E-002,-1.11441E-002,5.07006E-003,1.78983E-002,2.25687E-004,1.03949E-005,-8.16295E-005,2.53137E-004,-1.70555E-005,-1.85868E+001,2.82965E-004,7,6.99997E+000,3.20280E-001
1136,860,-5.12435E-001,-7.40596E+000,6.07840E-003,1.33612E-002,-1.10954E-002,5.36650E-003,1.81777E-002,-4.33205E-005,5.91497E-005,-9.19143E-006,5.99676E-005,-4.41384E-005,-8.49147E+001,6.21550E-005,7,6.99997E+000,3.20280E-001
1211,1280,9.79555E-001,4.94172E-001,7.14530E-003,1.23477E-002,-1.14028E-002,5.62765E-003,1.77245E-002,-2.56328E-005,-3.27370E-005,8.91977E-005,6.00835E-005,-1.18453E-004,4.38598E+001,1.18457E-004,7,6.99997E+000,3.20280E-001
1106,845,-1.08269E+000,-7.68782E+000,-2.83287E-003,1.22833E-002,-1.14413E-002,3.38692E-003,1.71246E-002,-1.17274E-004,4.33317E-005,6.71471E-006,4.36120E-005,-1.17554E-004,8.76101E+001,1.18851E-004,7,6.99997E+000,3.20280E-001
1181,860,3.35743E-001,-7.40732E+000,-2.86520E-003,1.33203E-002,-1.15582E-002,8.55914E-004,1.76566E-002,5.61843E-005,4.67060E-005,-3.72164E-005,8.89621E-005,1.39282E-005,-4.13715E+001,1.11638E-004,7,6.99997E+000,3.20280E-001
1181,785,3.22974E-001,-8.81719E+000,-1.37637E-004,1.38364E-002,-1.20048E-002,-1.02930E-003,1.83472E-002,-5.94820E-006,2.43074E-005,-2.51061E-005,3.84911E-005,-2.01319E-005,-6.05356E+001,3.85047E-005,7,6.99997E+000,3.20280E-001
1166,1445,1.61188E-001,3.60184E+000,1.60420E-003,1.35229E-002,-1.18336E-002,1.29840E-003,1.80163E-002,5.71152E-005,1.67763E-005,-1.15644E-005,6.01954E-005,1.36962E-005,-1.49142E+001,7.86174E-005,7,6.99997E+000,3.20280E-001
1211,1025,9.32544E-001,-4.30514E+000,5.16564E-003,1.29321E-002,-1.12191E-002,4.42633E-003,1.76833E-002,4.30287E-004,2.28279E-005,-8.14665E-005,4.45971E-004,7.14340E-006,-1.08976E+001,5.19137E-004,7,6.99997E+000,3.20280E-001
1151,1130,-1.80284E-001,-2.32982E+000,2.50646E-003,1.33227E-002,-1.11516E-002,2.85460E-003,1.76068E-002,-1.11775E-004,-1.08239E-005,-5.70122E-006,-1.05029E-005,-1.12096E-004,-8.67779E+001,1.35907E-004,7,6.99997E+000,3.20280E-001
1091,1490,-1.24880E+000,4.44783E+000,3.95275E-003,1.21166E-002,-1.13660E-002,6.85565E-003,1.79721E-002,-3.75971E-005,3.02372E-006,9.61426E-006,5.18433E-006,-3.97577E-005,7.73344E+001,4.32271E-005,7,6.99997E+000,3.20280E-001
1211,935,9.15767E-001,-5.99826E+000,-1.00206E-003,1.30028E-002,-1.17321E-002,-8.34421E-004,1.75332E-002,3.11371E-004,3.42354E-006,-8.80219E-005,3.34755E-004,-1.99604E-005,-1.48776E+001,3.75549E-004,7,6.99997E+000,3.20280E-001
1121,845,-7.98789E-001,-7.68860E+000,-2.15076E-003,1.31374E-002,-1.21019E-002,1.99886E-003,1.79734E-002,-8.15496E-005,5.59036E-005,-4.10185E-006,5.60259E-005,-8.16719E-005,-8.82922E+001,8.35341E-005,7,6.99997E+000,3.20280E-001
1196,785,6.04446E-001,-8.81617E+000,7.72089E-003,1.24664E-002,-1.10018E-002,7.57017E-003,1.82691E-002,2.42018E-005,1.76282E-005,-2.67504E-005,4.78665E-005,-6.03655E-006,-4.14976E+001,5.21369E-005,7,6.99997E+000,3.20280E-001
1151,1295,-1.50442E-001,7.76352E-001,5.91338E-003,1.28974E-002,-1.09487E-002,6.39353E-003,1.80858E-002,-1.97191E-004,1.82023E-005,1.10231E-005,1.87649E-005,-1.97754E-004,8.70780E+001,2.18320E-004,7,6.99997E+000,3.20280E-001
1121,1505,-6.77871E-001,4.73109E+000,1.30405E-003,1.33183E-002,-1.19039E-002,5.34167E-005,1.78629E-002,-1.55103E-005,1.50609E-005,1.11842E-006,1.51018E-005,-1.55512E-005,8.79076E+001,1.77032E-005,7,6.99997E+000,3.20280E-001
1151,1445,-1.22697E-001,3.60125E+000,1.30388E-004,1.32485E-002,-1.17998E-002,2.15225E-003,1.78715E-002,2.74161E-005,9.40244E-006,-2.34743E-005,4.35522E-005,-6.73361E-006,-3.45043E+001,4.68881E-005,7,6.99997E+000,3.20280E-001
1211,1235,9.72048E-001,-3.53093E-001,4.41525E-003,1.32260E-002,-1.15315E-002,2.89198E-003,1.77839E-002,4.92504E-005,-1.46991E-005,1.21781E-004,1.43185E-004,-1.08633E-004,3.76443E+001,1.49436E-004,7,6.99997E+000,3.20280E-001
1166,740,3.19148E-002,-9.66145E+000,2.10076E-003,1.38679E-002,-1.18917E-002,8.18655E-004,1.82867E-002,-4.60883E-005,4.26551E-006,-2.12831E-005,1.20559E-005,-5.38787E-005,-6.98954E+001,5.65532E-005,7,6.99997E+000,3.20280E-001
1151,1145,-1.77358E-001,-2.04713E+000,4.51135E-003,1.32704E-002,-1.13679E-002,2.99451E-003,1.77285E-002,-1.35377E-004,-1.95796E-005,2.20000E-005,-1.55407E-005,-1.39416E-004,7.95973E+001,1.70665E-004,7,6.99997E+000,3.20280E-001
1211,785,8.88438E-001,-8.81793E+000,-1.86585E-003,1.34647E-002,-1.21899E-002,-2.37720E-003,1.83178E-002,5.42939E-005,8.74032E-006,-2.70292E-005,6.68634E-005,-3.82915E-006,-2.49400E+001,7.50941E-005,7,6.99997E+000,3.20280E-001
1226,935,1.19951E+000,-5.99905E+000,-4.17622E-003,1.35807E-002,-1.23485E-002,-4.54642E-003,1.89101E-002,3.97006E-004,-4.47349E-006,-9.15975E-005,4.16916E-004,-2.43840E-005,-1.22636E+001,4.67971E-004,7,6.99997E+000,3.20280E-001
1151,1400,-1.30935E-001,2.75439E+000,7.96279E-003,1.28357E-002,-1.11426E-002,6.16168E-003,1.80797E-002,-6.62442E-006,3.41816E-006,-6.44639E-005,6.30560E-005,-6.62623E-005,-4.72270E+001,7.47308E-005,7,6.99997E+000,3.20280E-001
1226,1280,1.26442E+000,4.94309E-001,2.74346E-003,1.38061E-002,-1.15697E-002,7.20605E-004,1.80274E-002,2.16972E-005,-5.42416E-005,9.32972E-005,8.44554E-005,-1.17000E-004,3.39275E+001,1.20777E-004,7,6.99997E+000,3.20280E-001
1136,845,-5.15107E-001,-7.68805E+000,-2.01046E-003,1.38293E-002,-1.12561E-002,7.96649E-004,1.78489E-002,-4.59956E-005,6.32469E-005,-1.40142E-005,6.50161E-005,-4.77648E-005,-8.28050E+001,6.73606E-005,7,6.99997E+000,3.20280E-001
1136,1505,-3.95741E-001,4.73232E+000,8.95104E-003,1.22448E-002,-1.11589E-002,8.67498E-003,1.87006E-002,6.88197E-006,1.89330E-005,9.86571E-006,2.44677E-005,1.34725E-006,6.07073E+001,2.90619E-005,7,6.99997E+000,3.20280E-001
1091,1025,-1.32998E+000,-4.30430E+000,1.19742E-002,1.39384E-002,-1.15386E-002,5.98461E-003,1.90587E-002,-4.81432E-004,2.62363E-005,1.35306E-005,2.65966E-005,-4.81793E-004,8.84744E+001,5.41624E-004,7,6.99997E+000,3.20280E-001
1121,1520,-6.75759E-001,5.01446E+000,1.13687E-004,1.30523E-002,-1.14172E-002,2.03722E-003,1.74604E-002,-2.00563E-005,1.17378E-005,1.65142E-007,1.17387E-005,-2.00572E-005,8.97024E+001,2.01542E-005,7,6.99997E+000,3.20280E-001
1136,1475,-4.00148E-001,4.16691E+000,3.06910E-003,1.34200E-002,-1.13609E-002,3.54627E-003,1.79371E-002,9.16126E-007,2.20159E-005,2.32122E-006,2.22682E-005,6.63782E-007,8.37956E+001,2.61048E-005,7,6.99997E+000,3.20280E-001
1121,935,-7.82080E-001,-5.99637E+000,9.42526E-003,1.27722E-002,-1.11366E-002,7.12018E-003,1.83807E-002,-2.05492E-004,3.14646E-005,-7.14853E-006,3.16800E-005,-2.05707E-004,-8.82736E+001,2.21517E-004,7,6.99997E+000,3.20280E-001
1181,905,3.45362E-001,-6.56146E+000,8.77055E-004,1.38752E-002,-1.17058E-002,-1.93306E-003,1.82560E-002,9.04556E-005,1.37604E-005,-4.92390E-005,1.14518E-004,-1.03021E-005,-2.60442E+001,1.26706E-004,7,6.99997E+000,3.20280E-001
1106,1490,-9.64682E-001,4.44858E+000,-7.62817E-004,1.29086E-002,-1.12424E-002,1.40935E-003,1.71758E-002,-3.20967E-005,1.14347E-005,-2.36932E-006,1.15633E-005,-3.22253E-005,-8.68937E+001,3.26506E-005,7,6.99997E+000,3.20280E-001
1091,845,-1.36419E+000,-7.68803E+000,-2.96560E-003,1.33379E-002,-1.17643E-002,1.41494E-003,1.78409E-002,-1.08446E-004,2.61396E-005,1.91219E-005,2.88037E-005,-1.11110E-004,8.20685E+001,1.15324E-004,7,6.99997E+000,3.20280E-001
1121,980,-7.74000E-001,-5.15134E+000,-2.03929E-003,1.31762E-002,-1.17471E-002,-8.39196E-005,1.76526E-002,-1.60922E-004,2.08861E-005,-3.27135E-005,2.65932E-005,-1.66629E-004,-8.01039E+001,1.79039E-004,7,6.99997E+000,3.20280E-001
1166,1400,1.52720E-001,2.75417E+000,3.02429E-003,1.31309E-002,-1.16985E-002,7.53292E-004,1.76024E-002,3.13018E-005,7.53284E-007,-4.39959E-005,6.25995E-005,-3.05444E-005,-3.54272E+001,6.26055E-005,7,6.99997E+000,3.20280E-001
1151,1475,-1.17346E-001,4.16717E+000,3.96819E-003,1.29322E-002,-1.15305E-002,4.75152E-003,1.79658E-002,2.47654E-005,2.75172E-005,6.16015E-006,3.24532E-005,1.98294E-005,5.12952E+001,5.27882E-005,7,6.99997E+000,3.20280E-001
1166,1295,1.34158E-001,7.74902E-001,-8.78761E-003,1.43390E-002,-1.25133E-002,-7.71851E-003,2.05369E-002,-1.65203E-004,1.11625E-005,3.14427E-005,1.66005E-005,-1.70641E-004,8.01878E+001,1.88189E-004,7,6.99997E+000,3.20280E-001
1151,1160,-1.75068E-001,-1.76528E+000,1.81580E-003,1.29056E-002,-1.16592E-002,1.11103E-003,1.74277E-002,-1.75429E-004,-1.22480E-005,4.64338E-005,3.96371E-008,-1.87717E-004,7.51778E+001,2.16734E-004,7,6.99997E+000,3.20280E-001
1151,800,-2.39351E-001,-8.53540E+000,-5.38107E-003,1.48099E-002,-1.23570E-002,-3.80575E-003,1.96599E-002,-6.01473E-005,3.33416E-005,-2.04481E-005,3.76184E-005,-6.44241E-005,-7.81867E+001,6.47259E-005,7,6.99997E+000,3.20280E-001
1106,1205,-1.01674E+000,-9.19203E-001,1.40114E-003,1.24316E-002,-1.15527E-002,1.92873E-003,1.70801E-002,-4.99548E-004,-1.05020E-005,4.10652E-005,-7.07773E-006,-5.02973E-004,8.52334E+001,5.84912E-004,7,6.99997E+000,3.20280E-001
1151,1385,-1.33737E-001,2.47080E+000,2.31091E-003,1.30399E-002,-1.16760E-002,2.58525E-003,1.76933E-002,-3.15135E-005,1.90454E-005,-6.66996E-005,6.50954E-005,-7.75635E-005,-5.53785E+001,8.33025E-005,7,6.99997E+000,3.20280E-001
1136,1100,-4.69060E-001,-2.89409E+000,6.07365E-003,1.28735E-002,-1.12672E-002,4.48174E-003,1.76851E-002,-1.66010E-004,-5.49867E-005,-3.89856E-005,-4.26645E-005,-1.78332E-004,-7.24599E+001,2.34467E-004,7,6.99997E+000,3.20280E-001
1136,1520,-3.91751E-001,5.01513E+000,2.60546E-003,1.34466E-002,-1.14867E-002,2.05219E-003,1.78036E-002,-6.14011E-007,1.38637E-005,1.01006E-005,1.90515E-005,-5.80186E-006,6.28141E+001,1.95307E-005,7,6.99997E+000,3.20280E-001
1196,905,6.26748E-001,-6.56117E+000,7.90611E-003,1.25400E-002,-1.11531E-002,7.56599E-003,1.84089E-002,1.40025E-004,1.21172E-005,-4.70470E-005,1.55466E-004,-3.32363E-006,-1.81698E+001,1.77629E-004,7,6.99997E+000,3.20280E-001
1121,1070,-7.57536E-001,-3.45844E+000,7.36059E-004,1.30810E-002,-1.14675E-002,9.40600E-004,1.74212E-002,-2.88360E-004,-2.33362E-005,-4.80005E-005,-1.49103E-005,-2.96785E-004,-8.00439E+001,3.51623E-004,7,6.99997E+000,3.20280E-001
1091,1040,-1.32629E+000,-4.02195E+000,1.77596E-002,1.41628E-002,-1.14723E-002,5.10917E-003,1.89289E-002,-4.89586E-004,3.27384E-005,-3.65498E-005,3.52835E-005,-4.92131E-004,-8.60166E+001,5.49028E-004,7,6.99997E+000,3.20280E-001
1211,1340,9.90648E-001,1.62466E+000,7.88357E-003,1.22052E-002,-1.15243E-002,6.08200E-003,1.78541E-002,-1.92650E-004,-1.37598E-005,1.38206E-005,-1.26984E-005,-1.93712E-004,8.56082E+001,2.31359E-004,7,6.99997E+000,3.20280E-001
1136,935,-4.99740E-001,-5.99752E+000,2.87172E-003,1.26081E-002,-1.20380E-002,4.01192E-003,1.78878E-002,-1.19061E-004,2.90948E-005,-2.76962E-005,3.41030E-005,-1.24070E-004,-7.97502E+001,1.28193E-004,7,6.99997E+000,3.20280E-001
1151,1265,-1.55516E-001,2.11410E-001,3.70285E-003,1.33535E-002,-1.12989E-002,4.40549E-003,1.80385E-002,-2.17124E-004,1.49738E-005,3.02724E-005,1.88572E-005,-2.21007E-004,8.26898E+001,2.45037E-004,7,6.99997E+000,3.20280E-001
1181,1115,3.82869E-001,-2.61208E+000,4.78395E-003,1.29951E-002,-1.12207E-002,5.13211E-003,1.79197E-002,8.74274E-005,1.60573E-005,-3.41553E-005,1.01139E-004,2.34594E-006,-2.18726E+001,1.18163E-004,7,6.99997E+000,3.20280E-001
1091,1505,-1.24479E+000,4.73065E+000,5.05825E-003,1.30666E-002,-1.16251E-002,5.00610E-003,1.81917E-002,-4.76172E-005,3.58652E-006,-8.62543E-006,5.00045E-006,-4.90311E-005,-8.06905E+001,5.39614E-005,7,6.99997E+000,3.20280E-001
1106,1415,-9.78093E-001,3.03570E+000,2.23530E-003,1.31419E-002,-1.13811E-002,4.53692E-003,1.79672E-002,-1.39173E-004,-3.09538E-006,-8.42061E-005,3.71246E-005,-1.79393E-004,-6.44691E+001,1.89385E-004,7,6.99997E+000,3.20280E-001
1151,1535,-1.06358E-001,5.29799E+000,1.43962E-003,1.27932E-002,-1.18535E-002,1.51074E-003,1.75058E-002,-1.27292E-006,1.24404E-005,1.71754E-005,2.40773E-005,-1.29098E-005,5.58813E+001,2.40983E-005,7,6.99997E+000,3.20280E-001
1181,1295,4.16253E-001,7.76324E-001,3.62472E-003,1.30946E-002,-1.13047E-002,4.02452E-003,1.77612E-002,-1.33374E-004,2.79634E-006,4.49991E-005,1.63231E-005,-1.46901E-004,7.32692E+001,1.61032E-004,7,6.99997E+000,3.20280E-001
1136,980,-4.91691E-001,-5.15191E+000,-3.12291E-004,1.26832E-002,-1.18548E-002,2.74323E-003,1.75762E-002,-7.05102E-005,1.36753E-005,-4.57733E-005,3.37677E-005,-9.06026E-005,-6.63007E+001,9.15762E-005,7,6.99997E+000,3.20280E-001
1166,1430,1.58152E-001,3.31899E+000,-6.02053E-004,1.33981E-002,-1.18431E-002,2.85401E-004,1.78843E-002,4.31926E-005,1.84824E-005,-1.80248E-005,5.26902E-005,8.98469E-006,-2.77857E+001,6.66372E-005,7,6.99997E+000,3.20280E-001
1166,800,4.13754E-002,-8.53476E+000,8.91146E-003,1.25075E-002,-1.12170E-002,9.08302E-003,1.90987E-002,-3.15591E-005,3.02994E-005,-2.50210E-005,3.91529E-005,-4.04126E-005,-7.05140E+001,4.59544E-005,7,6.99997E+000,3.20280E-001
1136,1235,-4.43750E-001,-3.54179E-001,-3.19044E-003,1.36305E-002,-1.19635E-002,-3.78454E-003,1.85267E-002,-3.14862E-004,5.19265E-006,3.29846E-005,8.55666E-006,-3.18226E-004,8.41767E+001,3.62617E-004,7,6.99997E+000,3.20280E-001
1121,1490,-6.80495E-001,4.44880E+000,6.43924E-004,1.35905E-002,-1.16259E-002,7.90804E-004,1.79022E-002,-1.28565E-005,1.76348E-005,-1.41496E-006,1.77003E-005,-1.29220E-005,-8.73487E+001,1.83141E-005,7,6.99997E+000,3.20280E-001
1121,1085,-7.54548E-001,-3.17711E+000,-2.32622E-003,1.34700E-002,-1.19601E-002,-1.05500E-003,1.80444E-002,-2.62367E-004,-3.58203E-005,-4.97163E-005,-2.53901E-005,-2.72797E-004,-7.81515E+001,3.30634E-004,7,6.99997E+000,3.20280E-001
1166,1385,1.49826E-001,2.47168E+000,6.78730E-003,1.31244E-002,-1.13943E-002,5.50874E-003,1.82326E-002,-1.87836E-007,1.37932E-005,-4.77276E-005,5.50395E-005,-4.14341E-005,-4.91663E+001,5.73367E-005,7,6.99997E+000,3.20280E-001
1181,1400,4.35671E-001,2.75332E+000,-6.77116E-003,1.31939E-002,-1.23810E-002,-5.26456E-003,1.88437E-002,6.91235E-005,-2.25924E-006,-2.28427E-005,7.58074E-005,-8.94315E-006,-1.63098E+001,8.28556E-005,7,6.99997E+000,3.20280E-001
1106,1355,-9.89220E-001,1.90558E+000,8.67882E-003,1.24888E-002,-1.09966E-002,7.19061E-003,1.81274E-002,-2.43832E-004,3.46279E-005,-8.26144E-005,5.72933E-005,-2.66498E-004,-7.46583E+001,2.80559E-004,7,6.99997E+000,3.20280E-001
1151,1175,-1.71945E-001,-1.48345E+000,5.75359E-004,1.32814E-002,-1.19440E-002,-1.25342E-004,1.78626E-002,-1.89273E-004,-3.23119E-006,6.60116E-005,1.78111E-005,-2.10315E-004,7.23194E+001,2.33249E-004,7,6.99997E+000,3.20280E-001
1166,1475,1.66245E-001,4.16752E+000,3.66360E-003,1.31111E-002,-1.16602E-002,3.98779E-003,1.79934E-002,4.85964E-005,3.29957E-005,1.04063E-005,5.38013E-005,2.77909E-005,2.65727E+001,8.29626E-005,7,6.99997E+000,3.20280E-001
1211,1040,9.35699E-001,-4.02295E+000,7.55250E-003,1.30731E-002,-1.12721E-002,4.93680E-003,1.79537E-002,3.65918E-004,3.83086E-005,-6.39504E-005,3.77959E-004,2.62678E-005,-1.06630E+001,4.52358E-004,7,6.99997E+000,3.20280E-001
1166,920,6.37895E-002,-6.27996E+000,2.76291E-003,1.28925E-002,-1.19040E-002,3.02338E-003,1.78062E-002,6.47750E-005,1.65028E-005,-5.46462E-005,1.00378E-004,-1.91001E-005,-3.30850E+001,1.06604E-004,7,6.99997E+000,3.20280E-001
1166,1265,1.28526E-001,2.11604E-001,5.11923E-003,1.37852E-002,-1.14051E-002,2.37606E-003,1.80487E-002,-1.55058E-004,5.42982E-006,5.63814E-005,2.32570E-005,-1.72886E-004,7.24536E+001,1.87650E-004,7,6.99997E+000,3.20280E-001
1181,725,3.09763E-001,-9.94314E+000,3.54209E-003,1.20872E-002,-1.13997E-002,6.23099E-003,1.77448E-002,-3.75664E-005,-1.47625E-005,-2.50217E-005,1.33265E-006,-5.36616E-005,-5.72489E+001,6.12081E-005,7,6.99997E+000,3.20280E-001
1211,755,8.83133E-001,-9.38179E+000,-2.81257E-003,1.39765E-002,-1.19058E-002,-1.30849E-003,1.84066E-002,2.76718E-005,6.75707E-006,-2.16986E-005,4.13014E-005,-6.87257E-006,-3.21344E+001,4.42597E-005,7,6.99997E+000,3.20280E-001
1211,1190,9.63911E-001,-1.20040E+000,1.70434E-003,1.35762E-002,-1.15892E-002,1.02117E-003,1.78792E-002,1.71262E-004,1.77764E-005,7.12720E-005,1.99253E-004,-1.02145E-005,2.14416E+001,2.24413E-004,7,6.99997E+000,3.20280E-001
1151,935,-2.15939E-001,-5.99762E+000,-6.18869E-005,1.34401E-002,-1.17541E-002,7.54709E-004,1.78707E-002,-3.26555E-005,2.58008E-005,-4.54339E-005,5.05960E-005,-5.74507E-005,-6.13768E+001,6.27563E-005,7,6.99997E+000,3.20280E-001
1211,1520,1.02510E+000,5.01650E+000,-3.04235E-003,1.34254E-002,-1.15872E-002,-1.65018E-003,1.78109E-002,9.63432E-005,7.56745E-006,3.98420E-005,1.11602E-004,-7.69089E-006,2.09554E+001,1.24663E-004,7,6.99997E+000,3.20280E-001
1181,800,3.25031E-001,-8.53473E+000,6.61604E-003,1.31429E-002,-1.14220E-002,5.84643E-003,1.83679E-002,-3.03255E-006,2.53289E-005,-2.87020E-005,4.31622E-005,-2.08659E-005,-5.81462E+001,4.31701E-005,7,6.99997E+000,3.20280E-001
1121,1415,-6.94382E-001,3.03591E+000,3.49109E-003,1.32174E-002,-1.17661E-002,2.18113E-003,1.78297E-002,-9.59124E-005,-2.84027E-006,-6.87550E-005,3.36469E-005,-1.32400E-004,-6.20458E+001,1.37632E-004,7,6.99997E+000,3.20280E-001
1196,1055,6.55883E-001,-3.74106E+000,3.26961E-003,1.33696E-002,-1.19502E-002,-1.43480E-003,1.79892E-002,1.96027E-004,2.02747E-005,-5.53116E-005,2.11985E-004,4.31640E-006,-1.60937E+001,2.47309E-004,7,6.99997E+000,3.20280E-001
1121,770,-8.11088E-001,-9.09675E+000,3.44227E-003,1.38523E-002,-1.14612E-002,2.52716E-003,1.81558E-002,-1.21554E-004,2.74615E-005,-6.42410E-006,2.77380E-005,-1.21831E-004,-8.75361E+001,1.27712E-004,7,6.99997E+000,3.20280E-001
1226,1025,1.21698E+000,-4.30572E+000,-1.99988E-003,1.42427E-002,-1.19439E-002,-2.35563E-003,1.87366E-002,5.43971E-004,3.64738E-005,-6.84263E-005,5.53035E-004,2.74097E-005,-7.54576E+000,6.54989E-004,7,6.99997E+000,3.20280E-001
1151,980,-2.07884E-001,-5.15182E+000,-2.29922E-003,1.34144E-002,-1.16141E-002,-1.83108E-004,1.77445E-002,1.98868E-005,9.18447E-006,-5.64882E-005,7.12767E-005,-4.22054E-005,-4.22942E+001,7.16790E-005,7,6.99997E+000,3.20280E-001
1181,1265,4.11642E-001,2.11620E-001,4.49884E-003,1.35307E-002,-1.14884E-002,6.35537E-004,1.77614E-002,-9.33017E-005,-6.05123E-006,7.86376E-005,4.02514E-005,-1.39604E-004,5.95100E+001,1.43714E-004,7,6.99997E+000,3.20280E-001
1196,725,5.94309E-001,-9.94391E+000,9.22735E-004,1.35323E-002,-1.14016E-002,1.65085E-003,1.77721E-002,-1.95603E-005,-2.12672E-005,-2.88749E-005,8.47372E-006,-4.93012E-005,-4.41535E+001,5.27213E-005,7,6.99997E+000,3.20280E-001
1181,1385,4.33387E-001,2.47160E+000,-4.32172E-004,1.33759E-002,-1.18296E-002,-1.55217E-003,1.79238E-002,3.11067E-005,5.44085E-006,-2.68380E-005,4.80220E-005,-1.14745E-005,-3.22223E+001,5.01564E-005,7,6.99997E+000,3.20280E-001
1181,965,3.55562E-001,-5.43305E+000,4.22356E-003,1.34473E-002,-1.09819E-002,5.13270E-003,1.81047E-002,1.72144E-004,8.48011E-006,-8.13403E-005,2.05693E-004,-2.50687E-005,-2.24137E+001,2.24444E-004,7,6.99997E+000,3.20280E-001
1181,935,3.50615E-001,-5.99735E+000,7.92981E-003,1.35019E-002,-1.13030E-002,4.28576E-003,1.81225E-002,1.39815E-004,1.64443E-005,-7.24105E-005,1.73253E-004,-1.69932E-005,-2.47864E+001,1.91001E-004,7,6.99997E+000,3.20280E-001
1211,905,9.11716E-001,-6.56248E+000,-2.80948E-003,1.43949E-002,-1.21688E-002,-3.75316E-003,1.92193E-002,1.89579E-004,1.09267E-005,-4.06303E-005,1.98385E-004,2.12037E-006,-1.22293E+001,2.30309E-004,7,6.99997E+000,3.20280E-001
1151,1115,-1.83944E-001,-2.61236E+000,3.21361E-003,1.26094E-002,-1.12240E-002,5.22166E-003,1.76704E-002,-1.11261E-004,-3.06251E-005,-2.60919E-005,-2.29189E-005,-1.18967E-004,-7.35455E+001,1.52338E-004,7,6.99997E+000,3.20280E-001
1226,1040,1.21977E+000,-4.02349E+000,2.48631E-003,1.40055E-002,-1.17125E-002,1.75965E-004,1.82584E-002,4.72767E-004,7.40923E-005,-6.39561E-005,4.82776E-004,6.40837E-005,-8.89424E+000,5.97905E-004,7,6.99997E+000,3.20280E-001
1076,785,-1.65722E+000,-8.81412E+000,-1.81994E-004,1.36755E-002,-1.15841E-002,3.19376E-003,1.82047E-002,-2.69096E-004,2.14982E-005,8.76518E-006,2.17623E-005,-2.69360E-004,8.82739E+001,2.99258E-004,7,6.99997E+000,3.20280E-001
1121,755,-8.14534E-001,-9.37833E+000,1.33644E-003,1.34176E-002,-1.11654E-002,2.93969E-003,1.77014E-002,-1.28823E-004,2.05529E-005,-8.81465E-006,2.10713E-005,-1.29341E-004,-8.66346E+001,1.38794E-004,7,6.99997E+000,3.20280E-001
1151,710,-2.57757E-001,-1.02246E+001,3.35296E-003,1.28661E-002,-1.17532E-002,5.17722E-003,1.81790E-002,-7.10308E-005,-2.71320E-005,-1.89131E-005,-2.01076E-005,-7.80552E-005,-6.96248E+001,1.03707E-004,7,6.99997E+000,3.20280E-001
1106,1400,-9.81309E-001,2.75286E+000,2.60251E-003,1.26531E-002,-1.14918E-002,4.89124E-003,1.77788E-002,-1.20431E-004,9.31904E-006,-1.21610E-004,8.22767E-005,-1.93389E-004,-5.90392E+001,1.94104E-004,7,6.99997E+000,3.20280E-001
1181,1130,3.86586E-001,-2.32999E+000,7.48681E-003,1.35645E-002,-1.14441E-002,4.62504E-003,1.83400E-002,8.08048E-005,2.80842E-005,2.86230E-006,8.09597E-005,2.79292E-005,3.09856E+000,1.13111E-004,7,6.99997E+000,3.20280E-001
1136,800,-5.23591E-001,-8.53339E+000,4.50136E-003,1.32331E-002,-1.16040E-002,4.72370E-003,1.82231E-002,-8.87740E-005,3.44669E-005,-1.49733E-005,3.62600E-005,-9.05671E-005,-8.31711E+001,9.11645E-005,7,6.99997E+000,3.20280E-001
1166,1070,9.17213E-002,-3.45842E+000,4.03740E-003,1.30637E-002,-1.14451E-002,2.77210E-003,1.75879E-002,-4.10113E-008,-1.45011E-005,-5.91882E-005,5.23571E-005,-6.68992E-005,-4.15178E+001,7.03716E-005,7,6.99997E+000,3.20280E-001
1091,1430,-1.25973E+000,3.31731E+000,-2.19433E-003,1.23492E-002,-1.15950E-002,3.37363E-003,1.72722E-002,-1.22846E-004,-2.39502E-005,-9.37313E-005,3.25767E-005,-1.79373E-004,-5.89069E+001,1.91110E-004,7,6.99997E+000,3.20280E-001
1136,1415,-4.10692E-001,3.03626E+000,7.41284E-004,1.36866E-002,-1.16086E-002,-3.35049E-004,1.79497E-002,-5.27469E-005,-1.43183E-006,-5.39809E-005,3.26789E-005,-8.68577E-005,-5.77111E+001,8.77401E-005,7,6.99997E+000,3.20280E-001
1241,770,1.45038E+000,-9.10091E+000,-4.61485E-003,1.29215E-002,-1.22685E-002,8.05837E-004,1.78362E-002,-7.39340E-005,-1.01192E-005,-1.06988E-005,-8.37332E-006,-7.56800E-005,-8.07317E+001,9.26014E-005,7,6.99997E+000,3.20280E-001
1121,1595,-6.61627E-001,6.42874E+000,2.19979E-003,1.33193E-002,-1.13354E-002,2.73838E-003,1.77029E-002,-1.19492E-005,3.52830E-005,1.53100E-006,3.53326E-005,-1.19988E-005,8.81454E+001,3.59336E-005,7,6.99997E+000,3.20280E-001
1106,1385,-9.83662E-001,2.46944E+000,-5.29347E-003,1.32085E-002,-1.17582E-002,-1.49797E-003,1.77472E-002,-1.25393E-004,1.60977E-005,-1.12112E-004,7.79196E-005,-1.87214E-004,-6.11264E+001,1.88089E-004,7,6.99997E+000,3.20280E-001
1226,1340,1.27442E+000,1.62423E+000,-4.44382E-003,1.30099E-002,-1.18211E-002,-2.67777E-003,1.77810E-002,-1.98258E-004,-4.49833E-005,3.26463E-005,-3.83196E-005,-2.04922E-004,7.84634E+001,2.61570E-004,7,6.99997E+000,3.20280E-001
1196,980,6.41554E-001,-5.15138E+000,5.92402E-003,1.33294E-002,-1.12175E-002,4.47894E-003,1.79880E-002,2.90683E-004,1.21038E-005,-7.44751E-005,3.09344E-004,-6.55634E-006,-1.40662E+001,3.53475E-004,7,6.99997E+000,3.20280E-001
1211,1055,9.38388E-001,-3.74064E+000,5.04197E-003,1.30858E-002,-1.12948E-002,3.42742E-003,1.76226E-002,2.93093E-004,4.97732E-005,-5.77206E-005,3.06091E-004,3.67750E-005,-1.26908E+001,3.76476E-004,7,6.99997E+000,3.20280E-001
1226,905,1.19423E+000,-6.56270E+000,-3.20883E-003,1.38454E-002,-1.17780E-002,-4.09488E-003,1.86329E-002,2.38996E-004,1.02011E-005,-2.99878E-005,2.42861E-004,6.33593E-006,-7.34441E+000,2.84161E-004,7,6.99997E+000,3.20280E-001
1106,1565,-9.51207E-001,5.86246E+000,-8.57147E-004,1.25989E-002,-1.15253E-002,1.67336E-004,1.70761E-002,-3.51266E-005,4.24168E-005,1.41813E-005,4.49290E-005,-3.76387E-005,7.99546E+001,4.82247E-005,7,6.99997E+000,3.20280E-001
1211,725,8.77140E-001,-9.94461E+000,-1.04864E-003,1.33847E-002,-1.14845E-002,-9.27143E-004,1.76608E-002,-1.57487E-006,-2.97442E-005,-3.22894E-005,1.95681E-005,-5.08872E-005,-3.32166E+001,5.13374E-005,7,6.99997E+000,3.20280E-001
1181,740,3.13365E-001,-9.66146E+000,4.42104E-003,1.27514E-002,-1.13741E-002,5.59951E-003,1.79812E-002,-2.57290E-005,9.98523E-007,-2.36930E-005,1.48367E-005,-3.95672E-005,-5.97124E+001,3.99774E-005,7,6.99997E+000,3.20280E-001
1166,1685,2.04707E-001,8.12783E+000,1.43133E-003,1.29498E-002,-1.12797E-002,3.38435E-003,1.75038E-002,-1.12907E-006,1.14529E-005,-2.27647E-005,2.87798E-005,-1.84560E-005,-5.27240E+001,2.91603E-005,7,6.99997E+000,3.20280E-001
1106,1580,-9.48694E-001,6.14415E+000,-3.56172E-004,1.24859E-002,-1.22081E-002,1.50863E-003,1.75274E-002,-5.50779E-005,4.23692E-005,9.11257E-006,4.32141E-005,-5.59227E-005,8.47033E+001,5.86305E-005,7,6.99997E+000,3.20280E-001
1166,1085,9.41999E-002,-3.17591E+000,9.01747E-003,1.27742E-002,-1.07602E-002,7.62801E-003,1.83617E-002,-2.73885E-005,-2.01019E-005,-4.12936E-005,1.77088E-005,-6.51992E-005,-4.75211E+001,6.74284E-005,7,6.99997E+000,3.20280E-001
1106,1235,-1.01064E+000,-3.54736E-001,-5.73970E-004,1.30300E-002,-1.19966E-002,-5.00323E-004,1.77187E-002,-4.61767E-004,2.06305E-005,-2.04178E-005,2.14932E-005,-4.62629E-004,-8.75807E+001,5.22232E-004,7,6.99997E+000,3.20280E-001
1106,935,-1.06405E+000,-5.99704E+000,-7.53901E-004,1.38371E-002,-1.20459E-002,-1.63697E-003,1.84187E-002,-2.92248E-004,3.29176E-005,1.62860E-005,3.37313E-005,-2.93062E-004,8.71399E+001,3.20703E-004,7,6.99997E+000,3.20280E-001
1091,785,-1.37566E+000,-8.81457E+000,4.65403E-004,1.28966E-002,-1.15548E-002,6.90993E-003,1.86436E-002,-1.52224E-004,1.91113E-005,1.46492E-005,2.03548E-005,-1.53468E-004,8.51481E+001,1.66705E-004,7,6.99997E+000,3.20280E-001
1166,1220,1.19325E-001,-6.34976E-001,4.25637E-003,1.29833E-002,-1.09301E-002,2.44770E-003,1.71472E-002,-1.27611E-004,-1.19098E-005,9.03341E-005,3.75101E-005,-1.77030E-004,6.13178E+001,1.86570E-004,7,6.99997E+000,3.20280E-001
1211,1625,1.04491E+000,6.99794E+000,3.27193E-003,1.33359E-002,-1.16354E-002,2.53549E-003,1.78790E-002,6.93123E-005,-2.80552E-005,2.47147E-006,6.93750E-005,-2.81179E-005,1.45309E+000,6.97885E-005,7,6.99997E+000,3.20280E-001
1166,965,7.18809E-002,-5.43319E+000,3.65621E-003,1.27611E-002,-1.11278E-002,4.30965E-003,1.74713E-002,8.11836E-005,9.44884E-006,-6.78774E-005,1.22087E-004,-3.14549E-005,-3.10737E+001,1.26778E-004,7,6.99997E+000,3.20280E-001
1151,845,-2.32759E-001,-7.68871E+000,2.00396E-003,1.33191E-002,-1.17006E-002,4.90001E-003,1.83932E-002,-1.06188E-005,6.53754E-005,-2.30501E-005,7.18202E-005,-1.70637E-005,-7.43789E+001,7.50448E-005,7,6.99997E+000,3.20280E-001
1136,1265,-4.38512E-001,2.10532E-001,-9.37797E-004,1.34469E-002,-1.18875E-002,-9.90953E-004,1.79754E-002,-2.79337E-004,2.25626E-005,3.54440E-007,2.25630E-005,-2.79337E-004,8.99327E+001,3.10345E-004,7,6.99997E+000,3.20280E-001
1181,1085,3.78205E-001,-3.17689E+000,3.43903E-003,1.35084E-002,-1.18253E-002,6.92496E-004,1.79665E-002,5.09545E-005,9.23827E-007,-4.15923E-005,7.44746E-005,-2.25963E-005,-2.94878E+001,7.63693E-005,7,6.99997E+000,3.20280E-001
1211,1505,1.02241E+000,4.73362E+000,-1.45013E-003,1.34027E-002,-1.17581E-002,-1.21316E-003,1.78705E-002,1.18748E-004,2.05630E-005,4.11606E-005,1.33720E-004,5.59087E-006,1.99888E+001,1.57733E-004,7,6.99997E+000,3.20280E-001
1136,710,-5.39259E-001,-1.02242E+001,-5.32400E-004,1.39980E-002,-1.20144E-002,1.52112E-004,1.84475E-002,-8.71979E-005,-3.16503E-005,-1.02674E-005,-2.98132E-005,-8.90350E-005,-7.98558E+001,1.23669E-004,7,6.99997E+000,3.20280E-001
1196,800,6.07453E-001,-8.53464E+000,6.63258E-003,1.28073E-002,-1.11888E-002,7.38827E-003,1.85419E-002,2.53925E-005,1.84207E-005,-3.14863E-005,5.35852E-005,-9.77206E-006,-4.18412E+001,5.70758E-005,7,6.99997E+000,3.20280E-001
1181,1145,3.89152E-001,-2.04807E+000,3.84565E-003,1.34581E-002,-1.18323E-002,1.84246E-003,1.80144E-002,5.99323E-005,2.19841E-005,3.16260E-005,7.78393E-005,4.07704E-006,2.95191E+001,9.23250E-005,7,6.99997E+000,3.20280E-001
1211,980,9.24865E-001,-5.15186E+000,4.01731E-003,1.33193E-002,-1.17352E-002,7.11163E-004,1.77658E-002,3.80841E-004,1.85457E-005,-7.57397E-005,3.96037E-004,3.34933E-006,-1.13452E+001,4.59250E-004,7,6.99997E+000,3.20280E-001
1181,1685,4.88376E-001,8.12871E+000,2.82552E-003,1.28810E-002,-1.11705E-002,3.08656E-003,1.73271E-002,-1.57853E-006,1.54049E-005,-2.24097E-005,3.08779E-005,-1.70515E-005,-5.53766E+001,3.09340E-005,7,6.99997E+000,3.20280E-001
1136,1490,-3.97052E-001,4.44927E+000,6.07813E-003,1.34944E-002,-1.15829E-002,4.17702E-003,1.82677E-002,6.38494E-006,2.29321E-005,7.32549E-007,2.29645E-005,6.35257E-006,8.74701E+001,3.08460E-005,7,6.99997E+000,3.20280E-001
1166,1340,1.41013E-001,1.62417E+000,5.62362E-003,1.27645E-002,-1.12476E-002,5.64505E-003,1.79251E-002,-1.76074E-004,4.42171E-005,-3.79524E-005,5.05723E-005,-1.82429E-004,-8.04939E+001,1.88369E-004,7,6.99997E+000,3.20280E-001
1106,1430,-9.75544E-001,3.31815E+000,4.02270E-003,1.29788E-002,-1.13966E-002,6.42955E-003,1.84301E-002,-7.99219E-005,-1.35461E-005,-8.41856E-005,4.37572E-005,-1.37225E-004,-5.57577E+001,1.40194E-004,7,6.99997E+000,3.20280E-001
1151,1655,-8.29575E-002,7.56067E+000,-6.18652E-003,1.41706E-002,-1.21204E-002,-5.47107E-003,1.94330E-002,1.77372E-005,1.38468E-005,-2.03695E-005,3.62542E-005,-4.67022E-006,-4.22725E+001,3.94438E-005,7,6.99997E+000,3.20280E-001
1121,1385,-7.02187E-001,2.47130E+000,9.62903E-003,1.13108E-002,-1.04790E-002,1.19039E-002,1.94794E-002,-9.40967E-005,2.02188E-005,-9.88737E-005,7.72671E-005,-1.51145E-004,-6.00159E+001,1.51158E-004,7,6.99997E+000,3.20280E-001
1151,695,-2.58935E-001,-1.05065E+001,-5.83643E-003,1.45073E-002,-1.22762E-002,-3.28973E-003,1.92870E-002,-5.68136E-005,-5.26104E-005,-7.99311E-006,-4.64472E-005,-6.29768E-005,-5.23657E+001,1.09839E-004,7,6.99997E+000,3.20280E-001
1121,1400,-6.97270E-001,2.75375E+000,5.76023E-003,1.29229E-002,-1.13962E-002,3.20883E-003,1.75262E-002,-8.24213E-005,7.69385E-006,-1.03234E-004,7.52749E-005,-1.50002E-004,-5.67897E+001,1.50003E-004,7,6.99997E+000,3.20280E-001
1211,1535,1.02763E+000,5.29984E+000,2.88412E-003,1.29711E-002,-1.14299E-002,2.75764E-003,1.75070E-002,7.72035E-005,-3.45890E-006,1.59009E-005,8.02248E-005,-6.48024E-006,1.07586E+001,8.91302E-005,7,6.99997E+000,3.20280E-001
1121,1235,-7.27964E-001,-3.53361E-001,7.10993E-003,1.24978E-002,-1.10084E-002,6.16946E-003,1.77606E-002,-3.88197E-004,1.23895E-005,7.55532E-006,1.25320E-005,-3.88340E-004,8.89199E+001,4.41359E-004,7,6.99997E+000,3.20280E-001
1136,680,-5.45911E-001,-1.07876E+001,-5.95605E-003,1.33320E-002,-1.18781E-002,-7.18610E-004,1.78703E-002,-3.62089E-005,-9.22636E-005,-1.67402E-005,-3.15902E-005,-9.68824E-005,-1.54245E+001,1.33889E-004,7,6.99997E+000,3.20280E-001
1091,1355,-1.27066E+000,1.90519E+000,1.02423E-002,1.38564E-002,-1.14709E-002,5.91805E-003,1.89369E-002,-2.82304E-004,2.81049E-005,-8.61147E-005,5.03946E-005,-3.04594E-004,-7.54882E+001,3.26532E-004,7,6.99997E+000,3.20280E-001
1106,785,-1.09184E+000,-8.81533E+000,-2.88165E-003,1.36856E-002,-1.18718E-002,8.78816E-004,1.81385E-002,-1.57531E-004,2.50196E-005,3.91741E-006,2.51036E-005,-1.57615E-004,8.87712E+001,1.69375E-004,7,6.99997E+000,3.20280E-001
1211,665,8.65154E-001,-1.10720E+001,-1.45687E-003,1.30438E-002,-1.19122E-002,2.96709E-003,1.79121E-002,1.47118E-004,-1.17952E-004,-2.31860E-004,2.81649E-004,-2.52484E-004,-3.01235E+001,3.09758E-004,7,6.99997E+000,3.20280E-001
1226,1055,1.22180E+000,-3.74082E+000,4.68186E-003,1.34044E-002,-1.13368E-002,3.81754E-003,1.79659E-002,3.90232E-004,8.69353E-005,-6.02667E-005,4.01769E-004,7.53988E-005,-1.08367E+001,5.13025E-004,7,6.99997E+000,3.20280E-001
1196,740,5.96729E-001,-9.66239E+000,2.20718E-003,1.32712E-002,-1.15344E-002,3.71203E-003,1.79707E-002,-5.36765E-006,-4.10383E-006,-2.51961E-005,2.04683E-005,-2.99398E-005,-4.57183E+001,3.06056E-005,7,6.99997E+000,3.20280E-001
1181,1220,4.01568E-001,-6.36420E-001,-9.09261E-004,1.23162E-002,-1.18568E-002,-2.64013E-004,1.70980E-002,-4.33344E-005,-1.10571E-005,9.25358E-005,6.67368E-005,-1.21128E-004,4.99466E+001,1.21338E-004,7,6.99997E+000,3.20280E-001
1121,800,-8.06302E-001,-8.53317E+000,2.11320E-003,1.33570E-002,-1.16182E-002,2.59739E-003,1.78924E-002,-1.17496E-004,3.36666E-005,-8.55001E-006,3.41487E-005,-1.17978E-004,-8.67730E+001,1.21415E-004,7,6.99997E+000,3.20280E-001
1136,1085,-4.71207E-001,-3.17561E+000,9.60653E-003,1.31530E-002,-1.10196E-002,5.36919E-003,1.79795E-002,-1.83895E-004,-3.84952E-005,-4.53638E-005,-2.55029E-005,-1.96887E-004,-7.40182E+001,2.43410E-004,7,6.99997E+000,3.20280E-001
1166,935,6.74187E-002,-5.99810E+000,2.95803E-003,1.35063E-002,-1.21345E-002,1.00571E-003,1.81845E-002,5.36741E-005,2.15821E-005,-6.03453E-005,1.00070E-004,-2.48141E-005,-3.75547E+001,1.04222E-004,7,6.99997E+000,3.20280E-001
1076,845,-1.64421E+000,-7.68584E+000,2.54276E-002,1.37045E-002,-1.13454E-002,9.34016E-003,2.00940E-002,-1.72138E-004,5.93214E-006,1.32846E-005,6.91775E-006,-1.73124E-004,8.57569E+001,1.96035E-004,7,6.99997E+000,3.20280E-001
1196,1085,6.62101E-001,-3.17670E+000,3.56003E-003,1.43028E-002,-1.15101E-002,1.15902E-003,1.83956E-002,1.29252E-004,2.97441E-005,-4.34611E-005,1.45561E-004,1.34350E-005,-2.05689E+001,1.76349E-004,7,6.99997E+000,3.20280E-001
1241,1700,1.62594E+000,8.41446E+000,2.82701E-003,1.30432E-002,-1.12835E-002,2.36121E-003,1.74074E-002,-1.42783E-004,6.75218E-005,-2.59296E-005,7.06716E-005,-1.45933E-004,-8.30739E+001,1.45957E-004,7,6.99997E+000,3.20280E-001
1271,1730,2.19689E+000,8.98189E+000,2.90208E-003,1.12801E-002,-1.08883E-002,5.96842E-003,1.67755E-002,-4.72433E-004,1.84520E-004,-3.99693E-005,1.86943E-004,-4.74856E-004,-8.65312E+001,4.78421E-004,7,6.99997E+000,3.20280E-001
1226,1070,1.22508E+000,-3.45929E+000,-5.59362E-003,1.41792E-002,-1.19201E-002,-3.89741E-003,1.89296E-002,3.84055E-004,9.39671E-005,-5.34703E-005,3.93597E-004,8.44251E-005,-1.01182E+001,5.10262E-004,7,6.99997E+000,3.20280E-001
1151,1220,-1.63425E-001,-6.35194E-001,1.01823E-002,1.31408E-002,-1.13994E-002,6.11558E-003,1.84398E-002,-2.11946E-004,-9.87140E-006,8.23323E-005,1.94260E-005,-2.41244E-004,7.04122E+001,2.68054E-004,7,6.99997E+000,3.20280E-001
1091,1565,-1.23370E+000,5.86299E+000,4.17989E-003,1.30982E-002,-1.10959E-002,2.68734E-003,1.73753E-002,-2.66018E-005,5.79994E-005,1.20808E-005,5.96907E-005,-2.82931E-005,8.20305E+001,5.97176E-005,7,6.99997E+000,3.20280E-001
1136,1370,-4.18806E-001,2.18734E+000,-2.44862E-003,1.39049E-002,-1.22828E-002,-2.80609E-003,1.87640E-002,-1.14878E-004,3.22464E-005,-7.73175E-005,6.54052E-005,-1.48037E-004,-6.67872E+001,1.48371E-004,7,6.99997E+000,3.20280E-001
1166,1655,1.98974E-001,7.56156E+000,-3.36725E-003,1.28562E-002,-1.19696E-002,-5.72816E-004,1.75751E-002,3.07658E-005,1.14404E-005,-1.66072E-005,4.03168E-005,1.88945E-006,-2.99037E+001,4.76822E-005,7,6.99997E+000,3.20280E-001
1211,920,9.13423E-001,-6.28037E+000,-1.86928E-003,1.34298E-002,-1.17120E-002,-1.86812E-003,1.79171E-002,3.01422E-004,-4.52111E-006,-6.11267E-005,3.13183E-004,-1.62820E-005,-1.08907E+001,3.52608E-004,7,6.99997E+000,3.20280E-001
1121,1430,-6.92156E-001,3.31786E+000,2.63828E-003,1.30079E-002,-1.17138E-002,3.84225E-003,1.79215E-002,-4.91511E-005,-5.50453E-006,-6.73724E-005,4.34910E-005,-9.81466E-005,-5.39741E+001,9.83581E-005,7,6.99997E+000,3.20280E-001
1256,1700,1.91016E+000,8.41501E+000,-3.96435E-003,1.36289E-002,-1.15728E-002,-3.77596E-003,1.82738E-002,-2.02538E-004,7.87818E-005,-2.71905E-005,8.13858E-005,-2.05142E-004,-8.45296E+001,2.06595E-004,7,6.99997E+000,3.20280E-001
1091,830,-1.36677E+000,-7.96966E+000,-8.27121E-005,1.33879E-002,-1.17445E-002,3.69982E-003,1.81895E-002,-1.34909E-004,2.93406E-005,1.24056E-005,3.02723E-005,-1.35841E-004,8.57050E+001,1.42628E-004,7,6.99997E+000,3.20280E-001
1151,1370,-1.36475E-001,2.18861E+000,6.45423E-003,1.27781E-002,-1.10460E-002,4.26308E-003,1.74203E-002,-7.20596E-005,2.75579E-005,-6.34992E-005,5.84527E-005,-1.02954E-004,-6.40553E+001,1.03269E-004,7,6.99997E+000,3.20280E-001
1136,695,-5.42712E-001,-1.05056E+001,-3.31594E-003,1.35778E-002,-1.18648E-002,1.53857E-005,1.80313E-002,-7.20476E-005,-5.57541E-005,4.46665E-006,-5.46099E-005,-7.31917E-005,7.56326E+001,1.28251E-004,7,6.99997E+000,3.20280E-001
1151,1070,-1.92121E-001,-3.45806E+000,7.85428E-003,1.23520E-002,-1.10424E-002,7.12835E-003,1.80367E-002,-9.61401E-005,-2.44124E-005,-5.69102E-005,6.99172E-006,-1.27544E-004,-6.11092E+001,1.43409E-004,7,6.99997E+000,3.20280E-001
1151,1730,-7.08022E-002,8.97642E+000,1.30474E-003,1.27001E-002,-1.14217E-002,3.70437E-003,1.74777E-002,-3.27343E-005,1.75789E-006,-3.80983E-005,2.63318E-005,-5.73082E-005,-5.71775E+001,5.73709E-005,7,6.99997E+000,3.20280E-001
1241,1655,1.61735E+000,7.56463E+000,3.26694E-004,1.30261E-002,-1.18277E-002,6.09872E-004,1.76053E-002,-5.60474E-005,-6.10119E-006,-1.09834E-005,-3.79260E-006,-5.83560E-005,-7.81298E+001,6.96767E-005,7,6.99997E+000,3.20280E-001
1211,1085,9.44161E-001,-3.17606E+000,6.21531E-003,1.32543E-002,-1.11891E-002,4.43773E-003,1.79043E-002,2.07523E-004,6.62801E-005,-4.68654E-005,2.21659E-004,5.21446E-005,-1.67844E+001,2.90769E-004,7,6.99997E+000,3.20280E-001
1226,920,1.19625E+000,-6.28125E+000,-1.69070E-003,1.32248E-002,-1.19923E-002,-1.32584E-003,1.79017E-002,3.79935E-004,-1.44763E-005,-5.37534E-005,3.87129E-004,-2.16709E-005,-7.62351E+000,4.35047E-004,7,6.99997E+000,3.20280E-001
1061,695,-1.95557E+000,-1.05041E+001,-5.23890E-004,1.41185E-002,-1.16069E-002,3.60775E-003,1.86297E-002,-1.39974E-004,-1.31369E-004,3.85369E-005,-9.68950E-005,-1.74448E-004,4.81852E+001,2.75012E-004,7,6.99997E+000,3.20280E-001
1226,1190,1.24619E+000,-1.19970E+000,5.00105E-003,1.27665E-002,-1.08183E-002,5.95318E-003,1.77612E-002,2.64666E-004,1.87403E-005,5.87415E-005,2.77977E-004,5.42979E-006,1.27673E+001,3.24161E-004,7,6.99997E+000,3.20280E-001
1256,1655,1.90069E+000,7.56536E+000,8.75426E-004,1.27171E-002,-1.15225E-002,1.34428E-003,1.72134E-002,-6.43043E-005,1.41072E-006,-3.50381E-005,1.65874E-005,-7.94810E-005,-6.65802E+001,8.38569E-005,7,6.99997E+000,3.20280E-001
1226,1085,1.22629E+000,-3.17650E+000,1.72400E-003,1.26198E-002,-1.14797E-002,3.72112E-003,1.74611E-002,2.85716E-004,1.10324E-004,-5.18636E-005,2.99905E-004,9.61359E-005,-1.53001E+001,4.13145E-004,7,6.99997E+000,3.20280E-001
1076,830,-1.64689E+000,-7.96825E+000,7.02063E-003,1.48511E-002,-1.19124E-002,9.56220E-004,1.90624E-002,-2.39747E-004,2.53814E-005,4.87553E-006,2.54710E-005,-2.39837E-004,8.89468E+001,2.63468E-004,7,6.99997E+000,3.20280E-001
1271,1700,2.19351E+000,8.41614E+000,2.58717E-003,1.30836E-002,-1.13343E-002,1.50763E-003,1.73758E-002,-4.21366E-004,4.45665E-005,5.98186E-006,4.46433E-005,-4.21443E-004,8.92646E+001,4.63022E-004,7,6.99997E+000,3.20280E-001
1166,1370,1.46679E-001,2.18937E+000,9.37527E-003,1.24113E-002,-1.10488E-002,5.21278E-003,1.74152E-002,-2.91919E-005,1.98662E-005,-4.87466E-005,4.99074E-005,-5.92331E-005,-5.83556E+001,6.36986E-005,7,6.99997E+000,3.20280E-001
1091,1730,-1.20370E+000,8.97394E+000,4.82075E-003,1.34822E-002,-1.12725E-002,5.97971E-003,1.85633E-002,-1.11135E-004,-5.04962E-005,-7.13239E-005,-3.31495E-006,-1.58317E-004,-5.65151E+001,1.84752E-004,7,6.99997E+000,3.20280E-001
1151,1250,-1.58567E-001,-7.14014E-002,2.75156E-003,1.30120E-002,-1.15251E-002,3.03860E-003,1.76457E-002,-2.46762E-004,2.84815E-006,4.70371E-005,1.14177E-005,-2.55331E-004,7.96747E+001,2.88465E-004,7,6.99997E+000,3.20280E-001
1076,695,-1.67323E+000,-1.05050E+001,-6.93848E-003,1.40644E-002,-1.18747E-002,-1.06445E-003,1.84377E-002,-1.71938E-004,-6.32633E-005,8.69468E-005,-1.50712E-005,-2.20130E-004,6.10017E+001,2.63318E-004,7,6.99997E+000,3.20280E-001
1091,965,-1.34332E+000,-5.43274E+000,1.64391E-004,1.25361E-002,-1.12584E-002,3.91684E-003,1.72988E-002,-3.75895E-004,4.73352E-005,3.14546E-005,4.96601E-005,-3.78220E-004,8.57727E+001,4.11070E-004,7,6.99997E+000,3.20280E-001
1196,1115,6.66082E-001,-2.61252E+000,4.37312E-003,1.28804E-002,-1.16784E-002,3.32765E-003,1.77021E-002,1.86777E-004,4.88788E-005,-4.09454E-005,1.98018E-004,3.76375E-005,-1.53520E+001,2.53195E-004,7,6.99997E+000,3.20280E-001
1151,1490,-1.14603E-001,4.45060E+000,6.10856E-003,1.26014E-002,-1.08812E-002,4.18890E-003,1.71681E-002,2.56081E-005,2.73292E-005,4.07636E-006,3.06348E-005,2.23024E-005,5.09601E+001,5.31554E-005,7,6.99997E+000,3.20280E-001
1136,1040,-4.79370E-001,-4.02325E+000,-6.29980E-003,1.40157E-002,-1.16517E-002,-3.59446E-003,1.85775E-002,-1.69036E-004,-2.39393E-005,-5.20707E-005,-7.18691E-006,-1.85788E-004,-7.21658E+001,2.18797E-004,7,6.99997E+000,3.20280E-001
1151,1085,-1.88225E-001,-3.17641E+000,4.06072E-003,1.33635E-002,-1.14022E-002,2.13931E-003,1.76966E-002,-1.05673E-004,-3.32420E-005,-4.25485E-005,-1.35832E-005,-1.25332E-004,-6.52015E+001,1.53166E-004,7,6.99997E+000,3.20280E-001
1106,1655,-9.33783E-001,7.55978E+000,5.88358E-003,1.33485E-002,-1.12198E-002,4.36612E-003,1.79758E-002,-5.51124E-005,2.60444E-005,-4.90807E-005,4.91490E-005,-7.82170E-005,-6.47914E+001,7.90715E-005,7,6.99997E+000,3.20280E-001
1151,815,-2.38823E-001,-8.25292E+000,-2.64570E-003,1.29254E-002,-1.17706E-002,1.78414E-003,1.75726E-002,-6.02754E-005,4.79461E-005,-2.29331E-005,5.26052E-005,-6.49345E-005,-7.85160E+001,6.89725E-005,7,6.99997E+000,3.20280E-001
1226,1700,1.34189E+000,8.41387E+000,5.18009E-003,1.27250E-002,-1.10550E-002,5.07582E-003,1.76041E-002,-1.29812E-004,3.57143E-005,1.24183E-006,3.57236E-005,-1.29821E-004,8.95702E+001,1.34125E-004,7,6.99997E+000,3.20280E-001
1091,995,-1.33634E+000,-4.86877E+000,7.44854E-003,1.32643E-002,-1.16968E-002,3.86452E-003,1.81023E-002,-4.71774E-004,1.77946E-005,6.30543E-005,2.57853E-005,-4.79765E-004,8.27776E+001,5.39714E-004,7,6.99997E+000,3.20280E-001
1136,1070,-4.74148E-001,-3.45828E+000,7.56318E-003,1.31625E-002,-1.13726E-002,5.13735E-003,1.81378E-002,-1.92164E-004,-2.73587E-005,-5.31808E-005,-1.16879E-005,-2.07835E-004,-7.35813E+001,2.47011E-004,7,6.99997E+000,3.20280E-001
1091,695,-1.39135E+000,-1.05052E+001,1.88733E-004,1.32723E-002,-1.18071E-002,5.59822E-003,1.86253E-002,-5.05157E-005,-8.39797E-005,5.21274E-005,-1.25008E-005,-1.21995E-004,3.61021E+001,1.48611E-004,7,6.99997E+000,3.20280E-001
1181,1370,4.31371E-001,2.18888E+000,-1.28044E-003,1.38078E-002,-1.22689E-002,-5.19274E-003,1.91871E-002,1.36433E-005,9.18999E-006,-3.30733E-005,4.45648E-005,-2.17316E-005,-4.30742E+001,4.45694E-005,7,6.99997E+000,3.20280E-001
1166,1250,1.25827E-001,-7.13241E-002,-4.72474E-004,1.41533E-002,-1.17537E-002,-6.42554E-004,1.84086E-002,-1.77233E-004,-3.32133E-006,7.33959E-005,2.35134E-005,-2.04067E-004,6.99168E+001,2.23302E-004,7,6.99997E+000,3.20280E-001
1196,920,6.29793E-001,-6.27976E+000,5.26957E-003,1.28303E-002,-1.12388E-002,5.05569E-003,1.77901E-002,2.22688E-004,3.96221E-006,-6.37350E-005,2.39904E-004,-1.32545E-005,-1.51165E+001,2.69691E-004,7,6.99997E+000,3.20280E-001
1136,1385,-4.16832E-001,2.47064E+000,-6.54874E-005,1.33086E-002,-1.17429E-002,1.13234E-003,1.77847E-002,-6.27933E-005,2.11886E-005,-8.37379E-005,7.28741E-005,-1.14479E-004,-5.83159E+001,1.15894E-004,7,6.99997E+000,3.20280E-001
1121,1325,-7.10689E-001,1.34123E+000,7.13980E-003,1.31642E-002,-1.10675E-002,4.40722E-003,1.77541E-002,-1.18243E-004,4.96758E-005,-8.94322E-005,8.83839E-005,-1.56951E-004,-6.65961E+001,1.57367E-004,7,6.99997E+000,3.20280E-001
1151,680,-2.62593E-001,-1.07873E+001,-3.63915E-005,1.35999E-002,-1.15013E-002,2.61772E-003,1.80025E-002,-2.41638E-005,-9.17602E-005,-3.42301E-005,-9.85777E-006,-1.06066E-004,-2.26819E+001,1.28545E-004,7,6.99997E+000,3.20280E-001
1106,1730,-9.20653E-001,8.97573E+000,9.07159E-003,1.29739E-002,-1.05320E-002,8.99505E-003,1.89778E-002,-7.18219E-005,-4.40929E-005,-6.17127E-005,5.29355E-006,-1.21208E-004,-5.13310E+001,1.37005E-004,7,6.99997E+000,3.20280E-001
1151,1040,-1.97828E-001,-4.02275E+000,4.77795E-003,1.24357E-002,-1.12634E-002,6.55241E-003,1.80123E-002,-6.20003E-005,-2.72695E-005,-5.59369E-005,1.39354E-005,-1.03205E-004,-5.36234E+001,1.11996E-004,7,6.99997E+000,3.20280E-001
1196,1655,7.66449E-001,7.56320E+000,2.70198E-003,1.30993E-002,-1.13244E-002,4.03926E-003,1.77805E-002,5.36547E-005,7.27738E-006,-1.30491E-005,5.70742E-005,3.85788E-006,-1.46841E+001,6.82401E-005,7,6.99997E+000,3.20280E-001
1166,815,4.44206E-002,-8.25263E+000,2.70863E-003,1.30920E-002,-1.11749E-002,5.42688E-003,1.80480E-002,-3.03273E-005,4.47526E-005,-2.99239E-005,5.52198E-005,-4.07945E-005,-7.07204E+001,5.72800E-005,7,6.99997E+000,3.20280E-001
1211,740,8.80595E-001,-9.66273E+000,-1.80713E-003,1.40153E-002,-1.14038E-002,-2.02313E-003,1.81815E-002,1.49991E-005,-1.10178E-005,-2.57909E-005,3.08765E-005,-2.68952E-005,-3.16173E+001,3.35913E-005,7,6.99997E+000,3.20280E-001
1136,1400,-4.13311E-001,2.75332E+000,-5.36959E-004,1.38491E-002,-1.18163E-002,-1.33348E-003,1.82538E-002,-4.45592E-005,5.73893E-006,-8.42215E-005,6.84860E-005,-1.07306E-004,-5.33130E+001,1.08665E-004,7,6.99997E+000,3.20280E-001
1196,1145,6.70862E-001,-2.04723E+000,8.37238E-003,1.22303E-002,-1.11918E-002,8.51865E-003,1.86388E-002,1.57244E-004,5.21446E-005,3.01784E-005,1.65293E-004,4.40955E-005,1.49340E+001,2.20771E-004,7,6.99997E+000,3.20280E-001
1166,1490,1.68699E-001,4.45083E+000,5.04493E-003,1.27150E-002,-1.12283E-002,4.70646E-003,1.76038E-002,4.48185E-005,3.08225E-005,8.61447E-006,4.89192E-005,2.67218E-005,2.54556E+001,7.67191E-005,7,6.99997E+000,3.20280E-001
1181,1250,4.09483E-001,-7.08268E-002,5.99202E-004,1.43101E-002,-1.14750E-002,-1.87298E-003,1.84380E-002,-1.07895E-004,-7.81648E-006,9.65464E-005,5.08876E-005,-1.66599E-004,5.86987E+001,1.70752E-004,7,6.99997E+000,3.20280E-001
1091,1415,-1.26212E+000,3.03421E+000,-7.11400E-003,1.28077E-002,-1.19112E-002,-4.42508E-004,1.74960E-002,-1.89313E-004,-3.63140E-006,-9.59402E-005,3.70342E-005,-2.29978E-004,-6.70297E+001,2.46967E-004,7,6.99997E+000,3.20280E-001
1151,1100,-1.85312E-001,-2.89490E+000,1.24171E-003,1.36152E-002,-1.18275E-002,4.68020E-005,1.80352E-002,-8.05133E-005,-4.43518E-005,-3.74976E-005,-2.08034E-005,-1.04062E-004,-5.78713E+001,1.33798E-004,7,6.99997E+000,3.20280E-001
1121,680,-8.29423E-001,-1.07862E+001,3.48733E-003,1.22856E-002,-1.11434E-002,6.61462E-003,1.78568E-002,-4.83202E-005,-9.61790E-005,1.79709E-006,-4.82528E-005,-9.62464E-005,2.14741E+000,1.47132E-004,7,6.99997E+000,3.20280E-001
1106,1220,-1.01337E+000,-6.37305E-001,-1.16067E-003,1.31528E-002,-1.19433E-002,3.78708E-005,1.77662E-002,-4.66095E-004,1.32141E-005,2.37447E-005,1.43876E-005,-4.67269E-004,8.71708E+001,5.31444E-004,7,6.99997E+000,3.20280E-001
1121,1115,-7.49144E-001,-2.61254E+000,7.44599E-004,1.34261E-002,-1.15360E-002,2.06270E-003,1.78212E-002,-3.09941E-004,-5.18575E-005,-2.52530E-005,-4.94097E-005,-3.12388E-004,-8.44637E+001,3.92365E-004,7,6.99997E+000,3.20280E-001
1061,1715,-1.77340E+000,8.68899E+000,-1.67823E-003,1.35246E-002,-1.12919E-002,2.28603E-003,1.77665E-002,-2.06040E-004,1.18262E-005,-7.92123E-006,1.21139E-005,-2.06328E-004,-8.79205E+001,2.31570E-004,7,6.99997E+000,3.20280E-001
1106,695,-1.10870E+000,-1.05053E+001,-4.79410E-004,1.31812E-002,-1.17162E-002,4.30492E-003,1.81534E-002,-1.02439E-004,-6.75103E-005,3.10128E-005,-4.93827E-005,-1.20567E-004,5.96928E+001,1.74848E-004,7,6.99997E+000,3.20280E-001
1196,1385,7.16253E-001,2.47183E+000,4.59183E-003,1.28110E-002,-1.16089E-002,2.81290E-003,1.75157E-002,6.23795E-005,-6.05289E-006,-3.98748E-006,6.26110E-005,-6.28445E-006,-3.32357E+000,6.89556E-005,7,6.99997E+000,3.20280E-001
1181,830,3.31053E-001,-7.97130E+000,-3.45446E-004,1.37920E-002,-1.17393E-002,2.26167E-004,1.81130E-002,1.52230E-005,3.75664E-005,-3.73347E-005,6.53650E-005,-1.25756E-005,-5.33294E+001,6.93659E-005,7,6.99997E+000,3.20280E-001
1181,815,3.28997E-001,-8.25279E+000,4.18659E-003,1.41504E-002,-1.16446E-002,1.80417E-003,1.84143E-002,-4.36951E-007,3.86882E-005,-3.60721E-005,6.01609E-005,-2.19096E-005,-5.92359E+001,6.08962E-005,7,6.99997E+000,3.20280E-001
1061,680,-1.95925E+000,-1.07858E+001,-5.99236E-003,1.34441E-002,-1.19900E-002,1.09170E-003,1.80471E-002,-8.05594E-005,-1.26874E-004,1.88545E-006,-8.04828E-005,-1.26951E-004,2.32736E+000,2.09161E-004,7,6.99997E+000,3.20280E-001
1211,1655,1.05013E+000,7.56355E+000,-9.61882E-004,1.32075E-002,-1.17281E-002,4.68422E-004,1.76694E-002,4.19069E-005,1.81645E-006,-3.59611E-006,4.22269E-005,1.49643E-006,-5.08534E+000,4.96459E-005,7,6.99997E+000,3.20280E-001
1211,1175,9.60197E-001,-1.48236E+000,6.16390E-003,1.27079E-002,-1.08948E-002,5.86908E-003,1.77380E-002,2.51810E-004,4.24490E-005,7.12350E-005,2.73749E-004,2.05102E-005,1.71176E+001,3.28580E-004,7,6.99997E+000,3.20280E-001
1181,920,3.47489E-001,-6.28006E+000,9.61072E-004,1.34289E-002,-1.17309E-002,-2.79455E-004,1.78333E-002,1.43843E-004,1.09660E-005,-6.15806E-005,1.67993E-004,-1.31838E-005,-2.14134E+001,1.86836E-004,7,6.99997E+000,3.20280E-001
1211,1115,9.49550E-001,-2.61242E+000,3.55862E-003,1.30363E-002,-1.14032E-002,1.50923E-003,1.73856E-002,2.86112E-004,8.79349E-005,-4.96024E-005,2.97834E-004,7.62131E-005,-1.32960E+001,3.95327E-004,7,6.99997E+000,3.20280E-001
1106,1520,-9.58442E-001,5.01227E+000,-9.57076E-003,1.39216E-002,-1.24827E-002,-5.46981E-003,1.94820E-002,-3.47423E-005,9.09822E-006,-6.75762E-006,1.01162E-005,-3.57603E-005,-8.14332E+001,3.68670E-005,7,6.99997E+000,3.20280E-001
1136,1325,-4.27542E-001,1.34110E+000,6.28859E-003,1.32679E-002,-1.11253E-002,4.75293E-003,1.79555E-002,-1.41604E-004,5.27434E-005,-7.37315E-005,7.75495E-005,-1.66410E-004,-7.14051E+001,1.66538E-004,7,6.99997E+000,3.20280E-001
1121,1220,-7.29769E-001,-6.36627E-001,-1.65435E-003,1.35601E-002,-1.19617E-002,-1.41029E-003,1.81369E-002,-3.81254E-004,2.73602E-006,4.89957E-005,8.88909E-006,-3.87407E-004,8.28421E+001,4.42297E-004,7,6.99997E+000,3.20280E-001
1076,1595,-1.51179E+000,6.42722E+000,4.02912E-003,1.30323E-002,-1.14410E-002,4.10638E-003,1.78214E-002,-5.46769E-006,5.34393E-005,-3.19661E-005,6.74523E-005,-1.94807E-005,-6.63287E+001,6.94291E-005,7,6.99997E+000,3.20280E-001
1106,995,-1.05363E+000,-4.86915E+000,-7.68622E-003,1.40543E-002,-1.15683E-002,-2.93950E-003,1.84388E-002,-3.54328E-004,1.82833E-005,2.21991E-005,1.96012E-005,-3.55646E-004,8.66025E+001,3.99828E-004,7,6.99997E+000,3.20280E-001
1196,830,6.14075E-001,-7.97121E+000,4.55035E-003,1.34568E-002,-1.16063E-002,1.72833E-003,1.78544E-002,4.58661E-005,2.92070E-005,-4.38462E-005,8.21669E-005,-7.09384E-006,-3.96218E+001,9.10593E-005,7,6.99997E+000,3.20280E-001
1136,1220,-4.47161E-001,-6.36000E-001,2.74870E-003,1.30018E-002,-1.18755E-002,2.56897E-003,1.77953E-002,-2.96589E-004,-4.97110E-006,6.85280E-005,1.03296E-005,-3.11890E-004,7.74136E+001,3.54326E-004,7,6.99997E+000,3.20280E-001
1151,1340,-1.41534E-001,1.62371E+000,5.78654E-003,1.32427E-002,-1.14582E-002,3.77416E-003,1.79138E-002,-1.70623E-004,5.18073E-005,-5.36826E-005,6.40856E-005,-1.82902E-004,-7.71169E+001,1.85611E-004,7,6.99997E+000,3.20280E-001
1076,860,-1.63977E+000,-7.40419E+000,3.71443E-002,1.42364E-002,-1.13334E-002,1.02659E-002,2.08928E-002,-1.59408E-004,5.64591E-006,1.47199E-005,6.94839E-006,-1.60710E-004,8.49434E+001,1.81694E-004,7,6.99997E+000,3.20280E-001
1106,875,-1.07661E+000,-7.12395E+000,1.95555E-003,1.24927E-002,-1.14040E-002,4.33782E-003,1.74624E-002,-1.31968E-004,4.99385E-005,1.09318E-005,5.05931E-005,-1.32623E-004,8.65732E+001,1.33859E-004,7,6.99997E+000,3.20280E-001
1136,815,-5.20754E-001,-8.25219E+000,-2.29549E-003,1.35358E-002,-1.17966E-002,-4.33191E-004,1.79601E-002,-9.02833E-005,4.82891E-005,-1.50776E-005,4.99107E-005,-9.19048E-005,-8.38616E+001,9.20184E-005,7,6.99997E+000,3.20280E-001
1226,1175,1.24318E+000,-1.48305E+000,-1.12981E-003,1.28032E-002,-1.14715E-002,1.80932E-003,1.72856E-002,3.61655E-004,5.72059E-005,6.18710E-005,3.73748E-004,4.51126E-005,1.10595E+001,4.59831E-004,7,6.99997E+000,3.20280E-001
1211,1130,9.53335E-001,-2.32982E+000,-3.64001E-004,1.38640E-002,-1.19128E-002,-3.67914E-003,1.86457E-002,2.72707E-004,8.96896E-005,-7.41957E-007,2.72710E-004,8.96866E-005,-2.32273E-001,3.77488E-004,7,6.99997E+000,3.20280E-001
1076,680,-1.67608E+000,-1.07862E+001,-4.15598E-003,1.37324E-002,-1.19167E-002,2.48648E-004,1.81837E-002,-6.47234E-005,-1.09879E-004,1.18203E-004,3.30386E-005,-2.07641E-004,3.95931E+001,2.23148E-004,7,6.99997E+000,3.20280E-001
1226,1655,1.33343E+000,7.56537E+000,4.79754E-003,1.27959E-002,-1.06846E-002,5.46168E-003,1.75421E-002,6.19590E-006,1.89893E-007,3.34447E-006,7.68772E-006,-1.30193E-006,2.40396E+001,8.22899E-006,7,6.99997E+000,3.20280E-001
1091,1520,-1.24291E+000,5.01334E+000,4.22294E-003,1.24359E-002,-1.13164E-002,6.01359E-003,1.78571E-002,-3.93928E-005,4.66817E-006,-1.77917E-005,1.09553E-005,-4.56799E-005,-7.05379E+001,4.76968E-005,7,6.99997E+000,3.20280E-001
1151,1325,-1.44299E-001,1.34113E+000,3.17045E-003,1.32148E-002,-1.16445E-002,1.00704E-003,1.76420E-002,-1.65109E-004,5.04518E-005,-5.55744E-005,6.39361E-005,-1.78593E-004,-7.63616E+001,1.80978E-004,7,6.99997E+000,3.20280E-001
1076,1715,-1.49073E+000,8.69038E+000,3.93122E-003,1.28400E-002,-1.10853E-002,7.75413E-003,1.86514E-002,-1.31486E-004,-1.72467E-005,-5.38381E-005,4.12683E-006,-1.52860E-004,-6.83471E+001,1.74174E-004,7,6.99997E+000,3.20280E-001
1121,695,-8.26300E-001,-1.05051E+001,2.81786E-003,1.25473E-002,-1.16477E-002,4.68436E-003,1.77495E-002,-8.72520E-005,-6.07063E-005,1.74515E-005,-5.20538E-005,-9.59045E-005,6.36275E+001,1.50109E-004,7,6.99997E+000,3.20280E-001
1181,770,3.19898E-001,-9.09880E+000,4.05622E-003,1.34140E-002,-1.19925E-002,2.25704E-003,1.81342E-002,-5.02539E-006,2.51290E-005,-2.49454E-005,3.91997E-005,-1.90960E-005,-6.05745E+001,3.92040E-005,7,6.99997E+000,3.20280E-001
1196,1685,7.72639E-001,8.12953E+000,3.50945E-003,1.31366E-002,-1.15272E-002,1.26593E-004,1.74774E-002,-6.17210E-006,1.86241E-005,-2.06003E-005,3.02694E-005,-1.78174E-005,-6.05206E+001,3.04275E-005,7,6.99997E+000,3.20280E-001
1166,1040,8.77165E-002,-4.02398E+000,-4.39577E-003,1.45944E-002,-1.24349E-002,-5.55390E-003,1.99617E-002,4.50996E-005,-2.26774E-005,-5.90868E-005,7.93264E-005,-5.69041E-005,-3.00821E+001,8.17863E-005,7,6.99997E+000,3.20280E-001
1136,1250,-4.41698E-001,-7.14689E-002,4.71919E-003,1.28213E-002,-1.16995E-002,3.11263E-003,1.76339E-002,-3.16450E-004,1.06987E-005,1.74652E-005,1.16285E-005,-3.17379E-004,8.69527E+001,3.59952E-004,7,6.99997E+000,3.20280E-001
1106,965,-1.05904E+000,-5.43333E+000,-6.48976E-003,1.41054E-002,-1.17955E-002,-1.42785E-003,1.84427E-002,-2.84270E-004,3.53642E-005,7.34358E-006,3.55329E-005,-2.84439E-004,8.86846E+001,3.09970E-004,7,6.99997E+000,3.20280E-001
1121,1730,-6.37030E-001,8.97439E+000,-2.18012E-003,1.35680E-002,-1.20784E-002,1.25348E-003,1.82085E-002,-4.06317E-005,-3.38907E-005,-5.22842E-005,1.51315E-005,-8.96539E-005,-4.68442E+001,9.59874E-005,7,6.99997E+000,3.20280E-001
1196,1370,7.13386E-001,2.18915E+000,6.03860E-003,1.28807E-002,-1.12253E-002,5.45055E-003,1.79340E-002,5.63154E-005,-4.57418E-006,-1.64359E-005,6.04686E-005,-8.72744E-006,-1.41814E+001,6.53696E-005,7,6.99997E+000,3.20280E-001
1076,1550,-1.51982E+000,5.57941E+000,1.02481E-002,1.30398E-002,-1.11221E-002,9.56091E-003,1.96252E-002,4.04180E-005,5.00133E-005,-4.22851E-005,8.77721E-005,2.65926E-006,-4.82365E+001,1.02920E-004,7,6.99997E+000,3.20280E-001
1226,1535,1.31221E+000,5.30060E+000,-2.31347E-003,1.37827E-002,-1.17233E-002,-4.32924E-003,1.86048E-002,1.14445E-004,-7.72039E-006,7.36127E-006,1.14887E-004,-8.16235E-006,3.43588E+000,1.28208E-004,7,6.99997E+000,3.20280E-001
1226,1505,1.30620E+000,4.73448E+000,-1.20470E-003,1.35226E-002,-1.17252E-002,-2.25722E-003,1.80399E-002,1.28642E-004,1.70996E-005,4.40443E-005,1.43936E-004,1.80514E-006,1.91497E+001,1.67255E-004,7,6.99997E+000,3.20280E-001
1211,800,8.91027E-001,-8.53580E+000,-1.71662E-004,1.34527E-002,-1.20251E-002,8.97733E-004,1.80661E-002,5.37584E-005,9.55253E-006,-3.33949E-005,7.17024E-005,-8.39148E-006,-2.82504E+001,7.84003E-005,7,6.99997E+000,3.20280E-001
1226,785,1.17207E+000,-8.81814E+000,-5.42586E-003,1.42940E-002,-1.18515E-002,-4.39984E-003,1.90823E-002,5.20039E-005,-2.66868E-006,-3.90167E-005,7.23076E-005,-2.29724E-005,-2.74919E+001,7.38922E-005,7,6.99997E+000,3.20280E-001
1226,980,1.20752E+000,-5.15228E+000,-6.53857E-004,1.33873E-002,-1.17671E-002,6.38213E-004,1.78351E-002,4.70665E-004,2.76751E-005,-7.46302E-005,4.82900E-004,1.54401E-005,-9.31033E+000,5.66730E-004,7,6.99997E+000,3.20280E-001
1151,1625,-8.91828E-002,6.99502E+000,-2.24156E-003,1.36718E-002,-1.21784E-002,2.47510E-004,1.83110E-002,7.32461E-006,-3.17762E-006,1.16782E-006,7.45290E-006,-3.30591E-006,6.26912E+000,7.46870E-006,7,6.99997E+000,3.20280E-001
1196,1400,7.18811E-001,2.75430E+000,2.06558E-003,1.28251E-002,-1.16824E-002,2.36869E-003,1.75092E-002,1.07062E-004,-5.62446E-006,-9.23613E-007,1.07069E-004,-5.63203E-006,-4.69573E-001,1.20513E-004,7,6.99997E+000,3.20280E-001
1121,1340,-7.08165E-001,1.62302E+000,4.70702E-003,1.30106E-002,-1.16176E-002,2.45157E-003,1.76141E-002,-1.59818E-004,4.95297E-005,-8.30521E-005,7.84756E-005,-1.88764E-004,-7.07851E+001,1.89656E-004,7,6.99997E+000,3.20280E-001
1091,1595,-1.22894E+000,6.42770E+000,1.36279E-003,1.27042E-002,-1.16194E-002,2.27922E-003,1.73667E-002,-8.68169E-005,5.04156E-005,2.83563E-007,5.04162E-005,-8.68175E-005,8.98816E+001,8.71937E-005,7,6.99997E+000,3.20280E-001
1151,1685,-7.96160E-002,8.12661E+000,-3.34926E-003,1.25393E-002,-1.16113E-002,2.07853E-003,1.72156E-002,-7.00186E-007,7.97945E-006,-2.40100E-005,2.80386E-005,-2.07594E-005,-5.01228E+001,2.90987E-005,7,6.99997E+000,3.20280E-001
1121,995,-7.71243E-001,-4.86858E+000,5.72476E-003,1.31809E-002,-1.10804E-002,7.44847E-003,1.87614E-002,-2.36569E-004,1.88230E-005,-1.27349E-005,1.94564E-005,-2.37202E-004,-8.71524E+001,2.63384E-004,7,6.99997E+000,3.20280E-001
1091,680,-1.39388E+000,-1.07862E+001,4.38787E-004,1.32595E-002,-1.15454E-002,4.39589E-003,1.81228E-002,1.02143E-005,-1.22518E-004,5.45415E-005,2.97506E-005,-1.42055E-004,1.97071E+001,1.49837E-004,7,6.99997E+000,3.20280E-001
1181,1040,3.70179E-001,-4.02308E+000,3.21297E-003,1.34293E-002,-1.17345E-002,-2.61638E-003,1.80248E-002,1.52245E-004,-1.01563E-005,-6.14875E-005,1.72899E-004,-3.08097E-005,-1.85670E+001,1.84450E-004,7,6.99997E+000,3.20280E-001
1211,1490,1.01869E+000,4.45264E+000,1.26623E-002,1.20447E-002,-1.05066E-002,9.21683E-003,1.84503E-002,1.02485E-004,3.59108E-005,2.94664E-005,1.13653E-004,2.47423E-005,2.07580E+001,1.47609E-004,7,6.99997E+000,3.20280E-001
1211,830,8.97154E-001,-7.97132E+000,6.39412E-003,1.35550E-002,-1.15471E-002,3.66151E-003,1.81791E-002,7.63513E-005,1.80294E-005,-4.98929E-005,1.04980E-004,-1.05995E-005,-2.98475E+001,1.15588E-004,7,6.99997E+000,3.20280E-001
1136,1730,-3.54297E-001,8.97597E+000,-5.69091E-005,1.28655E-002,-1.09273E-002,3.65393E-003,1.72707E-002,-2.72652E-005,-1.40745E-005,-3.82858E-005,1.81799E-005,-5.95196E-005,-4.98871E+001,6.10031E-005,7,6.99997E+000,3.20280E-001
1121,875,-7.92116E-001,-7.12438E+000,2.93029E-003,1.36234E-002,-1.16302E-002,6.20234E-004,1.79232E-002,-8.93280E-005,5.18337E-005,-5.94564E-006,5.20837E-005,-8.95779E-005,-8.75924E+001,8.99731E-005,7,6.99997E+000,3.20280E-001
1166,860,5.35723E-002,-7.40679E+000,7.92128E-004,1.37411E-002,-1.14661E-002,1.51432E-003,1.79606E-002,2.31958E-005,5.58492E-005,-2.83135E-005,7.22061E-005,6.83888E-006,-5.99847E+001,8.75922E-005,7,6.99997E+000,3.20280E-001
1136,1340,-4.25665E-001,1.62404E+000,7.37976E-003,1.25157E-002,-1.07652E-002,6.86353E-003,1.78785E-002,-1.65203E-004,5.35842E-005,-6.87185E-005,7.33773E-005,-1.84996E-004,-7.39319E+001,1.86309E-004,7,6.99997E+000,3.20280E-001
1091,1460,-1.25246E+000,3.88286E+000,9.78339E-004,1.36623E-002,-1.15916E-002,1.97657E-003,1.80258E-002,-8.20317E-005,-4.36243E-006,-2.48000E-005,2.88081E-006,-8.92750E-005,-7.37187E+001,1.01464E-004,7,6.99997E+000,3.20280E-001
1196,815,6.11898E-001,-8.25309E+000,2.86578E-003,1.41092E-002,-1.17199E-002,5.22063E-004,1.83493E-002,2.92620E-005,2.97466E-005,-4.13610E-005,7.08661E-005,-1.18574E-005,-4.51678E+001,7.59150E-005,7,6.99997E+000,3.20280E-001
1211,1145,9.56521E-001,-2.04708E+000,3.88349E-003,1.42459E-002,-1.16643E-002,5.03461E-004,1.84188E-002,2.54560E-004,8.85732E-005,2.45019E-005,2.58102E-004,8.50320E-005,8.22399E+000,3.57386E-004,7,6.99997E+000,3.20280E-001
1091,935,-1.34833E+000,-5.99630E+000,7.41198E-004,1.28879E-002,-1.13540E-002,4.15293E-003,1.76708E-002,-3.79244E-004,3.34497E-005,4.26042E-005,3.78021E-005,-3.83597E-004,8.41671E+001,4.22808E-004,7,6.99997E+000,3.20280E-001
1076,1565,-1.51753E+000,5.86186E+000,4.88580E-003,1.28398E-002,-1.15207E-002,6.09421E-003,1.82956E-002,2.05307E-005,6.97839E-005,4.76264E-006,7.02402E-005,2.00744E-005,8.45272E+001,9.48451E-005,7,6.99997E+000,3.20280E-001
1151,1025,-2.00153E-001,-4.30520E+000,1.50027E-003,1.28918E-002,-1.15150E-002,3.54774E-003,1.76460E-002,-2.52101E-005,-5.88320E-007,-7.78780E-005,6.59458E-005,-9.17443E-005,-4.94915E+001,9.46271E-005,7,6.99997E+000,3.20280E-001
1226,665,1.14980E+000,-1.10721E+001,7.24034E-004,1.43628E-002,-1.14847E-002,1.49746E-003,1.84508E-002,8.19980E-005,-1.12880E-004,-2.75427E-004,2.76714E-004,-3.07596E-004,-3.52588E+001,3.38762E-004,7,6.99997E+000,3.20280E-001
1121,1370,-7.02795E-001,2.18710E+000,-2.09652E-003,1.33827E-002,-1.17962E-002,-3.56766E-004,1.78431E-002,-1.57734E-004,3.39306E-005,-9.02189E-005,6.97162E-005,-1.93520E-004,-6.83641E+001,1.96023E-004,7,6.99997E+000,3.20280E-001
1091,980,-1.33947E+000,-5.15090E+000,6.14186E-003,1.32559E-002,-1.13870E-002,6.08473E-003,1.85043E-002,-3.41932E-004,4.34717E-005,4.44526E-007,4.34722E-005,-3.41933E-004,8.99339E+001,3.72278E-004,7,6.99997E+000,3.20280E-001
1226,1625,1.32798E+000,6.99809E+000,-3.50593E-003,1.30321E-002,-1.16670E-002,-2.44767E-003,1.76620E-002,6.19004E-005,-2.83452E-005,-1.41583E-006,6.19226E-005,-2.83674E-005,-8.98598E-001,6.19950E-005,7,6.99997E+000,3.20280E-001
1091,1715,-1.20729E+000,8.69101E+000,9.72411E-004,1.29041E-002,-1.11141E-002,4.68749E-003,1.76638E-002,-9.33940E-005,-2.82863E-005,-5.79088E-005,5.59159E-006,-1.27272E-004,-5.96714E+001,1.43841E-004,7,6.99997E+000,3.20280E-001
1241,1685,1.62276E+000,8.13102E+000,3.61450E-004,1.29607E-002,-1.15515E-002,2.11732E-003,1.74900E-002,-1.17740E-004,3.31027E-005,-1.38358E-005,3.43613E-005,-1.18999E-004,-8.48024E+001,1.22488E-004,7,6.99997E+000,3.20280E-001
1091,1310,-1.27792E+000,1.05822E+000,1.61966E-002,1.40836E-002,-1.14317E-002,6.13374E-003,1.91482E-002,-1.04000E-004,1.92950E-006,-1.03871E-004,6.55597E-005,-1.67630E-004,-5.85087E+001,1.68950E-004,7,6.99997E+000,3.20280E-001
1241,1535,1.59470E+000,5.30149E+000,4.04555E-003,1.27236E-002,-1.14646E-002,2.10990E-003,1.72563E-002,2.57368E-005,-3.77008E-006,3.91796E-005,5.28487E-005,-3.08820E-005,3.46828E+001,5.30988E-005,7,6.99997E+000,3.20280E-001
1196,755,5.99522E-001,-9.38127E+000,-9.68533E-005,1.33235E-002,-1.20024E-002,1.66092E-003,1.80092E-002,1.65103E-006,1.32454E-005,-2.40552E-005,3.21921E-005,-1.72957E-005,-5.17748E+001,3.22219E-005,7,6.99997E+000,3.20280E-001
1136,785,-5.25608E-001,-8.81473E+000,5.69658E-003,1.35995E-002,-1.14972E-002,2.96053E-003,1.80526E-002,-9.66873E-005,3.12476E-005,-1.19181E-005,3.23484E-005,-9.77881E-005,-8.47230E+001,9.96370E-005,7,6.99997E+000,3.20280E-001
1091,1550,-1.23728E+000,5.57915E+000,1.65941E-003,1.26959E-002,-1.14587E-002,4.11429E-003,1.75902E-002,-2.21192E-005,4.47946E-005,-1.49365E-005,4.79773E-005,-2.53020E-005,-7.79711E+001,4.80013E-005,7,6.99997E+000,3.20280E-001
1226,830,1.17957E+000,-7.97189E+000,-2.92446E-003,1.35092E-002,-1.14469E-002,-9.65810E-004,1.77331E-002,6.18486E-005,5.10687E-006,-6.11160E-005,1.00858E-004,-3.39024E-005,-3.25493E+001,1.02647E-004,7,6.99997E+000,3.20280E-001
1106,680,-1.11092E+000,-1.07862E+001,-2.79743E-003,1.34909E-002,-1.14142E-002,4.95678E-004,1.76787E-002,-6.03800E-005,-1.03623E-004,2.14297E-005,-5.15593E-005,-1.12443E-004,2.23725E+001,1.67727E-004,7,6.99997E+000,3.20280E-001
1076,1520,-1.52486E+000,5.01383E+000,-1.81733E-003,1.35710E-002,-1.12210E-002,-1.16703E-003,1.76478E-002,-6.90512E-006,-1.62497E-005,-5.27906E-005,4.14196E-005,-6.45744E-005,-4.24711E+001,6.54298E-005,7,6.99997E+000,3.20280E-001
1196,1265,6.92976E-001,2.13042E-001,1.69409E-002,1.18511E-002,-9.97251E-003,1.52611E-002,2.17439E-002,-3.18622E-005,-1.94623E-005,9.70663E-005,7.16019E-005,-1.22926E-004,4.68274E+001,1.23483E-004,7,6.99997E+000,3.20280E-001
1091,1655,-1.21809E+000,7.55877E+000,1.28623E-003,1.29089E-002,-1.13238E-002,4.22136E-003,1.76830E-002,-9.08980E-005,2.63199E-005,-5.20397E-005,4.60892E-005,-1.10667E-004,-6.91988E+001,1.11181E-004,7,6.99997E+000,3.20280E-001
1226,1490,1.30308E+000,4.45154E+000,1.13886E-003,1.30935E-002,-1.16746E-002,-9.66442E-004,1.75690E-002,1.01637E-004,3.53169E-005,3.63513E-005,1.17680E-004,1.92732E-005,2.38144E+001,1.48271E-004,7,6.99997E+000,3.20280E-001
1241,665,1.43194E+000,-1.10724E+001,5.98425E-003,1.33804E-002,-1.18512E-002,5.23256E-003,1.86243E-002,5.80355E-005,-7.99438E-005,-3.66718E-004,3.62197E-004,-3.84106E-004,-3.96728E+001,4.31435E-004,7,6.99997E+000,3.20280E-001
1166,1130,1.03250E-001,-2.33020E+000,2.14415E-003,1.36015E-002,-1.16735E-002,1.25490E-003,1.79679E-002,-1.54408E-005,5.76435E-006,8.89943E-008,5.76473E-006,-1.54411E-005,8.97595E+001,1.56054E-005,7,6.99997E+000,3.20280E-001
1121,815,-8.04257E-001,-8.25189E+000,4.04510E-003,1.28446E-002,-1.16279E-002,5.86714E-003,1.82925E-002,-1.20448E-004,4.57672E-005,-6.30208E-006,4.60058E-005,-1.20686E-004,-8.78318E+001,1.21816E-004,7,6.99997E+000,3.20280E-001
1256,1685,1.90670E+000,8.13169E+000,-5.38745E-003,1.31807E-002,-1.17832E-002,-3.75161E-003,1.80734E-002,-1.72321E-004,3.71614E-005,-1.78477E-005,3.86711E-005,-1.73831E-004,-8.51649E+001,1.82539E-004,7,6.99997E+000,3.20280E-001
1046,1730,-2.05257E+000,8.97324E+000,1.50616E-002,1.32131E-002,-1.14034E-002,3.74407E-003,1.78505E-002,-2.08409E-004,3.13679E-005,9.22783E-006,3.17225E-005,-2.08763E-004,8.77993E+001,2.24992E-004,7,6.99997E+000,3.20280E-001
1181,1325,4.23369E-001,1.34137E+000,8.41265E-003,1.40112E-002,-1.17656E-002,3.35433E-003,1.86009E-002,-2.12483E-004,2.98850E-005,-1.16188E-005,3.04407E-005,-2.13039E-004,-8.72617E+001,2.30441E-004,7,6.99997E+000,3.20280E-001
1136,1625,-3.73693E-001,6.99521E+000,2.11436E-003,1.24363E-002,-1.09865E-002,3.18516E-003,1.68970E-002,-1.37307E-005,4.86805E-006,-2.72493E-006,5.25906E-006,-1.41217E-005,-8.18341E+001,1.42741E-005,7,6.99997E+000,3.20280E-001
1196,1535,7.43536E-001,5.29916E+000,8.36495E-005,1.25951E-002,-1.16317E-002,1.83505E-003,1.72424E-002,5.76089E-005,6.99168E-007,1.83901E-005,6.30343E-005,-4.72626E-006,1.64371E+001,7.02163E-005,7,6.99997E+000,3.20280E-001
1196,1250,6.91517E-001,-7.04631E-002,5.44521E-003,1.30451E-002,-1.12170E-002,2.65736E-003,1.74086E-002,-3.88495E-005,-1.06230E-005,1.16449E-004,9.25652E-005,-1.42038E-004,4.84552E+001,1.44200E-004,7,6.99997E+000,3.20280E-001
1106,1340,-9.91114E-001,1.62267E+000,8.63319E-003,1.30872E-002,-1.16050E-002,5.14727E-003,1.82330E-002,-1.54472E-004,3.96220E-005,-9.67205E-005,7.95895E-005,-1.94439E-004,-6.75483E+001,1.95502E-004,7,6.99997E+000,3.20280E-001
1166,1190,1.14737E-001,-1.20062E+000,7.49393E-003,1.35933E-002,-1.15184E-002,2.80345E-003,1.80364E-002,-1.09611E-004,8.53362E-006,7.99117E-005,4.88364E-005,-1.49914E-004,6.32363E+001,1.52918E-004,7,6.99997E+000,3.20280E-001
1256,665,1.71417E+000,-1.10730E+001,-2.62387E-003,1.32839E-002,-1.15995E-002,1.92402E-003,1.77401E-002,1.25741E-005,9.43450E-006,-4.69898E-004,4.80905E-004,-4.58896E-004,-4.49043E+001,5.43040E-004,7,6.99997E+000,3.20280E-001
1106,1550,-9.54665E-001,5.57860E+000,-4.70787E-003,1.26345E-002,-1.17523E-002,2.86080E-003,1.74909E-002,-3.65987E-005,3.46432E-005,-5.03354E-006,3.49971E-005,-3.69526E-005,-8.59784E+001,4.15862E-005,7,6.99997E+000,3.20280E-001
1106,1130,-1.02894E+000,-2.33002E+000,7.12284E-003,1.34551E-002,-1.16294E-002,4.51394E-003,1.83482E-002,-4.01288E-004,-2.61207E-005,-4.06618E-005,-2.17643E-005,-4.05644E-004,-8.38847E+001,4.81456E-004,7,6.99997E+000,3.20280E-001
1271,1685,2.19093E+000,8.13273E+000,1.13702E-003,1.33352E-002,-1.16640E-002,-6.23403E-005,1.77166E-002,-3.89046E-004,-2.64217E-006,2.04083E-005,-1.56728E-006,-3.90121E-004,8.69850E+001,4.51380E-004,7,6.99997E+000,3.20280E-001
1241,1505,1.58932E+000,4.73509E+000,-1.21252E-003,1.32325E-002,-1.14287E-002,-1.22439E-003,1.75275E-002,4.24677E-005,2.27909E-005,6.63928E-005,9.97470E-005,-3.44885E-005,4.07855E+001,1.01317E-004,7,6.99997E+000,3.20280E-001
1211,1400,1.00295E+000,2.75558E+000,6.54720E-003,1.33154E-002,-1.12000E-002,4.78487E-003,1.80454E-002,1.45066E-004,-9.32573E-006,2.17156E-005,1.48062E-004,-1.23219E-005,7.85579E+000,1.64316E-004,7,6.99997E+000,3.20280E-001
1121,1130,-7.45944E-001,-2.33041E+000,5.09121E-003,1.33552E-002,-1.18223E-002,1.72081E-003,1.79190E-002,-3.04595E-004,-2.67506E-005,-2.61034E-005,-2.43194E-005,-3.07026E-004,-8.46791E+001,3.69366E-004,7,6.99997E+000,3.20280E-001
1106,1460,-9.70345E-001,3.88289E+000,2.05344E-003,1.24251E-002,-1.19165E-002,1.86048E-003,1.73162E-002,-6.64700E-005,2.75929E-006,-2.41167E-005,1.03322E-005,-7.40429E-005,-7.25672E+001,8.02004E-005,7,6.99997E+000,3.20280E-001
1106,815,-1.08675E+000,-8.25163E+000,2.63210E-003,1.32855E-002,-1.16724E-002,5.78751E-003,1.86076E-002,-1.50744E-004,4.03853E-005,3.40493E-006,4.04460E-005,-1.50805E-004,8.89797E+001,1.56113E-004,7,6.99997E+000,3.20280E-001
1121,785,-8.08538E-001,-8.81478E+000,7.56661E-003,1.35492E-002,-1.16469E-002,5.54386E-003,1.87074E-002,-1.27059E-004,2.92234E-005,-4.71902E-006,2.93658E-005,-1.27202E-004,-8.82720E+001,1.33203E-004,7,6.99997E+000,3.20280E-001
1106,980,-1.05578E+000,-5.15140E+000,-6.76203E-003,1.44192E-002,-1.19782E-002,-3.73342E-003,1.91136E-002,-2.51477E-004,3.08264E-005,-1.72916E-005,3.18816E-005,-2.52532E-004,-8.65079E+001,2.75046E-004,7,6.99997E+000,3.20280E-001
1136,875,-5.08876E-001,-7.12504E+000,6.25879E-003,1.37545E-002,-1.19656E-002,1.78048E-003,1.83175E-002,-4.69015E-005,5.10511E-005,-2.06223E-005,5.52158E-005,-5.10661E-005,-7.85828E+001,6.15020E-005,7,6.99997E+000,3.20280E-001
1166,1025,8.35640E-002,-4.30521E+000,4.03731E-003,1.31622E-002,-1.17132E-002,2.57241E-003,1.78062E-002,8.88919E-005,5.35572E-007,-8.70961E-005,1.42374E-004,-5.29461E-005,-3.15521E+001,1.43923E-004,7,6.99997E+000,3.20280E-001
1106,1310,-9.96645E-001,1.05756E+000,-4.04068E-003,1.35659E-002,-1.16586E-002,-2.63736E-003,1.80807E-002,-1.23024E-004,1.98147E-005,-8.67091E-005,6.07306E-005,-1.63940E-004,-6.47385E+001,1.65764E-004,7,6.99997E+000,3.20280E-001
1106,830,-1.08426E+000,-7.97000E+000,-2.98540E-003,1.33540E-002,-1.14052E-002,2.59406E-003,1.77521E-002,-1.39485E-004,3.72123E-005,2.74420E-006,3.72549E-005,-1.39527E-004,8.91105E+001,1.44489E-004,7,6.99997E+000,3.20280E-001
1211,1370,9.97070E-001,2.18827E+000,-3.52170E-003,1.33107E-002,-1.22775E-002,-3.05530E-003,1.83643E-002,9.90954E-005,-2.13915E-005,1.15864E-006,9.91066E-005,-2.14026E-005,5.50906E-001,1.04301E-004,7,6.99997E+000,3.20280E-001
1226,1520,1.30855E+000,5.01767E+000,2.14634E-003,1.32461E-002,-1.14995E-002,2.64132E-003,1.77391E-002,1.16371E-004,2.84084E-006,4.08377E-005,1.29534E-004,-1.03226E-005,1.78660E+001,1.43984E-004,7,6.99997E+000,3.20280E-001
1241,1490,1.58775E+000,4.45188E+000,-3.23615E-003,1.43562E-002,-1.19001E-002,-4.30798E-003,1.91382E-002,1.72838E-005,4.40154E-005,5.92937E-005,9.14311E-005,-3.01319E-005,5.13516E+001,9.31851E-005,7,6.99997E+000,3.20280E-001
1211,680,8.68341E-001,-1.07902E+001,1.84590E-003,1.33919E-002,-1.15570E-002,5.77239E-003,1.86071E-002,2.41894E-005,-1.24707E-004,-9.32935E-005,6.90988E-005,-1.69616E-004,-2.57051E+001,1.70583E-004,7,6.99997E+000,3.20280E-001
1061,665,-1.96225E+000,-1.10660E+001,-2.52535E-003,1.29875E-002,-1.13257E-002,3.51815E-003,1.75876E-002,-1.59669E-004,-1.92573E-004,8.54301E-005,-8.91212E-005,-2.63121E-004,3.95497E+001,3.66287E-004,7,6.99997E+000,3.20280E-001
1151,1715,-7.38572E-002,8.69382E+000,4.38856E-003,1.23709E-002,-1.11599E-002,6.48273E-003,1.78775E-002,-2.12322E-005,3.20496E-006,-3.61595E-005,2.91545E-005,-4.71817E-005,-5.43353E+001,4.76170E-005,7,6.99997E+000,3.20280E-001
1121,1265,-7.22327E-001,2.10972E-001,2.89722E-003,1.27075E-002,-1.15058E-002,2.30317E-003,1.72965E-002,-3.41770E-004,2.82294E-005,-3.34514E-005,3.12294E-005,-3.44770E-004,-8.48753E+001,3.81357E-004,7,6.99997E+000,3.20280E-001
1166,1145,1.03938E-001,-2.04699E+000,9.98084E-003,1.14742E-002,-1.09589E-002,8.67059E-003,1.80813E-002,-3.76741E-005,-1.95386E-006,2.88924E-005,1.41530E-005,-5.37810E-005,6.08614E+001,5.57559E-005,7,6.99997E+000,3.20280E-001
1091,1340,-1.27402E+000,1.62221E+000,7.03266E-003,1.32916E-002,-1.18768E-002,3.33160E-003,1.81335E-002,-1.49155E-004,2.37875E-005,-1.09762E-004,7.70479E-005,-2.02415E-004,-6.41156E+001,2.04328E-004,7,6.99997E+000,3.20280E-001
1076,1580,-1.51456E+000,6.14447E+000,4.07665E-003,1.30351E-002,-1.15159E-002,4.73587E-003,1.80266E-002,3.14707E-005,5.31181E-005,-2.43159E-005,6.89105E-005,1.56783E-005,-5.69976E+001,8.99990E-005,7,6.99997E+000,3.20280E-001
1226,800,1.17535E+000,-8.53589E+000,7.73972E-004,1.44946E-002,-1.17438E-002,-5.18297E-004,1.86623E-002,5.18791E-005,-6.30682E-007,-4.61626E-005,7.87308E-005,-2.74824E-005,-3.01855E+001,7.99176E-005,7,6.99997E+000,3.20280E-001
1181,1655,4.82573E-001,7.56236E+000,-1.15466E-003,1.28512E-002,-1.18140E-002,8.94255E-004,1.74792E-002,4.37890E-005,9.57968E-006,-1.47592E-005,4.92764E-005,4.09225E-006,-2.03950E+001,5.94033E-005,7,6.99997E+000,3.20280E-001
1211,815,8.94364E-001,-8.25318E+000,2.61406E-003,1.38534E-002,-1.14738E-002,2.43765E-003,1.81523E-002,5.88146E-005,1.79176E-005,-4.58291E-005,8.85502E-005,-1.18180E-005,-3.29770E+001,9.61549E-005,7,6.99997E+000,3.20280E-001
1196,1010,6.47305E-001,-4.58820E+000,1.04695E-003,1.33837E-002,-1.20796E-002,-1.60224E-003,1.80999E-002,3.78633E-004,1.88002E-005,-1.05765E-004,4.07418E-004,-9.98466E-006,-1.52247E+001,4.64789E-004,7,6.99997E+000,3.20280E-001
1151,755,-2.48559E-001,-9.37954E+000,1.90927E-004,1.37028E-002,-1.18322E-002,7.99929E-004,1.81220E-002,-7.65554E-005,2.26332E-005,-2.03305E-005,2.66385E-005,-8.05607E-005,-7.88547E+001,8.20863E-005,7,6.99997E+000,3.20280E-001
1121,710,-8.23340E-001,-1.02235E+001,6.29245E-003,1.26072E-002,-1.16013E-002,6.56353E-003,1.83470E-002,-1.03361E-004,-3.95968E-005,-1.23432E-007,-3.95966E-005,-1.03361E-004,-8.98891E+001,1.47622E-004,7,6.99997E+000,3.20280E-001
1121,1310,-7.14354E-001,1.05790E+000,2.86341E-003,1.26051E-002,-1.15314E-002,3.30535E-003,1.74008E-002,-1.42375E-004,3.17908E-005,-6.87987E-005,5.56885E-005,-1.66273E-004,-7.08450E+001,1.69266E-004,7,6.99997E+000,3.20280E-001
1241,1625,1.61115E+000,6.99811E+000,2.50561E-004,1.28220E-002,-1.17360E-002,3.29627E-003,1.76918E-002,-1.69634E-006,-3.72433E-005,-2.20743E-006,-1.55979E-006,-3.73799E-005,-3.53988E+000,4.40907E-005,7,6.99997E+000,3.20280E-001
1181,980,3.59135E-001,-5.15182E+000,9.74551E-004,1.39707E-002,-1.20260E-002,-4.95467E-004,1.84404E-002,2.00535E-004,8.40908E-006,-7.08483E-005,2.23835E-004,-1.48912E-005,-1.82048E+001,2.50308E-004,7,6.99997E+000,3.20280E-001
1106,1145,-1.02643E+000,-2.04838E+000,4.32283E-003,1.34990E-002,-1.16903E-002,3.86551E-003,1.82709E-002,-4.29390E-004,-3.45223E-005,-2.31895E-005,-3.31651E-005,-4.30747E-004,-8.66505E+001,5.17595E-004,7,6.99997E+000,3.20280E-001
1061,1730,-1.77141E+000,8.97237E+000,1.10795E-003,1.27431E-002,-1.14183E-002,4.47705E-003,1.76864E-002,-2.15606E-004,-1.88957E-005,-2.66647E-005,-1.53453E-005,-2.19157E-004,-8.24157E+001,2.62369E-004,7,6.99997E+000,3.20280E-001
1121,830,-8.01954E-001,-7.97048E+000,2.57328E-003,1.26839E-002,-1.18422E-002,6.59934E-003,1.85653E-002,-1.08313E-004,4.28916E-005,-6.35375E-006,4.31581E-005,-1.08579E-004,-8.75980E+001,1.09337E-004,7,6.99997E+000,3.20280E-001
1181,1475,4.49149E-001,4.16830E+000,5.26083E-003,1.26745E-002,-1.12613E-002,6.00337E-003,1.79861E-002,7.23895E-005,3.84456E-005,1.50585E-005,7.81068E-005,3.27282E-005,2.07906E+001,1.13889E-004,7,6.99997E+000,3.20280E-001
1181,1190,3.98109E-001,-1.20243E+000,-5.97235E-003,1.40937E-002,-1.33016E-002,-7.96917E-003,2.09540E-002,-1.59067E-005,1.26808E-005,8.18481E-005,8.14739E-005,-8.46998E-005,4.99530E+001,9.59947E-005,7,6.99997E+000,3.20280E-001
1196,1325,7.04875E-001,1.34200E+000,3.94954E-003,1.25030E-002,-1.12810E-002,1.47269E-003,1.69043E-002,-2.36314E-004,1.15912E-005,1.42161E-005,1.24037E-005,-2.37126E-004,8.67287E+001,2.66937E-004,7,6.99997E+000,3.20280E-001
1121,1145,-7.43148E-001,-2.04760E+000,3.29747E-003,1.34678E-002,-1.14235E-002,3.58271E-004,1.76636E-002,-3.31139E-004,-3.58562E-005,-4.08505E-006,-3.57997E-005,-3.31195E-004,-8.92076E+001,4.04687E-004,7,6.99997E+000,3.20280E-001
1076,665,-1.67835E+000,-1.10676E+001,-7.07978E-003,1.41403E-002,-1.19937E-002,-2.68399E-003,1.87350E-002,-9.67237E-006,-2.02933E-004,2.55722E-004,1.67067E-004,-3.79672E-004,3.46499E+001,3.80582E-004,7,6.99997E+000,3.20280E-001
1166,725,2.88296E-002,-9.94342E+000,-7.21519E-003,1.38996E-002,-1.21516E-002,-5.35796E-003,1.92242E-002,-5.55543E-005,-1.02610E-005,-2.07370E-005,-2.20109E-006,-6.36142E-005,-6.87602E+001,7.47586E-005,7,6.99997E+000,3.20280E-001
1181,1025,3.67477E-001,-4.30514E+000,4.38614E-003,1.35969E-002,-1.17084E-002,-5.79874E-004,1.79526E-002,2.02943E-004,4.83781E-006,-9.07778E-005,2.38248E-004,-3.04674E-005,-2.12520E+001,2.59311E-004,7,6.99997E+000,3.20280E-001
1196,1355,7.09997E-001,1.90674E+000,6.38939E-003,1.22678E-002,-1.11713E-002,5.70819E-003,1.75465E-002,-1.26380E-005,-2.46537E-006,-2.59723E-005,1.89139E-005,-3.40173E-005,-5.05402E+001,3.40884E-005,7,6.99997E+000,3.20280E-001
1226,815,1.17811E+000,-8.25398E+000,1.33836E-003,1.42906E-002,-1.20311E-002,-1.33261E-003,1.87282E-002,5.92727E-005,4.41397E-006,-5.90976E-005,9.69962E-005,-3.33096E-005,-3.25511E+001,9.85690E-005,7,6.99997E+000,3.20280E-001
1226,1760,1.35344E+000,9.54657E+000,2.55385E-003,1.30045E-002,-1.13347E-002,2.56625E-003,1.74407E-002,-2.39078E-004,1.83592E-004,5.19652E-005,1.89887E-004,-2.45373E-004,8.30928E+001,2.57350E-004,7,6.99997E+000,3.20280E-001
1241,1520,1.59160E+000,5.01834E+000,2.02666E-003,1.28171E-002,-1.13538E-002,3.16042E-003,1.74119E-002,3.16276E-005,7.39634E-006,7.32064E-005,9.37142E-005,-5.46902E-005,4.03014E+001,9.41497E-005,7,6.99997E+000,3.20280E-001
1151,995,-2.04972E-001,-4.86940E+000,-1.76243E-004,1.33898E-002,-1.17359E-002,3.72574E-004,1.78089E-002,-1.49753E-006,2.00760E-005,-6.42868E-005,7.44747E-005,-5.58963E-005,-4.97625E+001,7.75286E-005,7,6.99997E+000,3.20280E-001
1256,1625,1.89615E+000,6.99964E+000,4.72435E-003,1.35669E-002,-1.14244E-002,2.83588E-003,1.79616E-002,4.82301E-005,-9.90405E-006,-5.45385E-005,8.09638E-005,-4.26378E-005,-3.09720E+001,8.10021E-005,7,6.99997E+000,3.20280E-001
1241,800,1.45778E+000,-8.53596E+000,5.46513E-004,1.38276E-002,-1.15368E-002,-1.30409E-003,1.80555E-002,-5.91889E-005,-1.61288E-005,-2.89822E-005,-1.55472E-006,-7.37630E-005,-6.33038E+001,8.60859E-005,7,6.99997E+000,3.20280E-001
1196,1490,7.35887E-001,4.45202E+000,6.13797E-003,1.28901E-002,-1.09944E-002,4.28892E-003,1.74765E-002,8.32689E-005,3.51100E-005,2.13057E-005,9.13415E-005,2.70375E-005,2.07514E+001,1.24064E-004,7,6.99997E+000,3.20280E-001
1226,1685,1.33924E+000,8.13057E+000,4.32945E-003,1.29261E-002,-1.12060E-002,4.52160E-003,1.76947E-002,-9.66078E-005,1.88326E-005,5.45263E-006,1.90896E-005,-9.68648E-005,8.73017E+001,1.02620E-004,7,6.99997E+000,3.20280E-001
1226,1370,1.27974E+000,2.19024E+000,3.01510E-003,1.26514E-002,-1.10366E-002,4.29510E-003,1.73295E-002,1.41933E-004,-4.12981E-005,1.96958E-005,1.44026E-004,-4.33913E-005,6.06649E+000,1.47769E-004,7,6.99997E+000,3.20280E-001
1166,1715,2.10175E-001,8.69379E+000,-1.98886E-003,1.30004E-002,-1.15881E-002,1.13250E-003,1.74521E-002,-2.54712E-005,1.52639E-005,-3.69075E-005,3.70508E-005,-4.72581E-005,-5.94461E+001,4.97345E-005,7,6.99997E+000,3.20280E-001
1226,1400,1.28604E+000,2.75593E+000,6.84489E-004,1.30928E-002,-1.13141E-002,-9.66174E-006,1.73041E-002,1.82996E-004,-1.33967E-005,4.50556E-005,1.92839E-004,-2.32398E-005,1.23236E+001,2.10541E-004,7,6.99997E+000,3.20280E-001
1091,1580,-1.23149E+000,6.14543E+000,5.47644E-003,1.26394E-002,-1.11601E-002,4.41571E-003,1.74299E-002,-4.30165E-005,4.95129E-005,5.85479E-006,4.98819E-005,-4.33855E-005,8.63938E+001,5.42384E-005,7,6.99997E+000,3.20280E-001
1106,710,-1.10458E+000,-1.02244E+001,-8.40386E-003,1.44261E-002,-1.23054E-002,-5.08614E-003,1.96317E-002,-1.19515E-004,-5.10057E-005,1.15398E-005,-4.91142E-005,-1.21406E-004,8.06911E+001,1.75554E-004,7,6.99997E+000,3.20280E-001
1076,1655,-1.50126E+000,7.55803E+000,-3.18290E-003,1.32494E-002,-1.15289E-002,1.42323E-003,1.76206E-002,-1.57716E-004,3.14220E-005,-5.89884E-005,4.83113E-005,-1.74605E-004,-7.40228E+001,1.80316E-004,7,6.99997E+000,3.20280E-001
1166,1160,1.07165E-001,-1.76523E+000,5.38793E-003,1.21773E-002,-1.12182E-002,6.07637E-003,1.76368E-002,-7.32706E-005,1.82264E-006,5.62283E-005,3.18880E-005,-1.03336E-004,6.18666E+001,1.05830E-004,7,6.99997E+000,3.20280E-001
1181,1280,4.13420E-001,4.93620E-001,5.79961E-003,1.28205E-002,-1.12312E-002,4.29864E-003,1.75779E-002,-1.21033E-004,4.87263E-007,6.38926E-005,2.78977E-005,-1.48444E-004,6.67803E+001,1.57787E-004,7,6.99997E+000,3.20280E-001
1211,1010,9.29888E-001,-4.58786E+000,1.15991E-003,1.32403E-002,-1.17473E-002,1.88145E-003,1.78001E-002,5.11623E-004,2.48471E-005,-1.04246E-004,5.33009E-004,3.46170E-006,-1.15930E+001,6.17474E-004,7,6.99997E+000,3.20280E-001
1166,755,3.50414E-002,-9.37995E+000,4.78014E-003,1.40674E-002,-1.17651E-002,1.93752E-003,1.84409E-002,-5.04198E-005,2.11710E-005,-2.33777E-005,2.81287E-005,-5.73775E-005,-7.34259E+001,5.73811E-005,7,6.99997E+000,3.20280E-001
1136,830,-5.18308E-001,-7.96995E+000,-6.04082E-004,1.33853E-002,-1.13186E-002,2.41876E-003,1.76953E-002,-7.72564E-005,4.57616E-005,-1.48891E-005,4.75380E-005,-7.90328E-005,-8.31963E+001,7.95737E-005,7,6.99997E+000,3.20280E-001
1196,1310,7.02460E-001,1.05875E+000,-1.92482E-003,1.31009E-002,-1.18584E-002,-2.50205E-003,1.78469E-002,-2.42337E-004,3.87445E-006,3.35712E-005,8.36984E-006,-2.46833E-004,8.23731E+001,2.80310E-004,7,6.99997E+000,3.20280E-001
1076,1730,-1.48713E+000,8.97243E+000,-1.05194E-003,1.37382E-002,-1.19332E-002,2.85363E-003,1.84196E-002,-1.54934E-004,-4.08438E-005,-7.08293E-005,-6.94436E-006,-1.88834E-004,-6.44239E+001,2.22165E-004,7,6.99997E+000,3.20280E-001
1226,680,1.15368E+000,-1.07904E+001,-4.86016E-003,1.51560E-002,-1.19675E-002,-6.45263E-003,2.03608E-002,-3.47898E-005,-1.42505E-004,-1.05638E-004,2.99279E-005,-2.07223E-004,-3.14931E+001,2.24010E-004,7,6.99997E+000,3.20280E-001
1166,995,7.80113E-002,-4.86816E+000,1.13637E-002,1.28659E-002,-1.09954E-002,7.74294E-003,1.86114E-002,1.16057E-004,2.07992E-005,-8.09576E-005,1.62357E-004,-2.55008E-005,-2.97654E+001,1.74623E-004,7,6.99997E+000,3.20280E-001
1121,1475,-6.84609E-001,4.16615E+000,2.05966E-003,1.24855E-002,-1.15386E-002,4.55291E-003,1.75999E-002,-2.29856E-005,1.64788E-005,-1.12075E-006,1.65106E-005,-2.30174E-005,-8.83746E+001,2.37310E-005,7,6.99997E+000,3.20280E-001
1166,1535,1.76333E-001,5.29955E+000,1.02483E-002,1.21186E-002,-1.07260E-002,1.06054E-002,1.93489E-002,1.83768E-005,8.63788E-006,1.90354E-005,3.31557E-005,-6.14107E-006,3.78255E+001,3.52780E-005,7,6.99997E+000,3.20280E-001
1091,665,-1.39642E+000,-1.10679E+001,-2.49780E-003,1.34741E-002,-1.16536E-002,1.93014E-003,1.79188E-002,9.85341E-005,-2.16406E-004,1.63991E-004,1.68418E-004,-2.86290E-004,2.30810E+001,2.87773E-004,7,6.99997E+000,3.20280E-001
1151,1205,-1.66050E-001,-9.18161E-001,6.51499E-003,1.34162E-002,-1.18210E-002,3.68988E-003,1.82578E-002,-2.09792E-004,-4.40456E-006,8.33822E-005,2.51840E-005,-2.39380E-004,7.04625E+001,2.63081E-004,7,6.99997E+000,3.20280E-001
1241,815,1.46010E+000,-8.25478E+000,-1.66475E-003,1.33271E-002,-1.21825E-002,-3.63106E-003,1.84176E-002,-4.30410E-005,-1.93812E-005,-4.70610E-005,1.73140E-005,-7.97362E-005,-5.20552E+001,8.38815E-005,7,6.99997E+000,3.20280E-001
1211,1355,9.93022E-001,1.90657E+000,4.76907E-003,1.21475E-002,-1.16565E-002,6.00747E-003,1.78753E-002,2.58964E-005,-2.13258E-005,-1.05553E-005,2.81484E-005,-2.35778E-005,-1.20435E+001,3.02119E-005,7,6.99997E+000,3.20280E-001
1106,1160,-1.02452E+000,-1.76574E+000,8.82494E-003,1.28591E-002,-1.13109E-002,9.84715E-003,1.97550E-002,-4.83141E-004,-2.99749E-005,-4.15824E-006,-2.99368E-005,-4.83180E-004,-8.94743E+001,5.75990E-004,7,6.99997E+000,3.20280E-001
1076,725,-1.66813E+000,-9.94175E+000,-9.41384E-003,1.37720E-002,-1.21424E-002,-3.72713E-003,1.87349E-002,-2.24567E-004,-1.04593E-006,6.87117E-006,-8.34909E-007,-2.24778E-004,8.82409E+001,2.60035E-004,7,6.99997E+000,3.20280E-001
1211,1685,1.05612E+000,8.13052E+000,1.00306E-002,1.27586E-002,-1.12009E-002,4.52762E-003,1.75711E-002,-3.32172E-005,1.84372E-005,-9.24569E-006,2.00422E-005,-3.48222E-005,-8.01518E+001,3.49545E-005,7,6.99997E+000,3.20280E-001
1181,875,3.39693E-001,-7.12557E+000,-2.05184E-004,1.43160E-002,-1.17397E-002,1.89953E-003,1.86112E-002,7.91240E-005,3.26545E-005,-5.16295E-005,1.12506E-004,-7.27456E-007,-3.28854E+001,1.29493E-004,7,6.99997E+000,3.20280E-001
1181,1490,4.53633E-001,4.45104E+000,3.03000E-003,1.41440E-002,-1.14912E-002,1.80773E-003,1.83131E-002,6.40457E-005,3.34185E-005,1.43581E-005,6.97241E-005,2.77402E-005,2.15778E+001,1.00433E-004,7,6.99997E+000,3.20280E-001
1061,710,-1.95272E+000,-1.02213E+001,1.35178E-002,1.38567E-002,-1.09770E-002,1.38381E-002,2.24498E-002,-2.03945E-004,-7.86479E-005,3.07848E-005,-7.14928E-005,-2.11100E-004,7.69155E+001,2.93863E-004,7,6.99997E+000,3.20280E-001
1196,1190,6.79740E-001,-1.20112E+000,-2.35071E-003,1.29958E-002,-1.16968E-002,-2.15032E-004,1.74858E-002,7.76626E-005,1.57821E-005,7.89744E-005,1.31541E-004,-3.80966E-005,3.43030E+001,1.35367E-004,7,6.99997E+000,3.20280E-001
1181,1160,3.91730E-001,-1.76576E+000,1.25517E-003,1.33974E-002,-1.16941E-002,3.85805E-004,1.77874E-002,2.88223E-005,1.99859E-005,6.24669E-005,8.70271E-005,-3.82189E-005,4.29771E+001,8.72416E-005,7,6.99997E+000,3.20280E-001
1121,1625,-6.56675E-001,6.99444E+000,8.07781E-003,1.26537E-002,-1.08329E-002,7.35960E-003,1.82108E-002,-4.06094E-005,1.26894E-005,-1.20189E-005,1.52743E-005,-4.31943E-005,-7.78623E+001,4.38070E-005,7,6.99997E+000,3.20280E-001
1106,1370,-9.86901E-001,2.18746E+000,5.28385E-003,1.25551E-002,-1.10668E-002,7.83726E-003,1.84805E-002,-2.00545E-004,3.25555E-005,-1.02193E-004,7.10131E-005,-2.39003E-004,-6.93776E+001,2.45473E-004,7,6.99997E+000,3.20280E-001
1226,1010,1.21329E+000,-4.58747E+000,-3.77588E-003,1.36442E-002,-1.17414E-002,-1.69538E-003,1.80804E-002,6.44696E-004,3.26785E-005,-9.64759E-005,6.59544E-004,1.78307E-005,-8.74930E+000,7.72076E-004,7,6.99997E+000,3.20280E-001
1211,1325,9.88632E-001,1.34185E+000,1.68250E-003,1.28818E-002,-1.16265E-002,-1.04409E-003,1.73841E-002,-2.60290E-004,-1.21468E-005,4.27422E-005,-4.99092E-006,-2.67446E-004,8.04957E+001,3.11742E-004,7,6.99997E+000,3.20280E-001
1166,980,7.59231E-002,-5.15114E+000,4.82748E-003,1.37736E-002,-1.13154E-002,3.16948E-003,1.81052E-002,1.10313E-004,7.43179E-006,-6.48554E-005,1.41651E-004,-2.39065E-005,-2.57900E+001,1.51659E-004,7,6.99997E+000,3.20280E-001
1241,1760,1.63714E+000,9.54696E+000,-1.70095E-003,1.31709E-002,-1.14526E-002,-1.68801E-004,1.74546E-002,-2.42425E-004,3.11794E-004,-1.50969E-008,3.11794E-004,-2.42425E-004,-8.99984E+001,3.27411E-004,7,6.99997E+000,3.20280E-001
1181,1715,4.93908E-001,8.69420E+000,-1.79079E-003,1.32171E-002,-1.18271E-002,1.68655E-003,1.78162E-002,-2.97389E-005,2.94155E-005,-3.83569E-005,4.82745E-005,-4.85979E-005,-6.38180E+001,5.59302E-005,7,6.99997E+000,3.20280E-001
1121,665,-8.31626E-001,-1.10677E+001,1.12215E-002,1.24283E-002,-1.10940E-002,1.11315E-002,2.00362E-002,2.94323E-005,-1.63832E-004,4.67847E-005,4.01620E-005,-1.74561E-004,1.29171E+001,1.82844E-004,7,6.99997E+000,3.20280E-001
1226,1355,1.27729E+000,1.90688E+000,-7.08345E-003,1.33709E-002,-1.18425E-002,-2.79075E-003,1.80780E-002,6.44382E-005,-4.39076E-005,6.57275E-006,6.48355E-005,-4.43049E-005,3.45892E+000,6.62725E-005,7,6.99997E+000,3.20280E-001
1136,1025,-4.82882E-001,-4.30495E+000,4.53910E-003,1.32397E-002,-1.10579E-002,7.21404E-003,1.86978E-002,-1.39225E-004,1.46165E-006,-6.31713E-005,2.56635E-005,-1.63427E-004,-6.90374E+001,1.75776E-004,7,6.99997E+000,3.20280E-001
1061,1655,-1.78489E+000,7.55796E+000,5.01415E-003,1.26478E-002,-1.12759E-002,7.39129E-003,1.84863E-002,-2.54395E-004,4.62705E-005,-5.53282E-005,5.61287E-005,-2.64253E-004,-7.98972E+001,2.78443E-004,7,6.99997E+000,3.20280E-001
1211,1310,9.85947E-001,1.05958E+000,2.09386E-003,1.30336E-002,-1.13726E-002,-3.04447E-004,1.73004E-002,-2.62987E-004,-1.93132E-005,5.71095E-005,-6.59256E-006,-2.75708E-004,7.74429E+001,3.22234E-004,7,6.99997E+000,3.20280E-001
1256,1745,1.91671E+000,9.26390E+000,-4.09281E-003,1.25038E-002,-1.13713E-002,3.03512E-003,1.71716E-002,-2.49994E-004,2.66030E-004,-3.42624E-005,2.68295E-004,-2.52259E-004,-8.62179E+001,3.00970E-004,7,6.99997E+000,3.20280E-001
1076,800,-1.65501E+000,-8.53216E+000,5.12017E-004,1.31101E-002,-1.14958E-002,3.11565E-003,1.77125E-002,-2.52637E-004,3.15128E-005,-1.50324E-006,3.15208E-005,-2.52645E-004,-8.96969E+001,2.75341E-004,7,6.99997E+000,3.20280E-001
1061,1685,-1.78055E+000,8.12366E+000,1.75236E-003,1.19423E-002,-1.10249E-002,7.18902E-003,1.77721E-002,-1.88943E-004,1.79460E-005,-1.27565E-006,1.79539E-005,-1.88951E-004,-8.96467E+001,2.08590E-004,7,6.99997E+000,3.20280E-001
1091,1445,-1.25611E+000,3.60020E+000,-1.97974E-003,1.27950E-002,-1.18599E-002,-4.03478E-004,1.74509E-002,-9.00269E-005,-8.39772E-006,-7.30151E-005,3.44359E-005,-1.32861E-004,-5.96023E+001,1.37901E-004,7,6.99997E+000,3.20280E-001
1091,725,-1.38577E+000,-9.94132E+000,5.23275E-004,1.32257E-002,-1.19730E-002,3.98405E-003,1.82797E-002,-9.51366E-005,-2.06063E-005,9.26187E-006,-1.94726E-005,-9.62704E-005,8.30213E+001,1.23945E-004,7,6.99997E+000,3.20280E-001
1076,710,-1.67163E+000,-1.02232E+001,-3.85115E-003,1.30393E-002,-1.16261E-002,2.48550E-003,1.76456E-002,-2.03048E-004,-4.96636E-005,4.76295E-005,-3.60769E-005,-2.16634E-004,7.40788E+001,2.73368E-004,7,6.99997E+000,3.20280E-001
1166,1205,1.17658E-001,-9.17691E-001,7.27137E-003,1.37998E-002,-1.12370E-002,3.04606E-003,1.80550E-002,-1.13342E-004,-2.99731E-006,8.60509E-005,4.40494E-005,-1.60389E-004,6.13332E+001,1.65730E-004,7,6.99997E+000,3.20280E-001
1196,1430,7.25569E-001,3.32063E+000,4.52345E-003,1.37666E-002,-1.12837E-002,2.90048E-003,1.80349E-002,1.04799E-004,3.44188E-005,1.39702E-005,1.07471E-004,3.17471E-005,1.08263E+001,1.45921E-004,7,6.99997E+000,3.20280E-001
1181,995,3.62210E-001,-4.86938E+000,2.74378E-003,1.39892E-002,-1.20149E-002,-1.13923E-003,1.84757E-002,2.33362E-004,2.15752E-005,-9.15212E-005,2.67431E-004,-1.24940E-005,-2.04180E+001,3.01849E-004,7,6.99997E+000,3.20280E-001
1196,1160,6.74011E-001,-1.76514E+000,5.83940E-003,1.26160E-002,-1.12452E-002,6.13762E-003,1.79802E-002,1.30608E-004,4.21745E-005,6.51028E-005,1.65090E-004,7.69240E-006,2.79082E+001,1.95222E-004,7,6.99997E+000,3.20280E-001
1226,1475,1.29975E+000,4.16930E+000,7.25142E-003,1.26836E-002,-1.11803E-002,6.02135E-003,1.79479E-002,1.26180E-004,5.48001E-005,3.13732E-005,1.38009E-004,4.29711E-005,2.06585E+001,1.89115E-004,7,6.99997E+000,3.20280E-001
1166,1610,1.90945E-001,6.71401E+000,7.51050E-003,1.27228E-002,-1.10476E-002,6.69939E-003,1.81329E-002,4.76384E-005,-5.34716E-006,8.90539E-006,4.90951E-005,-6.80386E-006,9.28988E+000,5.31988E-005,7,6.99997E+000,3.20280E-001
1106,1295,-9.99280E-001,7.75399E-001,3.01691E-003,1.35240E-002,-1.12777E-002,3.26686E-003,1.79098E-002,-2.94265E-004,3.14471E-005,-9.17753E-005,5.55263E-005,-3.18344E-004,-7.52986E+001,3.40098E-004,7,6.99997E+000,3.20280E-001
1166,770,3.64310E-002,-9.09852E+000,3.00578E-003,1.29968E-002,-1.17643E-002,2.61984E-003,1.77251E-002,-3.41251E-005,2.85401E-005,-2.28283E-005,3.59742E-005,-4.15593E-005,-7.19619E+001,4.51111E-005,7,6.99997E+000,3.20280E-001
1121,890,-7.89273E-001,-6.84223E+000,3.16791E-003,1.35746E-002,-1.15389E-002,-5.91676E-004,1.78260E-002,-7.90074E-005,3.50554E-005,-1.33256E-005,3.65915E-005,-8.05435E-005,-8.34243E+001,8.06555E-005,7,6.99997E+000,3.20280E-001
1091,1325,-1.27480E+000,1.34074E+000,1.24224E-002,1.45332E-002,-1.12493E-002,2.78291E-003,1.85878E-002,-7.19166E-005,2.73692E-005,-1.13608E-004,1.01707E-004,-1.46254E-004,-5.68019E+001,1.49931E-004,7,6.99997E+000,3.20280E-001
1241,680,1.43394E+000,-1.07905E+001,2.57354E-003,1.27826E-002,-1.15562E-002,3.56109E-003,1.75961E-002,-5.20142E-005,-1.29498E-004,-1.68935E-004,8.25642E-005,-2.64076E-004,-3.85419E+001,2.70185E-004,7,6.99997E+000,3.20280E-001
1106,1085,-1.03881E+000,-3.17708E+000,5.30848E-004,1.26308E-002,-1.14695E-002,5.59381E-003,1.79549E-002,-3.40791E-004,-2.52597E-005,-5.55980E-005,-1.57497E-005,-3.50301E-004,-8.02935E+001,4.13886E-004,7,6.99997E+000,3.20280E-001
1151,1190,-1.69649E-001,-1.20048E+000,6.67581E-003,1.27484E-002,-1.12241E-002,5.30543E-003,1.77947E-002,-2.03652E-004,3.31449E-006,7.31490E-005,2.65575E-005,-2.26895E-004,7.23724E+001,2.48088E-004,7,6.99997E+000,3.20280E-001
1091,1010,-1.33405E+000,-4.58641E+000,1.28612E-002,1.26217E-002,-1.16182E-002,7.27971E-003,1.86355E-002,-5.56258E-004,2.59808E-005,5.81521E-005,3.17321E-005,-5.62009E-004,8.43518E+001,6.31430E-004,7,6.99997E+000,3.20280E-001
1091,1400,-1.26397E+000,2.75247E+000,-3.05455E-004,1.32768E-002,-1.12932E-002,2.96396E-003,1.76804E-002,-1.58362E-004,1.05633E-005,-1.39249E-004,8.89629E-005,-2.36762E-004,-6.06197E+001,2.39186E-004,7,6.99997E+000,3.20280E-001
1211,1760,1.07057E+000,9.54515E+000,-4.02368E-003,1.38258E-002,-1.20826E-002,-4.00436E-003,1.87930E-002,-1.51323E-004,1.70318E-004,2.54105E-006,1.70338E-004,-1.51343E-004,8.95474E+001,1.86691E-004,7,6.99997E+000,3.20280E-001
1241,1670,1.61988E+000,7.84797E+000,8.40166E-004,1.29227E-002,-1.13581E-002,2.65729E-003,1.74087E-002,-9.15718E-005,7.21957E-006,-9.94201E-006,8.21017E-006,-9.25624E-005,-8.43100E+001,1.02471E-004,7,6.99997E+000,3.20280E-001
1091,710,-1.38836E+000,-1.02233E+001,-1.43316E-003,1.35602E-002,-1.15047E-002,3.95936E-003,1.82184E-002,-7.49946E-005,-7.02831E-005,2.66130E-005,-4.59218E-005,-9.93559E-005,4.75293E+001,1.48517E-004,7,6.99997E+000,3.20280E-001
1106,1025,-1.04924E+000,-4.30451E+000,5.08301E-003,1.27139E-002,-1.10020E-002,7.17073E-003,1.82785E-002,-3.67446E-004,1.49465E-005,-1.73926E-005,1.57360E-005,-3.68235E-004,-8.74011E+001,4.16413E-004,7,6.99997E+000,3.20280E-001
1061,1625,-1.78884E+000,6.99307E+000,1.33966E-002,1.30442E-002,-1.12116E-002,6.57047E-003,1.84126E-002,-1.76975E-004,3.73126E-005,-5.46192E-005,5.04313E-005,-1.90094E-004,-7.64943E+001,1.96951E-004,7,6.99997E+000,3.20280E-001
1181,1535,4.61277E-001,5.29820E+000,-1.37274E-002,1.39341E-002,-1.22429E-002,-1.08074E-002,2.14674E-002,3.79910E-005,4.73034E-006,1.94368E-005,4.69411E-005,-4.21974E-006,2.47247E+001,5.19383E-005,7,6.99997E+000,3.20280E-001
1226,1310,1.27000E+000,1.05886E+000,1.40131E-003,1.37289E-002,-1.18365E-002,-9.58163E-004,1.81522E-002,-2.83855E-004,-4.85115E-005,8.18198E-005,-2.28616E-005,-3.09505E-004,7.25942E+001,3.71290E-004,7,6.99997E+000,3.20280E-001
1181,755,3.16635E-001,-9.38067E+000,5.82981E-004,1.31826E-002,-1.19020E-002,1.04618E-003,1.77914E-002,-2.43829E-005,1.80440E-005,-2.46156E-005,2.93257E-005,-3.56647E-005,-6.53772E+001,3.80539E-005,7,6.99997E+000,3.20280E-001
1106,1445,-9.72480E-001,3.60062E+000,2.02247E-003,1.30886E-002,-1.16258E-002,2.45450E-003,1.76776E-002,-6.15947E-005,-4.40130E-006,-6.40415E-005,3.71382E-005,-1.03134E-004,-5.70312E+001,1.04471E-004,7,6.99997E+000,3.20280E-001
1211,1160,9.57837E-001,-1.76521E+000,4.28483E-004,1.31430E-002,-1.15715E-002,1.57017E-004,1.75118E-002,2.32269E-004,6.83961E-005,6.41078E-005,2.54368E-004,4.62971E-005,1.90200E+001,3.23776E-004,7,6.99997E+000,3.20280E-001
1136,665,-5.48402E-001,-1.10692E+001,-3.55370E-003,1.33443E-002,-1.16052E-002,-2.98616E-004,1.76873E-002,4.91720E-005,-1.49416E-004,2.36221E-006,4.92001E-005,-1.49444E-004,6.81406E-001,1.52322E-004,7,6.99997E+000,3.20280E-001
1076,1685,-1.49518E+000,8.12355E+000,-2.92605E-003,1.36453E-002,-1.21119E-002,-5.57752E-004,1.82539E-002,-1.12658E-004,5.34619E-007,-3.67589E-005,1.14243E-005,-1.23547E-004,-7.34983E+001,1.36543E-004,7,6.99997E+000,3.20280E-001
1271,1745,2.20011E+000,9.26470E+000,-1.59784E-005,1.17714E-002,-1.14287E-002,4.11458E-003,1.69148E-002,-5.35123E-004,2.47094E-004,-6.05601E-005,2.51754E-004,-5.39784E-004,-8.55990E+001,5.40190E-004,7,6.99997E+000,3.20280E-001
1211,1430,1.00854E+000,3.32147E+000,4.48385E-003,1.30309E-002,-1.12335E-002,5.17330E-004,1.72123E-002,1.35629E-004,4.23784E-005,2.96979E-005,1.44284E-004,3.37237E-005,1.62475E+001,1.89106E-004,7,6.99997E+000,3.20280E-001
1196,875,6.21285E-001,-7.12541E+000,2.34681E-003,1.27574E-002,-1.14157E-002,3.08056E-003,1.73942E-002,1.20858E-004,2.11362E-005,-5.77017E-005,1.47257E-004,-5.26285E-006,-2.45846E+001,1.67083E-004,7,6.99997E+000,3.20280E-001
1106,1325,-9.94398E-001,1.33977E+000,2.05784E-003,1.27880E-002,-1.20342E-002,8.53404E-004,1.75808E-002,-9.49570E-005,4.12398E-005,-1.02711E-004,9.63769E-005,-1.50094E-004,-6.17724E+001,1.52101E-004,7,6.99997E+000,3.20280E-001
1121,1355,-7.04946E-001,1.90392E+000,-6.91657E-003,1.38978E-002,-1.27466E-002,-5.73817E-003,1.97117E-002,-2.05357E-004,3.74635E-005,-7.74292E-005,6.00524E-005,-2.27946E-004,-7.37362E+001,2.36296E-004,7,6.99997E+000,3.20280E-001
1106,725,-1.10285E+000,-9.94151E+000,-1.11549E-003,1.32737E-002,-1.17489E-002,7.27239E-004,1.77414E-002,-1.27588E-004,-1.19414E-005,8.15473E-007,-1.19356E-005,-1.27594E-004,8.95960E+001,1.54685E-004,7,6.99997E+000,3.20280E-001
1241,1475,1.58451E+000,4.16941E+000,2.63640E-003,1.38566E-002,-1.15593E-002,8.43961E-004,1.80647E-002,5.25315E-005,7.24984E-005,5.29780E-005,1.16425E-004,8.60448E-006,5.03360E+001,1.39670E-004,7,6.99997E+000,3.20280E-001
1091,800,-1.37309E+000,-8.53268E+000,2.48169E-003,1.25229E-002,-1.16409E-002,6.84392E-003,1.84167E-002,-1.43765E-004,2.72615E-005,7.83630E-006,2.76198E-005,-1.44124E-004,8.73821E+001,1.52987E-004,7,6.99997E+000,3.20280E-001
1151,770,-2.46123E-001,-9.09819E+000,-2.36970E-003,1.34405E-002,-1.19798E-002,-1.42494E-003,1.80608E-002,-6.32505E-005,3.00638E-005,-1.90370E-005,3.37981E-005,-6.69847E-005,-7.89018E+001,6.69857E-005,7,6.99997E+000,3.20280E-001
1106,1010,-1.05105E+000,-4.58718E+000,-2.93083E-003,1.37147E-002,-1.16763E-002,-1.50455E-005,1.80120E-002,-4.22712E-004,1.96794E-005,1.62130E-005,2.02728E-005,-4.23306E-004,8.79039E+001,4.77517E-004,7,6.99997E+000,3.20280E-001
1121,1295,-7.16725E-001,7.75578E-001,4.52675E-003,1.28618E-002,-1.15907E-002,4.07215E-003,1.77863E-002,-2.61671E-004,2.83458E-005,-5.05539E-005,3.69054E-005,-2.70231E-004,-8.03900E+001,2.93061E-004,7,6.99997E+000,3.20280E-001
1181,1610,4.74367E-001,6.71404E+000,-2.56821E-004,1.29178E-002,-1.10700E-002,1.07258E-003,1.70459E-002,7.69759E-005,-1.31936E-005,5.54872E-006,7.73160E-005,-1.35337E-005,3.50814E+000,8.25797E-005,7,6.99997E+000,3.20280E-001
1136,755,-5.31977E-001,-9.37909E+000,6.11154E-004,1.32427E-002,-1.16414E-002,2.55216E-003,1.78158E-002,-1.02688E-004,2.24211E-005,-1.54769E-005,2.43073E-005,-1.04574E-004,-8.30516E+001,1.09452E-004,7,6.99997E+000,3.20280E-001
1091,1265,-1.28341E+000,2.12704E-001,4.21499E-002,1.40211E-002,-1.16001E-002,8.62767E-003,2.01393E-002,-4.66270E-004,3.38687E-005,-1.12292E-004,5.79239E-005,-4.90325E-004,-7.79089E+001,5.35876E-004,7,6.99997E+000,3.20280E-001
1151,860,-2.29626E-001,-7.40683E+000,1.54770E-003,1.34674E-002,-1.17334E-002,2.36655E-003,1.80179E-002,-9.99635E-006,6.00005E-005,-1.89740E-005,6.48129E-005,-1.48088E-005,-7.57681E+001,6.79236E-005,7,6.99997E+000,3.20280E-001
1226,1130,1.23560E+000,-2.32896E+000,8.74596E-003,1.29916E-002,-1.08412E-002,6.27078E-003,1.80454E-002,3.68490E-004,1.28823E-004,-7.25262E-006,3.68709E-004,1.28604E-004,-1.73173E+000,5.16273E-004,7,6.99997E+000,3.20280E-001
1136,1115,-4.66022E-001,-2.61324E+000,-1.21643E-003,1.34510E-002,-1.21767E-002,-4.64859E-004,1.81499E-002,-2.10558E-004,-4.44198E-005,-2.47739E-005,-4.08042E-005,-2.14173E-004,-8.16969E+001,2.73920E-004,7,6.99997E+000,3.20280E-001
1061,725,-1.94926E+000,-9.93969E+000,8.39491E-003,1.42908E-002,-1.13831E-002,5.63251E-003,1.91188E-002,-2.62748E-004,-2.36637E-005,-1.54446E-005,-2.26701E-005,-2.63742E-004,-8.63191E+001,3.18440E-004,7,6.99997E+000,3.20280E-001
1076,1760,-1.48360E+000,9.54038E+000,1.04957E-002,1.21602E-002,-9.88718E-003,1.71483E-002,2.32312E-002,-2.10205E-004,-3.94795E-005,-9.54119E-005,3.18208E-006,-2.52866E-004,-6.59091E+001,2.90165E-004,7,6.99997E+000,3.20280E-001
1121,1010,-7.68179E-001,-4.58658E+000,7.52560E-003,1.34551E-002,-1.10130E-002,8.67157E-003,1.94299E-002,-2.88868E-004,1.51040E-005,-1.96899E-005,1.63741E-005,-2.90138E-004,-8.63092E+001,3.25980E-004,7,6.99997E+000,3.20280E-001
1136,890,-5.05762E-001,-6.84338E+000,-1.67736E-003,1.43168E-002,-1.21182E-002,-4.59849E-003,1.93124E-002,-4.03885E-005,2.84288E-005,-2.72794E-005,3.79305E-005,-4.98902E-005,-7.07962E+001,5.20947E-005,7,6.99997E+000,3.20280E-001
1136,1580,-3.81309E-001,6.14611E+000,1.10041E-003,1.29966E-002,-1.15587E-002,1.49020E-003,1.74567E-002,1.15969E-005,2.45329E-005,3.36157E-006,2.53543E-005,1.07755E-005,7.62690E+001,3.70973E-005,7,6.99997E+000,3.20280E-001
1256,1670,1.90344E+000,7.84777E+000,-5.89389E-003,1.29389E-002,-1.21251E-002,-2.77946E-003,1.79488E-002,-1.06330E-004,1.45749E-005,-2.88484E-005,2.11055E-005,-1.12861E-004,-7.72446E+001,1.20006E-004,7,6.99997E+000,3.20280E-001
1226,1430,1.29159E+000,3.32157E+000,5.19532E-003,1.25565E-002,-1.14739E-002,6.47089E-004,1.70215E-002,1.66416E-004,5.03284E-005,4.52342E-005,1.81960E-004,3.47840E-005,1.89649E+001,2.32805E-004,7,6.99997E+000,3.20280E-001
1106,1715,-9.23642E-001,8.69228E+000,4.12729E-003,1.29124E-002,-1.08039E-002,5.72381E-003,1.77825E-002,-6.08273E-005,-2.35847E-005,-5.53896E-005,1.62300E-005,-1.00642E-004,-5.42910E+001,1.08067E-004,7,6.99997E+000,3.20280E-001
1121,1445,-6.89187E-001,3.60066E+000,3.23632E-003,1.31917E-002,-1.13524E-002,3.99963E-003,1.78576E-002,-3.19393E-005,-1.18428E-006,-4.97137E-005,3.54759E-005,-6.85995E-005,-5.35940E+001,6.86129E-005,7,6.99997E+000,3.20280E-001
1106,1100,-1.03643E+000,-2.89489E+000,-7.54236E-004,1.23850E-002,-1.15287E-002,5.11510E-003,1.76766E-002,-3.37281E-004,-5.17211E-005,-4.75896E-005,-4.39989E-005,-3.45003E-004,-8.07832E+001,4.26056E-004,7,6.99997E+000,3.20280E-001
1181,1205,3.99568E-001,-9.18511E-001,3.80744E-003,1.29877E-002,-1.16629E-002,3.58909E-003,1.78209E-002,-1.71191E-005,-1.86863E-006,8.29910E-005,7.38467E-005,-9.28345E-005,4.76248E+001,9.80888E-005,7,6.99997E+000,3.20280E-001
1091,1685,-1.21338E+000,8.12508E+000,3.98536E-003,1.23984E-002,-1.07446E-002,8.85137E-003,1.86417E-002,-7.18761E-005,-2.90765E-006,-4.06597E-005,1.59220E-005,-9.07058E-005,-6.51509E+001,9.68630E-005,7,6.99997E+000,3.20280E-001
1136,770,-5.28294E-001,-9.09713E+000,2.99669E-004,1.39582E-002,-1.16684E-002,2.23285E-004,1.81943E-002,-9.23878E-005,2.97057E-005,-1.35703E-005,3.11958E-005,-9.38779E-005,-8.37336E+001,9.56218E-005,7,6.99997E+000,3.20280E-001
1226,1325,1.27220E+000,1.34153E+000,2.46395E-003,1.30943E-002,-1.19362E-002,-1.10452E-004,1.77185E-002,-2.84402E-004,-4.14012E-005,7.39807E-005,-2.06501E-005,-3.05153E-004,7.43315E+001,3.64867E-004,7,6.99997E+000,3.20280E-001
1076,1505,-1.52526E+000,4.73149E+000,5.23289E-003,1.46661E-002,-1.16902E-002,-4.68917E-003,1.93324E-002,-3.13509E-005,-1.89108E-005,-3.58931E-005,1.12972E-005,-6.15589E-005,-4.99157E+001,6.55407E-005,7,6.99997E+000,3.20280E-001
1181,695,3.05655E-001,-1.05071E+001,1.38519E-003,1.33429E-002,-1.17346E-002,2.68006E-003,1.79699E-002,-2.63445E-005,-5.17237E-005,-3.13193E-005,-5.24174E-006,-7.28265E-005,-3.39719E+001,8.72767E-005,7,6.99997E+000,3.20280E-001
1076,1625,-1.50699E+000,6.99229E+000,-5.89661E-003,1.27552E-002,-1.18002E-002,-2.88253E-003,1.76139E-002,-8.03288E-005,4.39968E-005,-4.96055E-005,6.13634E-005,-9.76954E-005,-7.07052E+001,9.87585E-005,7,6.99997E+000,3.20280E-001
1106,800,-1.08891E+000,-8.53313E+000,-2.40671E-003,1.37664E-002,-1.15549E-002,1.99793E-004,1.79742E-002,-1.46306E-004,3.09398E-005,-1.17378E-006,3.09475E-005,-1.46314E-004,-8.96206E+001,1.54218E-004,7,6.99997E+000,3.20280E-001
1151,950,-2.13772E-001,-5.71542E+000,2.17660E-003,1.27290E-002,-1.19295E-002,1.91070E-003,1.75497E-002,-4.89440E-005,1.73350E-005,-4.33771E-005,3.87830E-005,-7.03920E-005,-6.36897E+001,7.05137E-005,7,6.99997E+000,3.20280E-001
1211,875,9.04647E-001,-7.12622E+000,4.04022E-003,1.29394E-002,-1.15735E-002,3.36106E-003,1.76825E-002,1.62385E-004,6.93193E-006,-6.16366E-005,1.83858E-004,-1.45407E-005,-1.92071E+001,2.04423E-004,7,6.99997E+000,3.20280E-001
1136,1010,-4.85042E-001,-4.58739E+000,1.72078E-004,1.36888E-002,-1.15155E-002,1.75608E-003,1.79743E-002,-1.55211E-004,1.22974E-005,-4.93561E-005,2.57584E-005,-1.68672E-004,-7.47447E+001,1.81729E-004,7,6.99997E+000,3.20280E-001
1196,1550,7.46308E-001,5.58255E+000,2.81151E-003,1.23734E-002,-1.13662E-002,2.89277E-003,1.70487E-002,4.39004E-005,-1.31612E-008,7.62609E-006,4.51870E-005,-1.29982E-006,9.57665E+000,5.14434E-005,7,6.99997E+000,3.20280E-001
1196,1475,7.32929E-001,4.16925E+000,5.57106E-003,1.29627E-002,-1.07937E-002,5.73088E-003,1.78151E-002,9.61677E-005,4.38686E-005,2.01241E-005,1.03015E-004,3.70215E-005,1.87906E+001,1.45127E-004,7,6.99997E+000,3.20280E-001
1136,1295,-4.32447E-001,7.74997E-001,-3.18379E-003,1.38122E-002,-1.23515E-002,-5.05963E-003,1.92077E-002,-2.29310E-004,2.39249E-005,-1.62796E-005,2.49671E-005,-2.30353E-004,-8.63368E+001,2.52810E-004,7,6.99997E+000,3.20280E-001
1121,725,-8.20101E-001,-9.94127E+000,4.85322E-003,1.29945E-002,-1.14116E-002,4.01569E-003,1.77541E-002,-1.09559E-004,-8.56179E-006,-5.24562E-006,-8.29007E-006,-1.09831E-004,-8.70348E+001,1.31869E-004,7,6.99997E+000,3.20280E-001
1151,1010,-2.02915E-001,-4.58743E+000,3.58473E-003,1.27541E-002,-1.16129E-002,4.56435E-003,1.78427E-002,-2.16380E-005,1.12631E-005,-7.28125E-005,6.94603E-005,-7.98352E-005,-5.13656E+001,8.68179E-005,7,6.99997E+000,3.20280E-001
1106,1685,-9.28453E-001,8.12494E+000,-1.22814E-003,1.38052E-002,-1.18452E-002,2.40476E-003,1.83487E-002,-4.34893E-005,2.04299E-006,-4.31726E-005,2.80844E-005,-6.95306E-005,-5.89020E+001,6.99573E-005,7,6.99997E+000,3.20280E-001
1226,1145,1.23965E+000,-2.04731E+000,1.13161E-002,1.36125E-002,-1.19238E-002,3.59546E-003,1.84501E-002,3.51844E-004,1.31137E-004,1.44698E-005,3.52788E-004,1.30192E-004,3.73506E+000,4.99786E-004,7,6.99997E+000,3.20280E-001
1151,890,-2.24769E-001,-6.84267E+000,6.85636E-003,1.25195E-002,-1.10871E-002,4.90068E-003,1.74264E-002,-1.87873E-006,2.24149E-005,-3.79169E-005,5.00830E-005,-2.95469E-005,-5.38815E+001,5.03525E-005,7,6.99997E+000,3.20280E-001
1151,1580,-9.85882E-002,6.14704E+000,4.31953E-003,1.23335E-002,-1.11561E-002,4.84834E-003,1.73228E-002,2.91394E-005,1.63815E-005,2.68863E-006,2.96829E-005,1.58381E-005,1.14274E+001,4.62174E-005,7,6.99997E+000,3.20280E-001
1271,1670,2.18792E+000,7.84969E+000,4.74259E-003,1.32594E-002,-1.11503E-002,4.16128E-003,1.78173E-002,-3.33462E-004,-3.28093E-005,3.10061E-005,-2.96449E-005,-3.36626E-004,8.41728E+001,4.06899E-004,7,6.99997E+000,3.20280E-001
1196,695,5.88755E-001,-1.05081E+001,-2.63764E-004,1.37811E-002,-1.19073E-002,2.61567E-003,1.83996E-002,-1.11055E-005,-5.39935E-005,-4.21875E-005,1.47752E-005,-7.98742E-005,-3.15278E+001,8.49944E-005,7,6.99997E+000,3.20280E-001
1136,1130,-4.62900E-001,-2.33048E+000,2.86311E-003,1.35496E-002,-1.18119E-002,1.18158E-003,1.80141E-002,-2.08116E-004,-2.16547E-005,-1.44415E-005,-2.05428E-005,-2.09228E-004,-8.55974E+001,2.54287E-004,7,6.99997E+000,3.20280E-001
1166,950,7.01357E-002,-5.71535E+000,3.57311E-003,1.34812E-002,-1.15957E-002,1.77297E-003,1.78703E-002,4.05819E-005,1.20725E-005,-5.84542E-005,8.64944E-005,-3.38400E-005,-3.81476E+001,8.71738E-005,7,6.99997E+000,3.20280E-001
1226,1745,1.34962E+000,9.26367E+000,1.82827E-003,1.21810E-002,-1.12116E-002,3.32442E-003,1.68858E-002,-2.02144E-004,1.37196E-004,1.63175E-005,1.37978E-004,-2.02927E-004,8.72533E+001,2.07261E-004,7,6.99997E+000,3.20280E-001
1181,845,3.32794E-001,-7.68963E+000,-4.13291E-003,1.30505E-002,-1.20946E-002,-1.12743E-003,1.78288E-002,5.96598E-005,5.40112E-005,-3.86533E-005,9.55919E-005,1.80792E-005,-4.29105E+001,1.22163E-004,7,6.99997E+000,3.20280E-001
1076,740,-1.66648E+000,-9.65959E+000,-7.13962E-003,1.28732E-002,-1.19931E-002,-2.28495E-004,1.75956E-002,-2.24459E-004,9.12921E-007,-1.99229E-006,9.30532E-007,-2.24476E-004,-8.94936E+001,2.58668E-004,7,6.99997E+000,3.20280E-001
1121,1160,-7.40886E-001,-1.76537E+000,6.29502E-003,1.30798E-002,-1.12961E-002,4.01903E-003,1.77437E-002,-3.80271E-004,-2.81412E-005,1.62115E-005,-2.73965E-005,-3.81016E-004,8.73696E+001,4.56599E-004,7,6.99997E+000,3.20280E-001
1211,1550,1.03107E+000,5.58327E+000,3.52629E-003,1.34331E-002,-1.12559E-002,1.98230E-003,1.76372E-002,4.18531E-005,-7.31600E-006,1.57894E-005,4.64868E-005,-1.19497E-005,1.63553E+001,4.82813E-005,7,6.99997E+000,3.20280E-001
1196,1610,7.58007E-001,6.71405E+000,-1.70266E-003,1.30552E-002,-1.15616E-002,-2.47178E-004,1.74405E-002,1.06308E-004,-2.00048E-005,-6.09804E-007,1.06311E-004,-2.00078E-005,-2.76599E-001,1.12992E-004,7,6.99997E+000,3.20280E-001
1121,1685,-6.46833E-001,8.12628E+000,5.81833E-004,1.22732E-002,-1.11736E-002,6.44381E-003,1.78046E-002,-1.74856E-005,1.06262E-007,-3.66855E-005,2.90356E-005,-4.64150E-005,-5.17415E+001,4.69003E-005,7,6.99997E+000,3.20280E-001
1226,875,1.18800E+000,-7.12641E+000,3.51780E-003,1.32380E-002,-1.11774E-002,2.82647E-003,1.75547E-002,1.56747E-004,-8.53420E-006,-6.23212E-005,1.77612E-004,-2.93992E-005,-1.85104E+001,1.90399E-004,7,6.99997E+000,3.20280E-001
1166,1325,1.38729E-001,1.34166E+000,7.36502E-003,1.29714E-002,-1.13430E-002,5.03487E-003,1.79519E-002,-1.88723E-004,4.28440E-005,-3.48933E-005,4.79876E-005,-1.93866E-004,-8.16145E+001,2.01936E-004,7,6.99997E+000,3.20280E-001
1211,1445,1.01071E+000,3.60413E+000,1.05209E-002,1.25966E-002,-1.08715E-002,8.19547E-003,1.85480E-002,1.46060E-004,4.71677E-005,1.92416E-005,1.49672E-004,4.35558E-005,1.06315E+001,2.02708E-004,7,6.99997E+000,3.20280E-001
1121,1025,-7.65286E-001,-4.30552E+000,2.91824E-005,1.36177E-002,-1.18860E-002,1.11940E-003,1.81100E-002,-2.53246E-004,6.64310E-006,-4.30134E-005,1.35771E-005,-2.60180E-004,-8.08424E+001,2.92907E-004,7,6.99997E+000,3.20280E-001
1106,1115,-1.03257E+000,-2.61234E+000,2.36800E-003,1.30293E-002,-1.15619E-002,3.99489E-003,1.78718E-002,-4.09329E-004,-5.29388E-005,-2.75152E-005,-5.08270E-005,-4.11441E-004,-8.56111E+001,5.06990E-004,7,6.99997E+000,3.20280E-001
1091,1625,-1.22367E+000,6.99377E+000,7.13177E-003,1.25727E-002,-1.09185E-002,8.40300E-003,1.86520E-002,-1.16555E-004,3.56129E-005,-2.22526E-005,3.88003E-005,-1.19742E-004,-8.18486E+001,1.22189E-004,7,6.99997E+000,3.20280E-001
1136,1145,-4.60222E-001,-2.04702E+000,8.79255E-003,1.32117E-002,-1.13762E-002,4.83599E-003,1.80929E-002,-2.33118E-004,-3.08724E-005,1.10018E-005,-3.02757E-005,-2.33715E-004,8.68954E+001,2.88941E-004,7,6.99997E+000,3.20280E-001
1166,1010,8.06547E-002,-4.58693E+000,6.80836E-003,1.29343E-002,-1.13798E-002,4.69157E-003,1.78552E-002,1.11982E-004,1.20107E-005,-9.00546E-005,1.64993E-004,-4.10008E-005,-3.04836E+001,1.71810E-004,7,6.99997E+000,3.20280E-001
1136,1355,-4.23025E-001,1.90613E+000,3.73990E-003,1.25751E-002,-1.09891E-002,4.62671E-003,1.73292E-002,-1.66822E-004,3.66671E-005,-7.05468E-005,5.87321E-005,-1.88887E-004,-7.26319E+001,1.93336E-004,7,6.99997E+000,3.20280E-001
1226,1160,1.24163E+000,-1.76515E+000,5.36029E-003,1.36096E-002,-1.14620E-002,4.51144E-003,1.83562E-002,3.33799E-004,9.86230E-005,5.94155E-005,3.47957E-004,8.44645E-005,1.34034E+001,4.58401E-004,7,6.99997E+000,3.20280E-001
1136,725,-5.35596E-001,-9.94338E+000,-5.62719E-003,1.47055E-002,-1.30584E-002,-6.86829E-003,2.08314E-002,-9.15413E-005,-7.16415E-006,-1.08532E-005,-5.79050E-006,-9.29150E-005,-8.27866E+001,1.10784E-004,7,6.99997E+000,3.20280E-001
1211,1475,1.01606E+000,4.16929E+000,7.68624E-003,1.24023E-002,-1.11615E-002,5.79640E-003,1.76634E-002,1.19931E-004,4.92658E-005,2.56073E-005,1.28235E-004,4.09622E-005,1.79663E+001,1.76540E-004,7,6.99997E+000,3.20280E-001
1196,1295,6.99154E-001,7.77375E-001,5.72730E-003,1.23498E-002,-1.11155E-002,3.22515E-003,1.69255E-002,-1.01752E-004,-6.92446E-006,5.17098E-005,1.58184E-005,-1.24495E-004,6.62592E+001,1.35548E-004,7,6.99997E+000,3.20280E-001
1121,1715,-6.40960E-001,8.69228E+000,1.14577E-003,1.25223E-002,-1.11877E-002,5.81158E-003,1.77692E-002,-3.19345E-005,-1.98977E-005,-4.79249E-005,2.23852E-005,-7.42175E-005,-4.85789E+001,7.61398E-005,7,6.99997E+000,3.20280E-001
1181,1460,4.46497E-001,3.88569E+000,7.73040E-003,1.26605E-002,-1.10575E-002,7.23686E-003,1.83010E-002,9.33479E-005,4.26582E-005,1.65439E-006,9.34018E-005,4.26042E-005,1.86735E+000,1.39132E-004,7,6.99997E+000,3.20280E-001
1091,740,-1.38333E+000,-9.65960E+000,-2.32155E-003,1.32456E-002,-1.17861E-002,3.57299E-003,1.80866E-002,-1.01224E-004,-8.64775E-006,5.23270E-006,-8.35292E-006,-1.01519E-004,8.67752E+001,1.22332E-004,7,6.99997E+000,3.20280E-001
1151,1355,-1.38398E-001,1.90596E+000,7.32190E-003,1.33568E-002,-1.14417E-002,2.97176E-003,1.78367E-002,-1.28206E-004,3.22704E-005,-6.19480E-005,5.34015E-005,-1.49337E-004,-7.11650E+001,1.51343E-004,7,6.99997E+000,3.20280E-001
1196,1205,6.82926E-001,-9.18757E-001,-3.11278E-003,1.34678E-002,-1.16696E-002,-3.82851E-004,1.78243E-002,7.91061E-005,-1.01945E-006,7.41955E-005,1.23364E-004,-4.52775E-005,3.08163E+001,1.24810E-004,7,6.99997E+000,3.20280E-001
1151,665,-2.65283E-001,-1.10690E+001,1.00869E-003,1.35870E-002,-1.16172E-002,3.13389E-003,1.81490E-002,6.85262E-005,-1.37580E-004,-4.29230E-005,7.71079E-005,-1.46161E-004,-1.13062E+001,1.46235E-004,7,6.99997E+000,3.20280E-001
1106,1265,-1.00481E+000,2.10032E-001,-2.70718E-003,1.35975E-002,-1.18118E-002,-1.07856E-003,1.80436E-002,-4.04597E-004,3.19475E-005,-7.11709E-005,4.32576E-005,-4.15907E-004,-8.09703E+001,4.57324E-004,7,6.99997E+000,3.20280E-001
1091,1760,-1.19951E+000,9.53946E+000,-5.00890E-003,1.28666E-002,-1.15953E-002,1.77093E-003,1.74108E-002,-1.55191E-004,-5.06313E-005,-8.06446E-005,-6.80311E-006,-1.99019E-004,-6.14771E+001,2.33834E-004,7,6.99997E+000,3.20280E-001
1181,1010,3.65056E-001,-4.58760E+000,8.97175E-004,1.39195E-002,-1.21063E-002,-4.27775E-003,1.89371E-002,2.45527E-004,1.45343E-005,-1.01046E-004,2.83490E-004,-2.34284E-005,-2.05911E+001,3.14693E-004,7,6.99997E+000,3.20280E-001
1121,1670,-6.48379E-001,7.84273E+000,3.08947E-003,1.30848E-002,-1.15500E-002,5.55774E-003,1.83167E-002,-5.63966E-006,9.61205E-006,-3.89603E-005,4.16858E-005,-3.77134E-005,-5.05374E+001,4.60130E-005,7,6.99997E+000,3.20280E-001
1211,695,8.71331E-001,-1.05075E+001,9.47889E-003,1.32451E-002,-1.10895E-002,1.04776E-002,2.02037E-002,4.10138E-006,-5.80357E-005,-5.25258E-005,3.40592E-005,-8.79935E-005,-2.96980E+001,8.87385E-005,7,6.99997E+000,3.20280E-001
1106,920,-1.06685E+000,-6.27881E+000,5.13718E-003,1.36017E-002,-1.17432E-002,2.98835E-003,1.82164E-002,-2.52724E-004,2.39668E-005,2.09842E-005,2.55492E-005,-2.54307E-004,8.56876E+001,2.80065E-004,7,6.99997E+000,3.20280E-001
1181,950,3.53118E-001,-5.71512E+000,1.10127E-002,1.33125E-002,-1.14123E-002,8.05529E-003,1.92964E-002,1.29926E-004,7.68169E-006,-7.09043E-005,1.62416E-004,-2.48089E-005,-2.46187E+001,1.74986E-004,7,6.99997E+000,3.20280E-001
1211,1610,1.04145E+000,6.71550E+000,5.84155E-003,1.28025E-002,-1.10763E-002,6.15693E-003,1.80138E-002,1.09601E-004,-3.04711E-005,1.53987E-007,1.09601E-004,-3.04713E-005,6.29877E-002,1.13144E-004,7,6.99997E+000,3.20280E-001
1106,1625,-9.39786E-001,6.99354E+000,4.50166E-003,1.30686E-002,-1.12764E-002,5.19824E-003,1.80268E-002,-8.10865E-005,2.69391E-005,-1.97650E-005,3.04418E-005,-8.45892E-005,-7.99504E+001,8.56893E-005,7,6.99997E+000,3.20280E-001
1181,1100,3.80057E-001,-2.89473E+000,1.56071E-003,1.30240E-002,-1.16652E-002,2.50137E-003,1.76623E-002,9.04052E-005,1.32317E-006,-4.01736E-005,1.05846E-004,-1.41177E-005,-2.10244E+001,1.14940E-004,7,6.99997E+000,3.20280E-001
1106,740,-1.09934E+000,-9.66030E+000,-6.98996E-003,1.43182E-002,-1.22129E-002,-3.00627E-003,1.90579E-002,-1.27768E-004,-7.84823E-007,-2.48861E-006,-7.36070E-007,-1.27816E-004,-8.88777E+001,1.48016E-004,7,6.99997E+000,3.20280E-001
1226,1550,1.31404E+000,5.58373E+000,5.45232E-003,1.27107E-002,-1.13662E-002,2.62458E-003,1.72523E-002,8.68392E-005,-5.82124E-006,3.28057E-006,8.69553E-005,-5.93724E-006,2.02513E+000,9.71610E-005,7,6.99997E+000,3.20280E-001
1136,1685,-3.62485E-001,8.12560E+000,-9.54978E-003,1.34368E-002,-1.19624E-002,-1.56389E-003,1.80580E-002,-3.04545E-007,4.98701E-006,-2.61480E-005,2.86228E-005,-2.39403E-005,-4.78889E+001,3.07064E-005,7,6.99997E+000,3.20280E-001
1046,1715,-2.05260E+000,8.69075E+000,2.75997E-002,1.44953E-002,-1.15270E-002,4.17851E-003,1.89854E-002,-2.17227E-004,7.27398E-005,3.07486E-005,7.59646E-005,-2.20451E-004,8.40130E+001,2.23973E-004,7,6.99997E+000,3.20280E-001
1166,1580,1.86143E-001,6.14854E+000,9.90205E-003,1.31386E-002,-1.10328E-002,6.30528E-003,1.82785E-002,4.66934E-005,7.65251E-006,1.49104E-006,4.67503E-005,7.59565E-006,2.18398E+000,5.88601E-005,7,6.99997E+000,3.20280E-001
1166,890,5.81652E-002,-6.84274E+000,3.87554E-003,1.26908E-002,-1.12145E-002,3.44303E-003,1.72822E-002,3.65380E-005,1.70113E-005,-4.52317E-005,7.30481E-005,-1.94987E-005,-3.89097E+001,7.56472E-005,7,6.99997E+000,3.20280E-001
1091,1070,-1.32056E+000,-3.45868E+000,1.41166E-002,1.43745E-002,-1.16953E-002,3.95441E-004,1.85355E-002,-4.80043E-004,5.26494E-006,-3.34392E-005,7.55817E-006,-4.82336E-004,-8.60768E+001,5.52641E-004,7,6.99997E+000,3.20280E-001
1226,1445,1.29437E+000,3.60372E+000,5.98724E-003,1.26931E-002,-1.17178E-002,2.81807E-003,1.75032E-002,1.75688E-004,6.00508E-005,2.78854E-005,1.82061E-004,5.36776E-005,1.28738E+001,2.47117E-004,7,6.99997E+000,3.20280E-001
1211,1295,9.82931E-001,7.77791E-001,7.63728E-003,1.26332E-002,-1.10477E-002,3.74473E-003,1.71951E-002,-7.03229E-005,-1.80076E-005,5.16140E-005,1.36986E-005,-1.02029E-004,5.84378E+001,1.10755E-004,7,6.99997E+000,3.20280E-001
1061,740,-1.94559E+000,-9.65861E+000,4.90268E-003,1.44740E-002,-1.20400E-002,-4.95772E-003,1.94689E-002,-2.83261E-004,-2.16733E-005,-1.42514E-005,-2.08991E-005,-2.84035E-004,-8.68908E+001,3.40683E-004,7,6.99997E+000,3.20280E-001
1211,1250,9.74285E-001,-7.06209E-002,6.89930E-004,1.29083E-002,-1.13465E-002,1.19588E-003,1.72278E-002,2.98691E-005,-1.17357E-005,1.33097E-004,1.43780E-004,-1.25647E-004,4.05584E+001,1.56607E-004,7,6.99997E+000,3.20280E-001
1196,1220,6.85653E-001,-6.35697E-001,2.86736E-003,1.31558E-002,-1.12399E-002,3.47092E-003,1.76482E-002,4.09002E-005,-7.33754E-006,8.89075E-005,1.08902E-004,-7.53396E-005,3.74110E+001,1.11541E-004,7,6.99997E+000,3.20280E-001
1151,725,-2.54745E-001,-9.94288E+000,4.68212E-003,1.28490E-002,-1.18272E-002,4.02560E-003,1.79217E-002,-7.35308E-005,-7.74477E-006,-1.60161E-005,-4.05275E-006,-7.72228E-005,-7.70190E+001,9.15988E-005,7,6.99997E+000,3.20280E-001
1166,830,4.72499E-002,-7.97102E+000,-2.66922E-003,1.35432E-002,-1.15113E-002,3.28586E-003,1.80756E-002,-1.55548E-005,4.31090E-005,-3.03421E-005,5.59790E-005,-2.84248E-005,-6.70151E+001,5.59813E-005,7,6.99997E+000,3.20280E-001
1226,755,1.16401E+000,-9.38210E+000,2.99734E-003,1.20370E-002,-1.18485E-002,5.72738E-003,1.78348E-002,1.79122E-005,-4.12329E-006,-3.22325E-005,4.09580E-005,-2.71691E-005,-3.55643E+001,4.16802E-005,7,6.99997E+000,3.20280E-001
1211,1565,1.03324E+000,5.86597E+000,4.77269E-004,1.30045E-002,-1.12935E-002,6.86777E-004,1.72375E-002,5.22294E-005,-2.34243E-005,1.00405E-005,5.35393E-005,-2.47342E-005,7.43268E+000,5.35908E-005,7,6.99997E+000,3.20280E-001
1196,845,6.16750E-001,-7.68971E+000,6.78087E-004,1.36555E-002,-1.20987E-002,4.22320E-004,1.82491E-002,9.46182E-005,4.04682E-005,-4.53069E-005,1.20324E-004,1.47627E-005,-2.95689E+001,1.48198E-004,7,6.99997E+000,3.20280E-001
1121,740,-8.17919E-001,-9.65944E+000,6.04828E-003,1.27116E-002,-1.10199E-002,7.36985E-003,1.83667E-002,-1.07320E-004,3.18777E-006,-8.56535E-006,3.84772E-006,-1.07980E-004,-8.55941E+001,1.22524E-004,7,6.99997E+000,3.20280E-001
1241,785,1.45366E+000,-8.81795E+000,2.27558E-003,1.31283E-002,-1.11209E-002,5.44169E-003,1.80454E-002,-6.35936E-005,-1.77634E-005,-1.74291E-005,-1.18883E-005,-6.94686E-005,-7.13718E+001,8.78870E-005,7,6.99997E+000,3.20280E-001
1196,1460,7.30431E-001,3.88541E+000,5.60110E-004,1.32720E-002,-1.17552E-002,8.33904E-004,1.77490E-002,1.25210E-004,5.27576E-005,6.64966E-006,1.25815E-004,5.21523E-005,5.20068E+000,1.82979E-004,7,6.99997E+000,3.20280E-001
1226,725,1.15991E+000,-9.94542E+000,-6.58099E-003,1.35867E-002,-1.19336E-002,-3.32073E-003,1.83857E-002,-2.18200E-005,-4.54603E-005,-4.79245E-005,1.57204E-005,-8.30008E-005,-3.80725E+001,8.81775E-005,7,6.99997E+000,3.20280E-001
1121,1640,-6.54802E-001,7.27738E+000,1.12503E-002,1.19122E-002,-1.08651E-002,1.16527E-002,1.98931E-002,-3.39651E-005,1.35438E-005,-3.00714E-005,2.81112E-005,-4.85324E-005,-6.41532E+001,4.87351E-005,7,6.99997E+000,3.20280E-001
1196,995,6.44013E-001,-4.86925E+000,5.73358E-003,1.29240E-002,-1.14370E-002,3.59356E-003,1.76281E-002,3.50449E-004,2.24046E-005,-9.59988E-005,3.76477E-004,-3.62335E-006,-1.51698E+001,4.32642E-004,7,6.99997E+000,3.20280E-001
1151,1595,-9.48180E-002,6.42941E+000,-3.88104E-003,1.32432E-002,-1.17511E-002,-4.18657E-003,1.81933E-002,3.77116E-005,1.89263E-005,5.72882E-006,3.93208E-005,1.73171E-005,1.56900E+001,5.80451E-005,7,6.99997E+000,3.20280E-001
1166,875,5.57928E-002,-7.12486E+000,2.89370E-004,1.33106E-002,-1.14051E-002,1.89372E-003,1.76305E-002,3.72618E-005,4.14666E-005,-4.34332E-005,8.28482E-005,-4.11983E-006,-4.63856E+001,9.33772E-005,7,6.99997E+000,3.20280E-001
1136,1670,-3.64885E-001,7.84322E+000,-3.24780E-003,1.32451E-002,-1.15765E-002,3.78002E-005,1.75911E-002,1.23459E-005,1.11171E-005,-2.79391E-005,3.96774E-005,-1.62144E-005,-4.43701E+001,3.98975E-005,7,6.99997E+000,3.20280E-001
1121,920,-7.84826E-001,-6.27906E+000,5.93283E-003,1.29238E-002,-1.17792E-002,5.13125E-003,1.82237E-002,-1.73152E-004,2.42977E-005,-5.11998E-006,2.44304E-005,-1.73284E-004,-8.85156E+001,1.87584E-004,7,6.99997E+000,3.20280E-001
1241,1445,1.57791E+000,3.60467E+000,5.61828E-003,1.27940E-002,-1.12187E-002,3.02523E-003,1.72828E-002,1.08029E-004,7.28895E-005,3.13610E-005,1.26406E-004,5.45118E-005,3.03704E+001,1.85619E-004,7,6.99997E+000,3.20280E-001
1136,1160,-4.57195E-001,-1.76527E+000,6.32269E-003,1.34621E-002,-1.17315E-002,2.03113E-003,1.79717E-002,-2.77648E-004,-2.22239E-005,3.30984E-005,-1.80046E-005,-2.81867E-004,8.27353E+001,3.36349E-004,7,6.99997E+000,3.20280E-001
1166,1355,1.43956E-001,1.90740E+000,1.45034E-002,1.24351E-002,-1.06089E-002,1.01929E-002,1.92633E-002,-8.96469E-005,2.43030E-005,-5.16658E-005,4.42404E-005,-1.09584E-004,-6.88989E+001,1.10260E-004,7,6.99997E+000,3.20280E-001
1241,1745,1.63458E+000,9.26316E+000,-8.24109E-003,1.38800E-002,-1.18727E-002,-3.04797E-003,1.85177E-002,-2.01445E-004,2.40669E-004,-2.86039E-005,2.42512E-004,-2.03288E-004,-8.63136E+001,2.60354E-004,7,6.99997E+000,3.20280E-001
1241,830,1.46178E+000,-7.97287E+000,-1.77976E-003,1.27032E-002,-1.16300E-002,3.84657E-004,1.72272E-002,-2.36929E-005,-1.61830E-005,-5.25735E-005,3.27695E-005,-7.26453E-005,-4.70426E+001,7.27611E-005,7,6.99997E+000,3.20280E-001
1196,1100,6.63582E-001,-2.89460E+000,2.06385E-003,1.33208E-002,-1.14374E-002,2.35519E-003,1.77146E-002,1.75925E-004,3.63117E-005,-4.43727E-005,1.88834E-004,2.34026E-005,-1.62211E+001,2.32738E-004,7,6.99997E+000,3.20280E-001
1226,1295,1.26683E+000,7.77015E-001,9.78613E-005,1.33991E-002,-1.16289E-002,-1.93224E-003,1.78466E-002,-3.90276E-005,-3.04831E-005,4.47563E-005,1.02044E-005,-7.97151E-005,4.77264E+001,8.67578E-005,7,6.99997E+000,3.20280E-001
1241,755,1.44837E+000,-9.38240E+000,-5.95834E-003,1.35872E-002,-1.18163E-002,-1.60226E-003,1.80777E-002,-1.13715E-004,-1.45367E-005,-5.17819E-006,-1.42671E-005,-1.13985E-004,-8.70193E+001,1.40581E-004,7,6.99997E+000,3.20280E-001
1181,890,3.42461E-001,-6.84296E+000,5.24008E-003,1.38652E-002,-1.14828E-002,3.53228E-003,1.83460E-002,7.49173E-005,1.22222E-005,-4.92225E-005,1.01927E-004,-1.47871E-005,-2.87544E+001,1.10154E-004,7,6.99997E+000,3.20280E-001
1091,1085,-1.31716E+000,-3.17531E+000,1.89513E-002,1.45118E-002,-1.11753E-002,4.61807E-004,1.83219E-002,-4.18298E-004,-7.24308E-006,-6.30732E-005,2.21728E-006,-4.27759E-004,-8.14698E+001,4.92658E-004,7,6.99997E+000,3.20280E-001
1211,1220,9.70004E-001,-6.35584E-001,4.71304E-003,1.39936E-002,-1.14672E-002,3.30057E-003,1.83905E-002,1.25063E-004,-7.67793E-007,7.94121E-005,1.63462E-004,-3.91669E-005,2.58057E+001,1.70691E-004,7,6.99997E+000,3.20280E-001
1241,725,1.44166E+000,-9.94510E+000,2.92631E-003,1.25271E-002,-1.13003E-002,7.61030E-003,1.85079E-002,-1.59000E-004,-6.53436E-005,-4.13434E-005,-4.97046E-005,-1.74639E-004,-6.92797E+001,2.35654E-004,7,6.99997E+000,3.20280E-001
1136,1715,-3.56792E-001,8.69198E+000,-9.21134E-003,1.32332E-002,-1.19884E-002,-4.54594E-003,1.84256E-002,-1.69783E-005,-6.80423E-006,-3.61035E-005,2.45689E-005,-4.83514E-005,-4.90101E+001,4.83535E-005,7,6.99997E+000,3.20280E-001
1136,1310,-4.29540E-001,1.05854E+000,1.32310E-003,1.39948E-002,-1.12124E-002,-3.91556E-004,1.79367E-002,-1.61952E-004,3.78695E-005,-5.01175E-005,4.97349E-005,-1.73818E-004,-7.66803E+001,1.79040E-004,7,6.99997E+000,3.20280E-001
1256,680,1.71727E+000,-1.07918E+001,-5.41252E-003,1.37891E-002,-1.17875E-002,9.29545E-004,1.81645E-002,-1.92197E-005,-6.15353E-005,-2.69123E-004,2.29576E-004,-3.10331E-004,-4.27524E+001,3.22006E-004,7,6.99997E+000,3.20280E-001
1211,1205,9.66132E-001,-9.17281E-001,9.02109E-003,1.30381E-002,-1.06222E-002,8.61132E-003,1.88939E-002,1.75426E-004,-4.97612E-007,5.96088E-005,1.93721E-004,-1.87925E-005,1.70621E+001,2.13668E-004,7,6.99997E+000,3.20280E-001
1166,1700,2.08571E-001,8.41051E+000,-2.78641E-003,1.40520E-002,-1.19424E-002,-6.76971E-004,1.84537E-002,-1.46693E-005,1.34103E-005,-3.11044E-005,3.34967E-005,-3.47557E-005,-5.71467E+001,3.94257E-005,7,6.99997E+000,3.20280E-001
1151,1670,-8.10538E-002,7.84399E+000,-2.82039E-003,1.33375E-002,-1.16746E-002,-1.88748E-003,1.78255E-002,1.42720E-005,1.10415E-005,-2.42326E-005,3.69431E-005,-1.16297E-005,-4.30933E+001,3.77784E-005,7,6.99997E+000,3.20280E-001
1106,1760,-9.15439E-001,9.54070E+000,-2.17788E-003,1.30711E-002,-1.14267E-002,7.70562E-004,1.73786E-002,-9.82130E-005,-4.16504E-005,-5.64425E-005,-6.80013E-006,-1.33063E-004,-5.83069E+001,1.57721E-004,7,6.99997E+000,3.20280E-001
1136,740,-5.33196E-001,-9.66099E+000,-7.49420E-003,1.46304E-002,-1.21234E-002,-6.57232E-003,2.01053E-002,-8.69007E-005,5.34828E-006,-1.37191E-005,7.34532E-006,-8.88978E-005,-8.17178E+001,9.86832E-005,7,6.99997E+000,3.20280E-001
1136,1640,-3.71424E-001,7.27856E+000,8.26794E-004,1.22015E-002,-1.06285E-002,4.06424E-003,1.66841E-002,-4.71424E-006,8.38190E-006,-2.08940E-005,2.37299E-005,-2.00622E-005,-5.37004E+001,2.55480E-005,7,6.99997E+000,3.20280E-001
1211,845,9.00284E-001,-7.68970E+000,7.97182E-004,1.39955E-002,-1.17614E-002,-1.11679E-003,1.83154E-002,1.29386E-004,2.16679E-005,-5.12162E-005,1.49850E-004,1.20397E-006,-2.17796E+001,1.73731E-004,7,6.99997E+000,3.20280E-001
1241,1550,1.59808E+000,5.58448E+000,4.91354E-003,1.31166E-002,-1.12604E-002,1.59904E-003,1.73608E-002,-1.38405E-005,1.96833E-006,4.66178E-005,4.13471E-005,-5.32193E-005,4.98117E+001,5.58738E-005,7,6.99997E+000,3.20280E-001
1151,1610,-9.22126E-002,6.71342E+000,6.19167E-003,1.30938E-002,-1.11002E-002,6.02653E-003,1.81929E-002,1.82688E-005,3.53753E-006,9.46377E-006,2.28955E-005,-1.08914E-006,2.60532E+001,2.58316E-005,7,6.99997E+000,3.20280E-001
1136,920,-5.01770E-001,-6.27964E+000,-2.44122E-003,1.33967E-002,-1.19889E-002,-5.93674E-004,1.79877E-002,-9.37621E-005,2.31671E-005,-2.64089E-005,2.88550E-005,-9.94500E-005,-7.78455E+001,1.02328E-004,7,6.99997E+000,3.20280E-001
1226,1565,1.31681E+000,5.86663E+000,5.71423E-003,1.27326E-002,-1.12054E-002,3.44066E-003,1.73066E-002,7.92132E-005,-2.19645E-005,-8.95994E-007,7.92211E-005,-2.19725E-005,-5.07338E-001,8.17972E-005,7,6.99997E+000,3.20280E-001
1211,995,9.27617E-001,-4.86921E+000,1.08570E-003,1.34699E-002,-1.13542E-002,-5.96900E-004,1.76271E-002,4.67518E-004,2.33029E-005,-9.44096E-005,4.86750E-004,4.07056E-006,-1.15143E+001,5.64416E-004,7,6.99997E+000,3.20280E-001
1121,1250,-7.24709E-001,-7.13784E-002,5.29616E-003,1.28349E-002,-1.15228E-002,2.76711E-003,1.74690E-002,-3.86406E-004,2.02280E-005,-1.53357E-005,2.08055E-005,-3.86983E-004,-8.78432E+001,4.35335E-004,7,6.99997E+000,3.20280E-001
1166,1595,1.88001E-001,6.43164E+000,1.25472E-002,1.23687E-002,-1.05411E-002,1.01559E-002,1.91635E-002,6.25268E-005,9.31100E-006,5.06649E-006,6.30049E-005,8.83293E-006,5.39040E+000,7.83509E-005,7,6.99997E+000,3.20280E-001
1181,1355,4.29363E-001,1.90561E+000,-4.67861E-003,1.47080E-002,-1.27511E-002,-7.50551E-003,2.08626E-002,-5.11118E-005,1.27502E-005,-3.96806E-005,3.17520E-005,-7.01135E-005,-6.44118E+001,7.02173E-005,7,6.99997E+000,3.20280E-001
1211,1460,1.01379E+000,3.88620E+000,5.77682E-003,1.30139E-002,-1.12931E-002,4.55184E-003,1.78218E-002,1.57070E-004,6.35727E-005,1.16025E-005,1.58488E-004,6.21544E-005,6.96928E+000,2.27545E-004,7,6.99997E+000,3.20280E-001
1106,1475,-9.67024E-001,4.16556E+000,-3.49051E-003,1.32616E-002,-1.16725E-002,-1.60086E-003,1.77392E-002,-4.68864E-005,1.09278E-005,-4.15776E-006,1.12253E-005,-4.71839E-005,-8.59076E+001,4.92974E-005,7,6.99997E+000,3.20280E-001
1196,890,6.24547E-001,-6.84299E+000,8.09123E-003,1.30319E-002,-1.11562E-002,7.05540E-003,1.85491E-002,1.13149E-004,8.07392E-006,-4.98732E-005,1.33052E-004,-1.18283E-005,-2.17548E+001,1.47282E-004,7,6.99997E+000,3.20280E-001
1226,1220,1.25249E+000,-6.35190E-001,6.19353E-003,1.31893E-002,-1.11933E-002,4.94353E-003,1.79913E-002,2.09077E-004,8.65223E-006,6.40322E-005,2.27787E-004,-1.00583E-005,1.62886E+001,2.57415E-004,7,6.99997E+000,3.20280E-001
1211,1100,9.47786E-001,-2.89474E+000,2.88475E-003,1.40916E-002,-1.16972E-002,1.09554E-003,1.83466E-002,2.61473E-004,7.93417E-005,-5.04807E-005,2.74529E-004,6.62861E-005,-1.45005E+001,3.61400E-004,7,6.99997E+000,3.20280E-001
1091,875,-1.35831E+000,-7.12430E+000,-4.19138E-003,1.36509E-002,-1.18662E-002,-1.26637E-003,1.81317E-002,-1.51140E-004,4.34331E-005,2.69748E-005,4.71035E-005,-1.54811E-004,8.22514E+001,1.58715E-004,7,6.99997E+000,3.20280E-001
1151,1310,-1.46908E-001,1.05919E+000,8.23637E-003,1.31289E-002,-1.13995E-002,4.11918E-003,1.78686E-002,-1.81748E-004,3.80923E-005,-3.06170E-005,4.22767E-005,-1.85932E-004,-8.22177E+001,1.94928E-004,7,6.99997E+000,3.20280E-001
1136,1175,-4.54775E-001,-1.48319E+000,1.57848E-003,1.34743E-002,-1.17864E-002,1.49143E-004,1.79024E-002,-2.99829E-004,-1.12683E-005,5.41037E-005,-1.45766E-006,-3.09640E-004,7.97222E+001,3.58386E-004,7,6.99997E+000,3.20280E-001
1181,1430,4.41958E-001,3.32007E+000,9.10745E-003,1.33386E-002,-1.13309E-002,5.67631E-003,1.83991E-002,7.40355E-005,2.64645E-005,-1.91499E-006,7.41125E-005,2.63875E-005,-2.30150E+000,1.04209E-004,7,6.99997E+000,3.20280E-001
1091,815,-1.36908E+000,-8.25090E+000,9.53006E-004,1.36176E-002,-1.16544E-002,3.39925E-003,1.82434E-002,-1.53654E-004,3.32290E-005,1.39311E-005,3.42618E-005,-1.54687E-004,8.57602E+001,1.62490E-004,7,6.99997E+000,3.20280E-001
1196,965,6.39322E-001,-5.43385E+000,2.78157E-003,1.39860E-002,-1.13977E-002,2.23074E-003,1.81794E-002,2.63018E-004,9.71186E-006,-9.26734E-005,2.93302E-004,-2.05725E-005,-1.80967E+001,3.27445E-004,7,6.99997E+000,3.20280E-001
1091,1100,-1.31471E+000,-2.89235E+000,2.77748E-002,1.38446E-002,-1.11139E-002,5.80548E-003,1.86787E-002,-4.21828E-004,-3.82532E-005,-5.46326E-005,-3.06236E-005,-4.29457E-004,-8.20499E+001,5.14487E-004,7,6.99997E+000,3.20280E-001
1226,1610,1.32472E+000,6.71545E+000,5.42061E-004,1.26617E-002,-1.13501E-002,2.27172E-003,1.71553E-002,1.19360E-004,-3.30230E-005,-7.94372E-006,1.19773E-004,-3.34360E-005,-2.97608E+000,1.23606E-004,7,6.99997E+000,3.20280E-001
1226,845,1.18142E+000,-7.68964E+000,3.26500E-003,1.24558E-002,-1.10642E-002,4.33257E-003,1.72144E-002,1.16758E-004,1.06948E-006,-6.42922E-005,1.45398E-004,-2.75701E-005,-2.40110E+001,1.54454E-004,7,6.99997E+000,3.20280E-001
1151,740,-2.51146E-001,-9.66165E+000,-3.26138E-004,1.38098E-002,-1.23190E-002,-9.64569E-005,1.85062E-002,-6.64911E-005,5.70393E-006,-1.79578E-005,9.92408E-006,-7.07113E-005,-7.67753E+001,7.65665E-005,7,6.99997E+000,3.20280E-001
1226,1205,1.25061E+000,-9.18324E-001,6.95625E-004,1.40237E-002,-1.19544E-002,-1.38800E-003,1.84797E-002,2.71636E-004,-2.82468E-007,3.92494E-005,2.77188E-004,-5.83447E-006,8.05133E+000,3.16754E-004,7,6.99997E+000,3.20280E-001
1151,1640,-8.61491E-002,7.27726E+000,-3.86067E-003,1.40205E-002,-1.24028E-002,-7.69702E-004,1.87349E-002,1.21868E-005,3.06469E-006,-1.82935E-005,2.64793E-005,-1.12277E-005,-3.80000E+001,2.65810E-005,7,6.99997E+000,3.20280E-001
1241,1565,1.60053E+000,5.86714E+000,5.31135E-003,1.27464E-002,-1.12712E-002,1.99009E-003,1.71310E-002,-2.16865E-005,-1.65323E-005,3.38733E-005,1.48617E-005,-5.30806E-005,4.71754E+001,5.47668E-005,7,6.99997E+000,3.20280E-001
1181,1700,4.90545E-001,8.41200E+000,3.25834E-003,1.23912E-002,-1.10460E-002,4.62135E-003,1.72311E-002,-1.77058E-005,2.13655E-005,-3.13477E-005,3.87666E-005,-3.51068E-005,-6.09654E+001,4.28076E-005,7,6.99997E+000,3.20280E-001
1226,995,1.21050E+000,-4.86996E+000,-3.53637E-003,1.35437E-002,-1.19255E-002,-2.36797E-003,1.82005E-002,5.84360E-004,2.42576E-005,-8.67540E-005,5.97490E-004,1.11281E-005,-8.60594E+000,6.96435E-004,7,6.99997E+000,3.20280E-001
1256,725,1.72601E+000,-9.94648E+000,-1.20753E-002,1.39619E-002,-1.21089E-002,-6.63993E-003,1.96380E-002,-1.85978E-004,-3.76065E-005,-1.05566E-004,1.72332E-005,-2.40818E-004,-6.25488E+001,2.68676E-004,7,6.99997E+000,3.20280E-001
1226,1235,1.25439E+000,-3.52341E-001,7.99952E-003,1.24881E-002,-1.06799E-002,8.48505E-003,1.84935E-002,1.21499E-004,-1.54185E-005,1.31804E-004,2.01562E-004,-9.54819E-005,3.12763E+001,2.01655E-004,7,6.99997E+000,3.20280E-001
1226,1460,1.29725E+000,3.88684E+000,8.36741E-003,1.28964E-002,-1.10958E-002,6.32838E-003,1.81517E-002,1.72571E-004,7.54456E-005,1.61868E-005,1.75198E-004,7.28189E-005,9.21707E+000,2.54963E-004,7,6.99997E+000,3.20280E-001
1211,1715,1.06180E+000,8.69620E+000,8.19857E-005,1.34130E-002,-1.17072E-002,-4.54234E-004,1.78094E-002,-7.25685E-005,5.56034E-005,-2.45343E-005,6.01392E-005,-7.71043E-005,-7.95257E+001,8.10334E-005,7,6.99997E+000,3.20280E-001
1181,1310,4.19629E-001,1.05822E+000,2.83292E-003,1.34706E-002,-1.21996E-002,1.36199E-003,1.82247E-002,-2.21922E-004,2.11231E-005,1.11637E-005,2.16348E-005,-2.22434E-004,8.73756E+001,2.45310E-004,7,6.99997E+000,3.20280E-001
1211,890,9.08017E-001,-6.84445E+000,-5.83253E-004,1.34947E-002,-1.19776E-002,-1.46095E-003,1.81026E-002,1.51259E-004,4.56386E-006,-4.71820E-005,1.65124E-004,-9.30101E-006,-1.63759E+001,1.85532E-004,7,6.99997E+000,3.20280E-001
1166,1505,1.71639E-001,4.73344E+000,5.12359E-003,1.26638E-002,-1.14139E-002,2.89516E-003,1.72925E-002,5.16730E-005,2.31295E-005,2.48762E-005,6.60807E-005,8.72186E-006,3.00783E+001,8.18053E-005,7,6.99997E+000,3.20280E-001
1181,710,3.07282E-001,-1.02252E+001,1.22793E-004,1.23897E-002,-1.16127E-002,2.97658E-003,1.72400E-002,-3.87482E-005,-2.82782E-005,-3.17235E-005,-1.36070E-006,-6.56657E-005,-4.96853E+001,7.66219E-005,7,6.99997E+000,3.20280E-001
1151,920,-2.17984E-001,-6.27922E+000,1.48489E-004,1.41313E-002,-1.14030E-002,8.93366E-004,1.81803E-002,-1.44108E-005,2.05682E-005,-4.29272E-005,4.94320E-005,-4.32746E-005,-5.60835E+001,5.38772E-005,7,6.99997E+000,3.20280E-001
1211,1745,1.06801E+000,9.26238E+000,-5.05014E-004,1.38365E-002,-1.20381E-002,-2.42776E-003,1.85002E-002,-1.13157E-004,1.22130E-004,-1.88264E-005,1.23627E-004,-1.14654E-004,-8.54540E+001,1.37864E-004,7,6.99997E+000,3.20280E-001
1091,1475,-1.25091E+000,4.16594E+000,4.92873E-003,1.27019E-002,-1.08347E-002,7.72785E-003,1.83970E-002,-4.86017E-005,3.98768E-006,1.17669E-006,4.01400E-006,-4.86280E-005,8.87189E+001,5.39827E-005,7,6.99997E+000,3.20280E-001
1151,830,-2.36456E-001,-7.97057E+000,-3.35361E-003,1.26242E-002,-1.14972E-002,1.75401E-003,1.71648E-002,-4.63571E-005,4.58332E-005,-2.28734E-005,5.11964E-005,-5.17203E-005,-7.68042E+001,5.94213E-005,7,6.99997E+000,3.20280E-001
1181,1595,4.72003E-001,6.43033E+000,-1.71078E-003,1.30986E-002,-1.22753E-002,-2.36480E-003,1.81066E-002,8.72913E-005,-1.23836E-006,2.56939E-006,8.73658E-005,-1.31287E-006,1.66103E+000,1.00132E-004,7,6.99997E+000,3.20280E-001
1091,1385,-1.26670E+000,2.47058E+000,3.60695E-003,1.31063E-002,-1.10935E-002,5.50224E-003,1.80310E-002,-1.56624E-004,8.71962E-006,-1.23385E-004,7.45685E-005,-2.22473E-004,-6.19117E+001,2.26466E-004,7,6.99997E+000,3.20280E-001
1106,1670,-9.31444E-001,7.84300E+000,1.03092E-002,1.28887E-002,-1.10533E-002,8.22343E-003,1.88658E-002,-3.13380E-005,1.39447E-005,-4.62073E-005,4.27596E-005,-6.01529E-005,-5.80523E+001,6.19101E-005,7,6.99997E+000,3.20280E-001
1181,1580,4.70865E-001,6.14874E+000,8.48498E-003,1.39024E-002,-1.18751E-002,7.51755E-004,1.82992E-002,6.42355E-005,-1.62599E-006,-2.25800E-007,6.42362E-005,-1.62676E-006,-1.96430E-001,7.32525E-005,7,6.99997E+000,3.20280E-001
1091,905,-1.35217E+000,-6.56024E+000,1.28460E-003,1.39137E-002,-1.15438E-002,-1.89663E-005,1.80790E-002,-2.08797E-004,3.30861E-005,2.60948E-005,3.58692E-005,-2.11580E-004,8.39121E+001,2.26461E-004,7,6.99997E+000,3.20280E-001
1241,1610,1.60835E+000,6.71565E+000,-7.89574E-004,1.26720E-002,-1.14192E-002,7.98505E-004,1.70768E-002,5.74797E-005,-3.98868E-005,-7.49743E-006,5.80536E-005,-4.04608E-005,-4.37751E+000,5.95360E-005,7,6.99997E+000,3.20280E-001
1226,740,1.16240E+000,-9.66425E+000,-8.78965E-003,1.33628E-002,-1.22119E-002,-4.82467E-003,1.87343E-002,1.22827E-007,-2.36069E-005,-3.93382E-005,2.93465E-005,-5.28305E-005,-3.66080E+001,5.29388E-005,7,6.99997E+000,3.20280E-001
1196,1700,7.75573E-001,8.41242E+000,1.66927E-003,1.34692E-002,-1.17105E-002,-4.91352E-005,1.78482E-002,-2.52585E-005,2.86763E-005,-2.95768E-005,4.17342E-005,-3.83164E-005,-6.61789E+001,4.63435E-005,7,6.99997E+000,3.20280E-001
1181,1445,4.44791E-001,3.60351E+000,1.37557E-002,1.31797E-002,-1.08553E-002,8.54849E-003,1.90950E-002,8.68343E-005,2.55411E-005,-4.60517E-007,8.68378E-005,2.55376E-005,-4.30450E-001,1.17817E-004,7,6.99997E+000,3.20280E-001
1106,1040,-1.04754E+000,-4.02214E+000,9.91000E-003,1.14653E-002,-1.08941E-002,1.00286E-002,1.87272E-002,-3.83016E-004,6.23249E-006,-4.23224E-005,1.07810E-005,-3.87564E-004,-8.38658E+001,4.41428E-004,7,6.99997E+000,3.20280E-001
1241,845,1.46508E+000,-7.69145E+000,-9.21033E-003,1.35270E-002,-1.20635E-002,-4.27808E-003,1.86228E-002,5.88750E-005,-2.85178E-005,-5.90443E-005,8.86334E-005,-5.82762E-005,-2.67482E+001,9.00872E-005,7,6.99997E+000,3.20280E-001
1136,995,-4.88605E-001,-4.86916E+000,1.02774E-003,1.29716E-002,-1.13501E-002,3.58033E-003,1.76042E-002,-1.19030E-004,1.94196E-005,-4.15419E-005,3.09277E-005,-1.30538E-004,-7.45160E+001,1.36428E-004,7,6.99997E+000,3.20280E-001
1121,1175,-7.38318E-001,-1.48369E+000,-6.57677E-004,1.33233E-002,-1.18513E-002,5.92548E-004,1.78413E-002,-4.10668E-004,-1.79762E-005,3.79475E-005,-1.43428E-005,-4.14301E-004,8.45307E+001,4.86886E-004,7,6.99997E+000,3.20280E-001
1196,950,6.35826E-001,-5.71476E+000,1.27074E-002,1.29212E-002,-1.10410E-002,9.31703E-003,1.93822E-002,2.19075E-004,4.16121E-006,-8.07237E-005,2.46018E-004,-2.27816E-005,-1.84573E+001,2.71881E-004,7,6.99997E+000,3.20280E-001
1106,1250,-1.00658E+000,-7.26538E-002,-4.30113E-003,1.41659E-002,-1.24257E-002,-5.96850E-003,1.97660E-002,-4.56675E-004,3.14218E-005,-5.13680E-005,3.67693E-005,-4.62022E-004,-8.40569E+001,5.13587E-004,7,6.99997E+000,3.20280E-001
1091,1055,-1.32331E+000,-3.74063E+000,1.90890E-002,1.40142E-002,-1.19339E-002,2.62911E-003,1.85938E-002,-4.84333E-004,3.32422E-005,-4.43277E-005,3.70112E-005,-4.88102E-004,-8.51401E+001,5.43505E-004,7,6.99997E+000,3.20280E-001
1166,1640,1.96741E-001,7.27913E+000,-4.76465E-003,1.32978E-002,-1.14003E-002,-2.82813E-003,1.77425E-002,2.90732E-005,-8.93855E-007,-1.76131E-005,3.72139E-005,-9.03452E-006,-2.48060E+001,3.88207E-005,7,6.99997E+000,3.20280E-001
1226,1115,1.23200E+000,-2.61275E+000,1.72888E-003,1.27220E-002,-1.15234E-002,3.59273E-003,1.75370E-002,3.85242E-004,1.33067E-004,-6.01120E-005,3.98838E-004,1.19471E-004,-1.27447E+001,5.42825E-004,7,6.99997E+000,3.20280E-001
1151,875,-2.26366E-001,-7.12521E+000,-1.53674E-003,1.37057E-002,-1.18769E-002,-3.12843E-003,1.84036E-002,-4.73398E-006,4.75968E-005,-3.31032E-005,6.36268E-005,-2.07640E-005,-6.41618E+001,6.48934E-005,7,6.99997E+000,3.20280E-001
1076,1535,-1.52243E+000,5.29580E+000,1.93065E-003,1.32381E-002,-1.15618E-002,2.04502E-003,1.76947E-002,-1.48356E-005,2.86980E-005,-4.02676E-005,5.27054E-005,-3.88429E-005,-5.91968E+001,5.46431E-005,7,6.99997E+000,3.20280E-001
1211,965,9.22176E-001,-5.43439E+000,5.19264E-003,1.33792E-002,-1.17718E-002,1.47637E-003,1.78818E-002,3.53816E-004,1.31555E-005,-1.01874E-004,3.81957E-004,-1.49853E-005,-1.54418E+001,4.32653E-004,7,6.99997E+000,3.20280E-001
1226,1715,1.34520E+000,8.69654E+000,1.12780E-003,1.30778E-002,-1.17333E-002,-9.57855E-005,1.75702E-002,-1.53649E-004,6.45864E-005,-2.07273E-006,6.46060E-005,-1.53669E-004,-8.94559E+001,1.54316E-004,7,6.99997E+000,3.20280E-001
1091,920,-1.34997E+000,-6.27887E+000,-3.73122E-003,1.37434E-002,-1.16765E-002,-2.14954E-003,1.81615E-002,-3.32559E-004,2.21662E-005,5.19665E-005,2.96224E-005,-3.40015E-004,8.18348E+001,3.76679E-004,7,6.99997E+000,3.20280E-001
1121,1190,-7.36016E-001,-1.20163E+000,-3.61380E-003,1.31424E-002,-1.17440E-002,-2.63023E-004,1.76271E-002,-3.92053E-004,-1.03397E-005,4.51897E-005,-5.06277E-006,-3.97330E-004,8.33396E+001,4.61748E-004,7,6.99997E+000,3.20280E-001
1136,1190,-4.51818E-001,-1.20089E+000,-3.27431E-003,1.40577E-002,-1.15897E-002,-1.54739E-003,1.82848E-002,-2.97808E-004,-2.97092E-006,6.15710E-005,9.37040E-006,-3.10149E-004,7.86658E+001,3.52844E-004,7,6.99997E+000,3.20280E-001
1196,1445,7.28184E-001,3.60304E+000,1.46595E-003,1.35321E-002,-1.16356E-002,-6.48490E-004,1.78585E-002,1.16432E-004,3.56594E-005,9.78925E-006,1.17602E-004,3.44899E-005,6.81257E+000,1.59482E-004,7,6.99997E+000,3.20280E-001
1241,740,1.44488E+000,-9.66427E+000,-4.10891E-003,1.31245E-002,-1.17929E-002,2.02187E-003,1.77599E-002,-1.39238E-004,-3.56766E-005,-1.95079E-005,-3.21238E-005,-1.42791E-004,-7.96783E+001,1.86219E-004,7,6.99997E+000,3.20280E-001
1106,890,-1.07234E+000,-6.84148E+000,1.07481E-002,1.34132E-002,-1.11977E-002,7.59681E-003,1.90529E-002,-1.17751E-004,4.23021E-005,3.95037E-006,4.23996E-005,-1.17849E-004,8.85870E+001,1.19384E-004,7,6.99997E+000,3.20280E-001
1196,710,5.91563E-001,-1.02256E+001,1.89349E-003,1.36230E-002,-1.13758E-002,3.16468E-003,1.80280E-002,-2.26016E-005,-3.39981E-005,-3.58967E-005,8.04629E-006,-6.46460E-005,-4.04901E+001,7.04621E-005,7,6.99997E+000,3.20280E-001
1211,950,9.18768E-001,-5.71612E+000,7.32386E-003,1.28247E-002,-1.18360E-002,4.20704E-003,1.79517E-002,3.07997E-004,1.50791E-006,-8.79183E-005,3.31426E-004,-2.19210E-005,-1.49217E+001,3.70690E-004,7,6.99997E+000,3.20280E-001
1181,1745,4.99585E-001,9.26083E+000,3.00632E-003,1.32254E-002,-1.11550E-002,5.62336E-003,1.81925E-002,-5.82422E-005,6.59049E-005,-3.34736E-005,7.43551E-005,-6.66924E-005,-7.58320E+001,8.17935E-005,7,6.99997E+000,3.20280E-001
1166,665,1.87678E-002,-1.10690E+001,3.77922E-003,1.46085E-002,-1.15941E-002,3.72559E-003,1.90187E-002,8.79528E-005,-1.28511E-004,-8.89818E-005,1.19835E-004,-1.60393E-004,-1.97125E+001,1.66796E-004,7,6.99997E+000,3.20280E-001
1241,1430,1.57561E+000,3.32135E+000,3.55095E-003,1.30135E-002,-1.18032E-002,-1.62026E-003,1.76435E-002,9.70142E-005,5.60872E-005,5.18306E-005,1.32275E-004,2.08267E-005,3.42276E+001,1.66073E-004,7,6.99997E+000,3.20280E-001
1076,770,-1.65987E+000,-9.09658E+000,-5.86445E-003,1.36664E-002,-1.19912E-002,-2.87269E-003,1.84069E-002,-2.61491E-004,2.03522E-005,9.46697E-006,2.06698E-005,-2.61808E-004,8.80783E+001,2.91111E-004,7,6.99997E+000,3.20280E-001
1181,680,3.03109E-001,-1.07885E+001,1.33220E-003,1.35880E-002,-1.15932E-002,2.90336E-003,1.80960E-002,1.40943E-009,-1.01241E-004,-6.59322E-005,3.25041E-005,-1.33743E-004,-2.62420E+001,1.39507E-004,7,6.99997E+000,3.20280E-001
1181,1505,4.56060E-001,4.73373E+000,4.37058E-003,1.35601E-002,-1.17110E-002,1.20164E-003,1.79574E-002,7.40509E-005,2.34461E-005,3.11328E-005,8.88666E-005,8.63042E-006,2.54492E+001,1.07943E-004,7,6.99997E+000,3.20280E-001
1256,1610,1.89301E+000,6.71635E+000,7.72369E-004,1.35638E-002,-1.14151E-002,1.34379E-003,1.77789E-002,9.90520E-005,-4.12339E-006,-7.20516E-005,1.36080E-004,-4.11513E-005,-2.71990E+001,1.39577E-004,7,6.99997E+000,3.20280E-001
1226,695,1.15349E+000,-1.05088E+001,-3.10507E-004,1.26723E-002,-1.20293E-002,2.26091E-003,1.76183E-002,-3.58901E-005,-6.84492E-005,-6.97275E-005,1.94330E-005,-1.23772E-004,-3.84292E+001,1.33126E-004,7,6.99997E+000,3.20280E-001
1241,1460,1.58176E+000,3.88694E+000,1.17517E-003,1.39542E-002,-1.14492E-002,-3.56046E-004,1.80536E-002,1.05151E-004,9.26337E-005,2.33008E-005,1.23019E-004,7.47657E-005,3.74825E+001,1.99737E-004,7,6.99997E+000,3.20280E-001
1166,845,5.01373E-002,-7.68844E+000,-1.43568E-003,1.33738E-002,-1.14265E-002,2.00655E-003,1.77045E-002,2.46001E-005,6.22977E-005,-3.12544E-005,7.99470E-005,6.95081E-006,-6.05466E+001,9.65784E-005,7,6.99997E+000,3.20280E-001
1121,1760,-6.32389E-001,9.54202E+000,1.68969E-003,1.26393E-002,-1.09943E-002,4.47999E-003,1.73406E-002,-5.61376E-005,-1.83360E-005,-4.15002E-005,8.36482E-006,-8.28384E-005,-5.72432E+001,9.12085E-005,7,6.99997E+000,3.20280E-001
1106,905,-1.06929E+000,-6.55994E+000,1.22202E-002,1.35676E-002,-1.12360E-002,7.40076E-003,1.91075E-002,-1.58696E-004,2.87446E-005,2.98847E-006,2.87922E-005,-1.58743E-004,8.90868E+001,1.69146E-004,7,6.99997E+000,3.20280E-001
1166,1100,9.72483E-002,-2.89474E+000,6.46979E-003,1.31377E-002,-1.14977E-002,5.68456E-003,1.83606E-002,4.98068E-006,-2.55702E-005,-3.78961E-005,3.05642E-005,-5.11537E-005,-3.40231E+001,5.14769E-005,7,6.99997E+000,3.20280E-001
1181,1070,3.76003E-001,-3.45853E+000,5.29182E-003,1.37764E-002,-1.16935E-002,3.92466E-005,1.80701E-002,9.61863E-005,2.39277E-006,-5.99905E-005,1.25435E-004,-2.68562E-005,-2.59920E+001,1.32094E-004,7,6.99997E+000,3.20280E-001
1166,1520,1.73786E-001,5.01639E+000,8.51634E-003,1.23379E-002,-1.09691E-002,8.80756E-003,1.87114E-002,3.81878E-005,1.47213E-005,2.59578E-005,5.49410E-005,-2.03181E-006,3.28382E+001,6.23004E-005,7,6.99997E+000,3.20280E-001
1181,1640,4.80092E-001,7.27923E+000,-1.17618E-003,1.29229E-002,-1.20824E-002,-1.09921E-003,1.77255E-002,4.59448E-005,-3.48733E-006,-1.88581E-005,5.23175E-005,-9.86007E-006,-1.86717E+001,5.55997E-005,7,6.99997E+000,3.20280E-001
1196,1745,7.82676E-001,9.26171E+000,3.23979E-003,1.23960E-002,-1.14069E-002,3.29253E-003,1.71644E-002,-6.95059E-005,9.39245E-005,-3.24878E-005,1.00146E-004,-7.57272E-005,-7.91593E+001,1.04435E-004,7,6.99997E+000,3.20280E-001
1091,1535,-1.24024E+000,5.29575E+000,-1.71761E-003,1.27707E-002,-1.13891E-002,3.34049E-003,1.74345E-002,-5.16613E-005,2.96963E-005,-5.90417E-006,3.01225E-005,-5.20875E-005,-8.58708E+001,5.23000E-005,7,6.99997E+000,3.20280E-001
1211,1385,9.99812E-001,2.47266E+000,4.61116E-003,1.31985E-002,-1.10813E-002,4.70206E-003,1.78635E-002,9.36511E-005,-2.06823E-005,2.07854E-005,9.73126E-005,-2.43438E-005,9.99047E+000,1.01281E-004,7,6.99997E+000,3.20280E-001
1106,1610,-9.43687E-001,6.71135E+000,7.37872E-003,1.20127E-002,-1.09574E-002,9.12818E-003,1.86466E-002,-9.59065E-005,3.99892E-005,-2.81007E-006,4.00473E-005,-9.59646E-005,-8.88159E+001,9.64010E-005,7,6.99997E+000,3.20280E-001
1241,1715,1.62854E+000,8.69741E+000,4.44173E-003,1.28376E-002,-1.13946E-002,4.13728E-003,1.76566E-002,-1.58712E-004,1.17981E-004,-3.01640E-005,1.21231E-004,-1.61962E-004,-8.38501E+001,1.68499E-004,7,6.99997E+000,3.20280E-001
1196,1670,7.69949E-001,7.84645E+000,5.43699E-003,1.34512E-002,-1.13243E-002,3.79951E-003,1.79892E-002,1.66580E-005,1.15003E-005,-1.70330E-005,3.13063E-005,-3.14800E-006,-4.06953E+001,3.44759E-005,7,6.99997E+000,3.20280E-001
1241,695,1.43682E+000,-1.05097E+001,-2.24217E-003,1.30824E-002,-1.21289E-002,5.89446E-004,1.78496E-002,-1.07649E-004,-7.34943E-005,-9.63737E-005,7.30353E-006,-1.88447E-004,-5.00242E+001,2.13508E-004,7,6.99997E+000,3.20280E-001
1211,1265,9.76553E-001,2.11443E-001,1.27825E-003,1.25267E-002,-1.14001E-002,2.98594E-003,1.71987E-002,2.93221E-005,-3.48210E-005,1.11712E-004,1.13475E-004,-1.18974E-004,3.69909E+001,1.34317E-004,7,6.99997E+000,3.20280E-001
1226,965,1.20457E+000,-5.43482E+000,-3.97922E-003,1.34588E-002,-1.17076E-002,-8.80103E-004,1.78600E-002,4.44079E-004,1.87756E-005,-1.08905E-004,4.70344E-004,-7.48928E-006,-1.35592E+001,5.38835E-004,7,6.99997E+000,3.20280E-001
1076,815,-1.65135E+000,-8.25103E+000,6.63961E-004,1.38508E-002,-1.19604E-002,1.22843E-003,1.83413E-002,-2.57444E-004,2.96451E-005,7.25840E-006,2.98285E-005,-2.57628E-004,8.85526E+001,2.81844E-004,7,6.99997E+000,3.20280E-001
1226,950,1.20186E+000,-5.71683E+000,-3.96831E-003,1.34479E-002,-1.17851E-002,-1.74882E-003,1.79664E-002,3.96528E-004,-2.74453E-007,-9.24838E-005,4.17025E-004,-2.07711E-005,-1.24962E+001,4.70006E-004,7,6.99997E+000,3.20280E-001
1136,1430,-4.08966E-001,3.31797E+000,-1.63724E-003,1.30582E-002,-1.17704E-002,5.85460E-004,1.75899E-002,-1.83989E-005,2.50429E-006,-5.07522E-005,4.38699E-005,-5.97645E-005,-5.08182E+001,6.19085E-005,7,6.99997E+000,3.20280E-001
1196,680,5.85673E-001,-1.07901E+001,-5.40461E-003,1.37962E-002,-1.17528E-002,1.82746E-004,1.81245E-002,1.21562E-005,-1.11272E-004,-8.01656E-005,5.16110E-005,-1.50727E-004,-2.62048E+001,1.53202E-004,7,6.99997E+000,3.20280E-001
1196,1505,7.38228E-001,4.73450E+000,7.37547E-003,1.25878E-002,-1.08010E-002,6.71994E-003,1.78961E-002,9.63948E-005,2.25989E-005,3.65536E-005,1.11436E-004,7.55822E-006,2.23657E+001,1.33253E-004,7,6.99997E+000,3.20280E-001
1211,1775,1.07234E+000,9.82930E+000,3.78189E-004,1.29192E-002,-1.12226E-002,1.49012E-003,1.71777E-002,-1.74734E-004,1.81718E-004,2.58728E-005,1.83586E-004,-1.76602E-004,8.58701E+001,2.08072E-004,7,6.99997E+000,3.20280E-001
1121,1205,-7.32738E-001,-9.18980E-001,5.92875E-004,1.34171E-002,-1.14868E-002,1.59033E-003,1.77340E-002,-4.02958E-004,-8.16135E-006,6.08695E-005,1.01040E-006,-4.12130E-004,8.14312E+001,4.75305E-004,7,6.99997E+000,3.20280E-001
1091,890,-1.35538E+000,-6.84202E+000,-1.12232E-003,1.37380E-002,-1.12792E-002,4.93704E-004,1.77819E-002,-1.56595E-004,5.01768E-005,2.45748E-005,5.30574E-005,-1.59475E-004,8.33145E+001,1.62424E-004,7,6.99997E+000,3.20280E-001
1181,1340,4.26935E-001,1.62289E+000,-6.21265E-003,1.50434E-002,-1.26882E-002,-9.19819E-003,2.17233E-002,-1.81575E-004,3.07644E-005,-2.14485E-005,3.29093E-005,-1.83719E-004,-8.42894E+001,1.95924E-004,7,6.99997E+000,3.20280E-001
1091,770,-1.37833E+000,-9.09575E+000,4.60572E-004,1.28902E-002,-1.08722E-002,6.58284E-003,1.81024E-002,-1.39719E-004,1.70400E-005,1.35846E-005,1.82085E-005,-1.40888E-004,8.50836E+001,1.53256E-004,7,6.99997E+000,3.20280E-001
1181,1520,4.58612E-001,5.01611E+000,-3.47598E-003,1.35605E-002,-1.18223E-002,-4.71532E-003,1.85981E-002,5.75866E-005,1.34577E-005,3.19111E-005,7.43185E-005,-3.27417E-006,2.76693E+001,8.39891E-005,7,6.99997E+000,3.20280E-001
1196,1415,7.22070E-001,3.03746E+000,6.27537E-003,1.33689E-002,-1.10229E-002,7.19162E-003,1.87604E-002,1.19896E-004,1.58347E-005,-1.31388E-006,1.19912E-004,1.58181E-005,-7.23268E-001,1.48441E-004,7,6.99997E+000,3.20280E-001
1196,1640,7.62737E-001,7.28106E+000,9.56023E-003,1.20715E-002,-1.05826E-002,9.96964E-003,1.88973E-002,5.97377E-005,-5.91118E-006,-2.01224E-005,6.54146E-005,-1.15881E-005,-1.57548E+001,6.98124E-005,7,6.99997E+000,3.20280E-001
1136,1460,-4.02599E-001,3.88400E+000,4.65286E-003,1.34733E-002,-1.16574E-002,3.02001E-003,1.80706E-002,-2.43266E-006,1.65946E-005,-1.36357E-005,2.37075E-005,-9.54553E-006,-6.24518E+001,2.38568E-005,7,6.99997E+000,3.20280E-001
1106,1535,-9.57243E-001,5.29558E+000,-1.35613E-002,1.30997E-002,-1.15819E-002,-3.31384E-003,1.77968E-002,-5.25826E-005,2.36847E-005,5.17202E-006,2.40339E-005,-5.29318E-005,8.61381E+001,5.30062E-005,7,6.99997E+000,3.20280E-001
1121,1610,-6.58849E-001,6.71175E+000,8.31607E-003,1.31655E-002,-1.10249E-002,7.17538E-003,1.86109E-002,-4.05267E-005,2.43761E-005,2.17141E-006,2.44487E-005,-4.05993E-005,8.80859E+001,4.08810E-005,7,6.99997E+000,3.20280E-001
1061,1760,-1.76520E+000,9.53882E+000,3.02027E-003,1.33966E-002,-1.15650E-002,5.14103E-003,1.84295E-002,-2.62624E-004,-5.87463E-005,-3.62489E-005,-5.24931E-005,-2.68877E-004,-8.02124E+001,3.44798E-004,7,6.99997E+000,3.20280E-001
1136,950,-4.95666E-001,-5.71503E+000,5.56230E-003,1.34993E-002,-1.16390E-002,2.84396E-003,1.80496E-002,-1.38498E-004,2.34549E-005,-2.57068E-005,2.74374E-005,-1.42480E-004,-8.11937E+001,1.51191E-004,7,6.99997E+000,3.20280E-001
1091,1295,-1.27971E+000,7.76856E-001,2.56428E-002,1.38688E-002,-1.15231E-002,5.78453E-003,1.89364E-002,-3.26236E-004,3.31591E-005,-1.39683E-004,8.10631E-005,-3.74140E-004,-7.10707E+001,3.93654E-004,7,6.99997E+000,3.20280E-001
1106,1055,-1.04354E+000,-3.73997E+000,4.98963E-003,1.27742E-002,-1.07600E-002,5.28514E-003,1.75183E-002,-3.87665E-004,8.03388E-006,-4.50831E-005,1.31053E-005,-3.92736E-004,-8.35817E+001,4.46119E-004,7,6.99997E+000,3.20280E-001
1151,1430,-1.26164E-001,3.31905E+000,4.02781E-004,1.26946E-002,-1.13302E-002,3.75775E-003,1.74254E-002,1.23793E-005,1.04958E-005,-3.43059E-005,4.57564E-005,-2.28812E-005,-4.42138E+001,4.57564E-005,7,6.99997E+000,3.20280E-001
1136,1445,-4.06073E-001,3.60079E+000,4.52236E-003,1.29010E-002,-1.16300E-002,4.13302E-003,1.78543E-002,-2.23907E-006,3.42227E-006,-3.61779E-005,3.68801E-005,-3.56969E-005,-4.72369E+001,4.19191E-005,7,6.99997E+000,3.20280E-001
1166,695,2.28065E-002,-1.05058E+001,5.04209E-003,1.31914E-002,-1.11175E-002,5.28748E-003,1.80436E-002,-4.15760E-005,-5.12614E-005,-1.99282E-005,-2.59105E-005,-6.69269E-005,-3.81707E+001,9.58100E-005,7,6.99997E+000,3.20280E-001
1211,1580,1.03609E+000,6.14886E+000,1.89217E-003,1.29676E-002,-1.15467E-002,1.40388E-003,1.74200E-002,7.37063E-005,-2.69580E-005,6.16855E-006,7.40829E-005,-2.73346E-005,3.49357E+000,7.49260E-005,7,6.99997E+000,3.20280E-001
1121,905,-7.87486E-001,-6.56080E+000,7.50207E-003,1.27503E-002,-1.17174E-002,4.66096E-003,1.79331E-002,-1.08745E-004,2.48533E-005,-1.58612E-005,2.67105E-005,-1.10602E-004,-8.33213E+001,1.15424E-004,7,6.99997E+000,3.20280E-001
1061,1745,-1.76815E+000,9.25569E+000,-1.71911E-003,1.32681E-002,-1.15180E-002,1.46264E-003,1.76308E-002,-2.30502E-004,-4.16836E-005,-3.21295E-005,-3.63662E-005,-2.35819E-004,-8.06027E+001,2.95543E-004,7,6.99997E+000,3.20280E-001
1166,1115,9.97708E-002,-2.61246E+000,4.33013E-003,1.31857E-002,-1.13425E-002,5.99010E-003,1.83955E-002,-1.19201E-005,-1.04627E-005,-2.92174E-005,1.80351E-005,-4.04179E-005,-4.57143E+001,4.04958E-005,7,6.99997E+000,3.20280E-001
1151,1235,-1.60440E-001,-3.53438E-001,6.65210E-003,1.34614E-002,-1.14383E-002,3.25815E-003,1.79627E-002,-2.41610E-004,-9.40347E-007,5.58909E-005,1.14059E-005,-2.53957E-004,7.75435E+001,2.86885E-004,7,6.99997E+000,3.20280E-001
1211,710,8.74538E-001,-1.02267E+001,2.26744E-003,1.36345E-002,-1.17860E-002,2.95859E-003,1.82637E-002,-6.47756E-006,-4.31413E-005,-3.85769E-005,1.79017E-005,-6.75205E-005,-3.22914E+001,6.99596E-005,7,6.99997E+000,3.20280E-001
1076,1775,-1.48095E+000,9.82307E+000,5.78549E-003,1.19903E-002,-1.07342E-002,1.15284E-002,1.97963E-002,-2.51499E-004,-9.70686E-005,-1.28297E-004,-2.45426E-005,-3.24025E-004,-6.05207E+001,3.89096E-004,7,6.99997E+000,3.20280E-001
1226,1385,1.28418E+000,2.47330E+000,-4.24888E-004,1.40029E-002,-1.13789E-002,-1.41511E-003,1.80987E-002,1.25048E-004,-3.84962E-005,4.75168E-005,1.37852E-004,-5.12995E-005,1.50802E+001,1.39346E-004,7,6.99997E+000,3.20280E-001
1136,1205,-4.49362E-001,-9.18528E-001,-3.85778E-003,1.36916E-002,-1.18127E-002,-2.79040E-003,1.82972E-002,-3.06395E-004,-6.11682E-006,7.49753E-005,1.15625E-005,-3.24075E-004,7.67319E+001,3.67716E-004,7,6.99997E+000,3.20280E-001
1196,1595,7.55261E-001,6.43098E+000,2.94618E-004,1.30038E-002,-1.19482E-002,9.34512E-004,1.76842E-002,1.12051E-004,-1.27345E-005,-1.75795E-006,1.12076E-004,-1.27593E-005,-8.06956E-001,1.22713E-004,7,6.99997E+000,3.20280E-001
1196,1070,6.58980E-001,-3.45888E+000,3.28679E-003,1.36072E-002,-1.19110E-002,-2.09051E-003,1.82043E-002,1.92252E-004,2.61720E-005,-5.93120E-005,2.11259E-004,7.16522E-006,-1.77683E+001,2.48181E-004,7,6.99997E+000,3.20280E-001
1211,1670,1.05300E+000,7.84712E+000,8.22738E-003,1.25710E-002,-1.12806E-002,3.73052E-003,1.72973E-002,-6.23556E-006,7.68834E-006,-5.31211E-006,9.48352E-006,-8.03074E-006,-7.13278E+001,1.02157E-005,7,6.99997E+000,3.20280E-001
1226,1775,1.35701E+000,9.83006E+000,3.38741E-003,1.35857E-002,-1.12382E-002,1.93238E-003,1.77370E-002,-2.59178E-004,1.94288E-004,9.69837E-005,2.14159E-004,-2.79050E-004,7.84207E+001,2.92054E-004,7,6.99997E+000,3.20280E-001
1061,1700,-1.77847E+000,8.40661E+000,8.06019E-003,1.12925E-002,-1.05046E-002,1.31319E-002,2.02562E-002,-2.01053E-004,7.56041E-006,-2.92881E-006,7.60153E-006,-2.01094E-004,-8.91958E+001,2.27942E-004,7,6.99997E+000,3.20280E-001
1196,1520,7.40975E-001,5.01720E+000,6.24900E-003,1.25190E-002,-1.09067E-002,5.40174E-003,1.74603E-002,7.69706E-005,1.10735E-005,3.65359E-005,9.32204E-005,-5.17631E-006,2.39778E+001,1.04781E-004,7,6.99997E+000,3.20280E-001
1106,770,-1.09496E+000,-9.09674E+000,-1.52379E-003,1.33534E-002,-1.13192E-002,2.89738E-003,1.77436E-002,-1.50810E-004,2.33240E-005,2.43147E-006,2.33579E-005,-1.50844E-004,8.92002E+001,1.62382E-004,7,6.99997E+000,3.20280E-001
1196,1715,7.77708E-001,8.69615E+000,2.99535E-003,1.29718E-002,-1.13517E-002,2.72066E-003,1.74508E-002,-3.86332E-005,4.35779E-005,-3.72541E-005,5.79479E-005,-5.30032E-005,-6.89069E+001,6.42482E-005,7,6.99997E+000,3.20280E-001
1211,1415,1.00687E+000,3.03766E+000,6.43793E-003,1.38323E-002,-1.20199E-002,-3.69498E-004,1.83289E-002,1.63246E-004,2.31217E-005,1.02857E-005,1.63997E-004,2.23707E-005,4.17595E+000,2.03516E-004,7,6.99997E+000,3.20280E-001
1226,1265,1.26170E+000,2.11132E-001,-5.53077E-003,1.43131E-002,-1.17147E-002,-4.06746E-003,1.89379E-002,9.03571E-005,-5.21874E-005,1.22614E-004,1.60908E-004,-1.22739E-004,2.99158E+001,1.68153E-004,7,6.99997E+000,3.20280E-001
1106,950,-1.06206E+000,-5.71513E+000,-2.44530E-003,1.35481E-002,-1.19082E-002,4.70985E-004,1.80438E-002,-3.18497E-004,3.83252E-005,1.75729E-005,3.91886E-005,-3.19360E-004,8.71873E+001,3.48351E-004,7,6.99997E+000,3.20280E-001
1076,755,-1.66371E+000,-9.37838E+000,-5.74001E-003,1.27470E-002,-1.21500E-002,-7.26944E-004,1.76249E-002,-2.62888E-004,1.61718E-005,7.93507E-006,1.63972E-005,-2.63114E-004,8.83725E+001,2.94807E-004,7,6.99997E+000,3.20280E-001
1106,1070,-1.03991E+000,-3.45939E+000,-6.56061E-003,1.39675E-002,-1.19523E-002,-3.86773E-003,1.87858E-002,-3.84539E-004,-1.23541E-005,-4.13721E-005,-7.81066E-006,-3.89082E-004,-8.37329E+001,4.53850E-004,7,6.99997E+000,3.20280E-001
1121,965,-7.76686E-001,-5.43297E+000,4.73522E-003,1.31337E-002,-1.12214E-002,5.96809E-003,1.82766E-002,-1.92590E-004,2.55728E-005,-1.46829E-005,2.65565E-005,-1.93574E-004,-8.61669E+001,2.09874E-004,7,6.99997E+000,3.20280E-001
1121,1565,-6.68337E-001,5.86342E+000,3.65819E-003,1.21768E-002,-1.09929E-002,4.94258E-003,1.71332E-002,-1.04923E-005,2.99275E-005,9.57084E-006,3.20792E-005,-1.26440E-005,7.73295E+001,3.23179E-005,7,6.99997E+000,3.20280E-001
1241,1640,1.61425E+000,7.28172E+000,2.37224E-003,1.27479E-002,-1.15438E-002,2.55824E-003,1.73872E-002,-3.93845E-005,-1.33558E-005,-2.34656E-005,4.62821E-007,-5.32032E-005,-5.95067E+001,6.11683E-005,7,6.99997E+000,3.20280E-001
1121,1535,-6.73746E-001,5.29704E+000,-2.29819E-003,1.28196E-002,-1.15295E-002,3.92176E-003,1.76819E-002,-4.07063E-005,1.96958E-005,9.04173E-006,2.10202E-005,-4.20307E-005,8.16666E+001,4.20307E-005,7,6.99997E+000,3.20280E-001
1226,1580,1.31881E+000,6.15036E+000,9.61053E-003,1.20582E-002,-1.06598E-002,8.56857E-003,1.82333E-002,1.07035E-004,-3.18657E-005,-5.67791E-006,1.07266E-004,-3.20974E-005,-2.33692E+000,1.10111E-004,7,6.99997E+000,3.20280E-001
1136,1610,-3.75632E-001,6.71255E+000,7.40748E-003,1.29985E-002,-1.11528E-002,6.36004E-003,1.82701E-002,-1.11068E-005,1.34438E-005,7.21956E-006,1.54095E-005,-1.30725E-005,7.47694E+001,1.66093E-005,7,6.99997E+000,3.20280E-001
1091,1370,-1.26829E+000,2.18864E+000,1.38840E-002,1.35410E-002,-1.06348E-002,9.77553E-003,1.97995E-002,-2.43190E-004,2.80041E-005,-1.13184E-004,6.90344E-005,-2.84220E-004,-7.00739E+001,2.96481E-004,7,6.99997E+000,3.20280E-001
1151,1460,-1.20153E-001,3.88550E+000,6.52532E-003,1.27442E-002,-1.07694E-002,6.13782E-003,1.77783E-002,2.95195E-005,2.45731E-005,-8.48249E-006,3.58820E-005,1.82106E-005,-3.68725E+001,5.50464E-005,7,6.99997E+000,3.20280E-001
1226,710,1.15545E+000,-1.02270E+001,-5.69725E-004,1.20628E-002,-1.14148E-002,3.88991E-003,1.70570E-002,-3.89739E-005,-5.93606E-005,-5.02699E-005,2.12566E-006,-1.00460E-004,-3.92687E+001,1.14794E-004,7,6.99997E+000,3.20280E-001
1091,1775,-1.19604E+000,9.82233E+000,-7.73622E-003,1.35073E-002,-1.19165E-002,-1.94958E-003,1.81177E-002,-1.97936E-004,-1.09170E-004,-9.88901E-005,-4.51596E-005,-2.61946E-004,-5.70855E+001,3.31631E-004,7,6.99997E+000,3.20280E-001
1136,905,-5.04224E-001,-6.56172E+000,-1.29665E-003,1.33529E-002,-1.21061E-002,-2.25500E-003,1.81643E-002,-5.88694E-005,2.14093E-005,-3.05100E-005,3.16885E-005,-6.91486E-005,-7.13807E+001,6.92288E-005,7,6.99997E+000,3.20280E-001
1106,1280,-1.00288E+000,4.93150E-001,2.44986E-003,1.28985E-002,-1.12393E-002,4.93319E-003,1.78053E-002,-3.63929E-004,2.78074E-005,-1.01083E-004,5.23527E-005,-3.88474E-004,-7.63514E+001,4.21608E-004,7,6.99997E+000,3.20280E-001
1226,1670,1.33690E+000,7.84763E+000,6.58635E-003,1.30415E-002,-1.12026E-002,3.72797E-003,1.75919E-002,-5.92924E-005,6.02020E-006,7.22363E-006,6.80960E-006,-6.00818E-005,8.37635E+001,6.57983E-005,7,6.99997E+000,3.20280E-001
1226,1100,1.22988E+000,-2.89490E+000,-3.17182E-003,1.32421E-002,-1.19455E-002,-2.60272E-003,1.80228E-002,3.46862E-004,1.30188E-004,-5.85049E-005,3.61650E-004,1.15400E-004,-1.41851E+001,4.97785E-004,7,6.99997E+000,3.20280E-001
1136,1565,-3.84233E-001,5.86376E+000,4.35946E-003,1.27097E-002,-1.11605E-002,3.77595E-003,1.73307E-002,5.19549E-006,1.96686E-005,7.48263E-006,2.28416E-005,2.02256E-006,6.70212E+001,2.76171E-005,7,6.99997E+000,3.20280E-001
1076,1700,-1.49315E+000,8.40678E+000,-7.78396E-004,1.29294E-002,-1.19763E-002,1.24778E-003,1.76680E-002,-1.08059E-004,-1.19457E-005,-4.45229E-005,5.50889E-006,-1.25514E-004,-6.85930E+001,1.41858E-004,7,6.99997E+000,3.20280E-001
1256,1640,1.89864E+000,7.28273E+000,7.51427E-003,1.31059E-002,-1.13325E-002,4.71755E-003,1.79567E-002,2.22888E-006,3.76653E-006,-5.91875E-005,6.21902E-005,-5.61948E-005,-4.53721E+001,6.86121E-005,7,6.99997E+000,3.20280E-001
1076,1790,-1.47779E+000,1.01068E+001,2.38113E-003,1.22209E-002,-1.07428E-002,6.30321E-003,1.74496E-002,-2.85962E-004,-2.57769E-004,-1.08333E-004,-1.62619E-004,-3.81112E-004,-4.87069E+001,5.58172E-004,7,6.99997E+000,3.20280E-001
1136,965,-4.92971E-001,-5.43328E+000,4.59429E-004,1.37758E-002,-1.17627E-002,4.55249E-004,1.81202E-002,-1.01162E-004,1.79939E-005,-3.45566E-005,2.72904E-005,-1.10459E-004,-7.49426E+001,1.15073E-004,7,6.99997E+000,3.20280E-001
1091,755,-1.38062E+000,-9.37780E+000,-2.93028E-003,1.32808E-002,-1.11811E-002,3.05403E-003,1.76274E-002,-1.37184E-004,1.06097E-005,1.07541E-005,1.13881E-005,-1.37963E-004,8.58600E+001,1.53154E-004,7,6.99997E+000,3.20280E-001
1046,1775,-2.04677E+000,9.82068E+000,-2.03458E-003,1.28433E-002,-1.14781E-002,3.35194E-003,1.75481E-002,-3.35310E-004,-1.23943E-004,4.36646E-006,-1.23853E-004,-3.35400E-004,8.88170E+001,4.75217E-004,7,6.99997E+000,3.20280E-001
1226,890,1.19110E+000,-6.84443E+000,1.86806E-003,1.34279E-002,-1.14587E-002,2.76869E-004,1.76546E-002,1.54737E-004,-1.67507E-007,-3.31696E-005,1.61541E-004,-6.97126E-006,-1.15917E+001,1.82640E-004,7,6.99997E+000,3.20280E-001
1091,1610,-1.22614E+000,6.71072E+000,3.11567E-003,1.29144E-002,-1.11908E-002,5.13372E-003,1.78430E-002,-1.35928E-004,4.89279E-005,-1.86499E-006,4.89467E-005,-1.35947E-004,-8.94220E+001,1.37711E-004,7,6.99997E+000,3.20280E-001
1121,950,-7.78896E-001,-5.71439E+000,1.20610E-002,1.32191E-002,-1.09162E-002,9.60800E-003,1.96525E-002,-2.28312E-004,3.04476E-005,-5.39758E-006,3.05601E-005,-2.28425E-004,-8.88055E+001,2.48008E-004,7,6.99997E+000,3.20280E-001
1226,1415,1.28894E+000,3.03816E+000,3.71508E-003,1.26963E-002,-1.18516E-002,-1.01938E-003,1.73982E-002,2.06383E-004,3.15389E-005,2.11961E-005,2.08916E-004,2.90060E-005,6.81440E+000,2.59607E-004,7,6.99997E+000,3.20280E-001
1121,1040,-7.62426E-001,-4.02336E+000,-3.54739E-003,1.38679E-002,-1.20143E-002,-1.41596E-003,1.84029E-002,-2.76045E-004,-1.27484E-005,-4.75253E-005,-4.43267E-006,-2.84361E-004,-8.00752E+001,3.30940E-004,7,6.99997E+000,3.20280E-001
1151,1055,-1.96055E-001,-3.74073E+000,6.78251E-003,1.15046E-002,-1.12451E-002,8.91991E-003,1.83949E-002,-9.59029E-005,-2.14079E-005,-4.91673E-005,3.02766E-006,-1.20338E-004,-6.35732E+001,1.37240E-004,7,6.99997E+000,3.20280E-001
1196,860,6.18394E-001,-7.40721E+000,-6.66897E-005,1.29125E-002,-1.12144E-002,2.95575E-003,1.73561E-002,8.90748E-005,3.25153E-005,-4.57470E-005,1.14577E-004,7.01274E-006,-2.91383E+001,1.36532E-004,7,6.99997E+000,3.20280E-001
1256,1715,1.91298E+000,8.69710E+000,-5.10097E-003,1.36616E-002,-1.22792E-002,-4.58048E-003,1.89315E-002,-2.15395E-004,1.37527E-004,-2.89008E-005,1.39878E-004,-2.17746E-004,-8.53493E+001,2.20670E-004,7,6.99997E+000,3.20280E-001
1136,1760,-3.48274E-001,9.54208E+000,1.18539E-003,1.31337E-002,-1.17385E-002,2.88559E-003,1.78497E-002,-5.27603E-005,1.29749E-005,-2.15968E-005,1.94354E-005,-5.92208E-005,-7.33458E+001,6.03750E-005,7,6.99997E+000,3.20280E-001
1151,1520,-1.08930E-001,5.01494E+000,-8.64717E-004,1.31556E-002,-1.17942E-002,6.49057E-004,1.76803E-002,1.87792E-005,1.48543E-005,1.86815E-005,3.56010E-005,-1.96750E-006,4.20016E+001,4.00209E-005,7,6.99997E+000,3.20280E-001
1196,770,6.03687E-001,-9.09841E+000,-2.72445E-004,1.43745E-002,-1.16857E-002,-1.30413E-003,1.85710E-002,2.40274E-005,1.98217E-005,-2.53977E-005,4.74092E-005,-3.56013E-006,-4.26334E+001,5.28081E-005,7,6.99997E+000,3.20280E-001
1106,755,-1.09698E+000,-9.37834E+000,-3.53887E-003,1.40329E-002,-1.13804E-002,8.50094E-004,1.80875E-002,-1.55007E-004,1.70220E-005,-3.26298E-007,1.70226E-005,-1.55007E-004,-8.98913E+001,1.70013E-004,7,6.99997E+000,3.20280E-001
1151,1565,-1.01280E-001,5.86451E+000,6.08894E-003,1.23045E-002,-1.08783E-002,5.76645E-003,1.74066E-002,2.08565E-005,1.03024E-005,5.39303E-006,2.31248E-005,8.03415E-006,2.28114E+001,3.23541E-005,7,6.99997E+000,3.20280E-001
1151,1775,-6.24806E-002,9.82543E+000,-3.27607E-003,1.30524E-002,-1.13175E-002,1.88203E-003,1.73779E-002,-8.02733E-005,1.71917E-005,-1.48903E-005,1.94158E-005,-8.24974E-005,-8.15047E+001,8.62634E-005,7,6.99997E+000,3.20280E-001
1121,1280,-7.18536E-001,4.93613E-001,2.19493E-003,1.37691E-002,-1.13937E-002,1.64696E-003,1.79476E-002,-3.14749E-004,2.86738E-005,-5.62925E-005,3.76656E-005,-3.23741E-004,-8.09246E+001,3.54087E-004,7,6.99997E+000,3.20280E-001
1166,1235,1.22173E-001,-3.53400E-001,5.04824E-003,1.31640E-002,-1.14337E-002,4.02277E-003,1.78942E-002,-1.68689E-004,-5.99491E-006,7.62011E-005,2.41208E-005,-1.98804E-004,6.84354E+001,2.16978E-004,7,6.99997E+000,3.20280E-001
1076,1745,-1.48609E+000,9.25643E+000,4.19435E-003,1.23138E-002,-1.07326E-002,1.01714E-002,1.92426E-002,-1.85742E-004,-4.69084E-005,-7.80279E-005,-1.18885E-005,-2.20762E-004,-6.58288E+001,2.62048E-004,7,6.99997E+000,3.20280E-001
1211,1640,1.04748E+000,7.28066E+000,-3.39094E-003,1.33340E-002,-1.17578E-002,-2.16240E-003,1.79086E-002,5.35239E-005,-1.03624E-005,-1.41624E-005,5.65226E-005,-1.33611E-005,-1.19554E+001,5.90832E-005,7,6.99997E+000,3.20280E-001
1091,1790,-1.19413E+000,1.01062E+001,4.11375E-004,1.25382E-002,-1.13281E-002,4.88162E-003,1.75887E-002,-2.36857E-004,-2.58120E-004,-6.66064E-005,-1.80039E-004,-3.14938E-004,-4.04656E+001,5.01066E-004,7,6.99997E+000,3.20280E-001
1151,1415,-1.28020E-001,3.03728E+000,5.56140E-003,1.30022E-002,-1.11934E-002,3.89294E-003,1.75928E-002,-9.54272E-006,1.14201E-006,-3.98402E-005,3.59964E-005,-4.43971E-005,-4.88188E+001,4.71693E-005,7,6.99997E+000,3.20280E-001
1166,1460,1.63524E-001,3.88476E+000,2.10950E-003,1.31453E-002,-1.16977E-002,2.30087E-003,1.77462E-002,6.14393E-005,3.32580E-005,-3.39100E-006,6.18416E-005,3.28557E-005,-6.76562E+000,9.61646E-005,7,6.99997E+000,3.20280E-001
1241,1580,1.60407E+000,6.14989E+000,-9.35209E-004,1.35099E-002,-1.17327E-002,-3.74517E-003,1.82811E-002,6.53546E-007,-3.84082E-005,3.17008E-005,1.83570E-005,-5.61117E-005,2.91814E+001,5.72184E-005,7,6.99997E+000,3.20280E-001
1166,1310,1.36460E-001,1.05878E+000,5.64416E-003,1.33082E-002,-1.17944E-002,1.94129E-003,1.78882E-002,-2.01733E-004,3.25144E-005,-1.02049E-005,3.29582E-005,-2.02176E-004,-8.75102E+001,2.16943E-004,7,6.99997E+000,3.20280E-001
1061,1610,-1.78825E+000,6.71262E+000,3.21937E-002,1.36940E-002,-1.14009E-002,2.35568E-003,1.79737E-002,-1.97824E-004,3.96960E-005,-3.21674E-005,4.39753E-005,-2.02103E-004,-8.24222E+001,2.12577E-004,7,6.99997E+000,3.20280E-001
1151,1505,-1.11556E-001,4.73229E+000,-3.91673E-003,1.29979E-002,-1.19540E-002,-4.88077E-003,1.83211E-002,2.92813E-005,2.16252E-005,1.77882E-005,4.36487E-005,7.25779E-006,3.89275E+001,5.50718E-005,7,6.99997E+000,3.20280E-001
1196,1565,7.50071E-001,5.86589E+000,6.93885E-003,1.28162E-002,-1.15296E-002,2.62447E-003,1.74377E-002,6.77892E-005,-1.24439E-005,-8.37438E-007,6.77979E-005,-1.24527E-005,-5.97941E-001,7.21790E-005,7,6.99997E+000,3.20280E-001
1166,1175,1.11275E-001,-1.48342E+000,-5.97364E-004,1.34955E-002,-1.16728E-002,-1.63612E-004,1.78441E-002,-7.88450E-005,6.16427E-006,7.36873E-005,4.87270E-005,-1.21408E-004,5.99887E+001,1.22193E-004,7,6.99997E+000,3.20280E-001
1211,770,8.85070E-001,-9.09894E+000,9.06075E-003,1.28090E-002,-1.15022E-002,7.94358E-003,1.89597E-002,5.30329E-005,1.25900E-005,-2.41920E-005,6.43418E-005,1.28118E-006,-2.50543E+001,7.50461E-005,7,6.99997E+000,3.20280E-001
1136,1535,-3.89319E-001,5.29798E+000,2.22190E-003,1.30592E-002,-1.18434E-002,1.14432E-003,1.76669E-002,-2.09400E-005,1.61235E-005,1.38532E-005,2.07291E-005,-2.55456E-005,7.16102E+001,2.71474E-005,7,6.99997E+000,3.20280E-001
1061,1775,-1.76308E+000,9.82174E+000,6.16442E-004,1.30831E-002,-1.12642E-002,4.99812E-003,1.79730E-002,-3.37247E-004,-1.34617E-004,-5.08498E-005,-1.22572E-004,-3.49292E-004,-7.66740E+001,4.89683E-004,7,6.99997E+000,3.20280E-001
1166,710,2.57929E-002,-1.02253E+001,-5.95687E-003,1.35413E-002,-1.23067E-002,-4.72658E-003,1.88987E-002,-5.48866E-005,-2.59844E-005,-2.60662E-005,-1.06314E-005,-7.02396E-005,-5.95020E+001,8.78891E-005,7,6.99997E+000,3.20280E-001
1151,905,-2.21395E-001,-6.56124E+000,5.03169E-003,1.32704E-002,-1.14301E-002,4.09394E-003,1.79864E-002,-9.04617E-006,1.84123E-005,-4.09656E-005,4.78881E-005,-3.85219E-005,-5.42641E+001,5.07604E-005,7,6.99997E+000,3.20280E-001
1271,1715,2.19539E+000,8.69834E+000,-1.08201E-003,1.23951E-002,-1.16814E-002,1.04039E-004,1.70325E-002,-4.50609E-004,1.03602E-004,-3.11377E-006,1.03619E-004,-4.50626E-004,-8.96781E+001,4.72027E-004,7,6.99997E+000,3.20280E-001
1211,1595,1.03928E+000,6.43200E+000,2.31710E-003,1.34183E-002,-1.14564E-002,2.41888E-003,1.78087E-002,1.10941E-004,-2.96163E-005,1.79110E-006,1.10963E-004,-2.96391E-005,7.29955E-001,1.14906E-004,7,6.99997E+000,3.20280E-001
1151,1760,-6.46354E-002,9.54270E+000,2.54380E-003,1.32118E-002,-1.13475E-002,3.86680E-003,1.78401E-002,-6.30684E-005,3.83692E-005,-1.85296E-005,4.16481E-005,-6.63472E-005,-7.99653E+001,6.70650E-005,7,6.99997E+000,3.20280E-001
1181,1670,4.85807E-001,7.84492E+000,-3.70675E-003,1.33437E-002,-1.17787E-002,-1.36242E-003,1.78507E-002,1.80699E-005,1.17558E-005,-1.97260E-005,3.48899E-005,-5.06414E-006,-4.04536E+001,3.77052E-005,7,6.99997E+000,3.20280E-001
1091,1700,-1.21115E+000,8.40886E+000,1.77862E-003,1.20996E-002,-1.02969E-002,8.36492E-003,1.79555E-002,-8.06271E-005,-1.64458E-005,-4.97245E-005,1.06441E-005,-1.07717E-004,-6.14185E+001,1.18714E-004,7,6.99997E+000,3.20280E-001
1136,1280,-4.35427E-001,4.92933E-001,-5.05267E-003,1.37642E-002,-1.20390E-002,-5.29507E-003,1.90375E-002,-2.65987E-004,2.63670E-005,-1.74653E-005,2.74067E-005,-2.67027E-004,-8.65933E+001,2.93794E-004,7,6.99997E+000,3.20280E-001
1031,1790,-2.32524E+000,1.01053E+001,9.44489E-003,1.34069E-002,-1.15101E-002,9.56493E-004,1.76958E-002,-4.90390E-004,-6.94664E-005,-6.80207E-005,-5.87473E-005,-5.01109E-004,-8.10446E+001,6.15359E-004,7,6.99997E+000,3.20280E-001
1226,1595,1.32176E+000,6.43248E+000,-5.73742E-004,1.25313E-002,-1.13528E-002,1.22359E-003,1.69534E-002,1.36469E-004,-3.84181E-005,-1.10461E-005,1.37164E-004,-3.91130E-005,-3.59980E+000,1.41322E-004,7,6.99997E+000,3.20280E-001
1166,1415,1.55381E-001,3.03700E+000,2.31181E-003,1.31323E-002,-1.15522E-002,9.88149E-004,1.75182E-002,3.36141E-005,4.87416E-006,-2.63546E-005,4.92618E-005,-1.07735E-005,-3.06992E+001,5.17954E-005,7,6.99997E+000,3.20280E-001
1091,1745,-1.20134E+000,9.25649E+000,-8.48280E-004,1.34336E-002,-1.16165E-002,3.08521E-003,1.80257E-002,-1.27561E-004,-6.15074E-005,-7.30422E-005,-1.43723E-005,-1.74696E-004,-5.71653E+001,2.10511E-004,7,6.99997E+000,3.20280E-001
1196,1040,6.52622E-001,-4.02314E+000,7.17915E-003,1.28637E-002,-1.19145E-002,2.27054E-003,1.76800E-002,2.59124E-004,1.01998E-005,-6.31073E-005,2.74209E-004,-4.88501E-006,-1.34434E+001,3.13847E-004,7,6.99997E+000,3.20280E-001
1151,1700,-7.66284E-002,8.41028E+000,-1.62300E-003,1.26357E-002,-1.12616E-002,2.75553E-003,1.71487E-002,-1.16392E-005,6.21086E-006,-3.15411E-005,3.00653E-005,-3.54937E-005,-5.28998E+001,3.82378E-005,7,6.99997E+000,3.20280E-001
1121,1460,-6.86833E-001,3.88337E+000,2.05635E-004,1.28095E-002,-1.17591E-002,1.06081E-003,1.74208E-002,-3.44616E-005,9.31347E-006,-1.88528E-005,1.63135E-005,-4.14617E-005,-6.96300E+001,4.17742E-005,7,6.99997E+000,3.20280E-001
1106,1505,-9.61425E-001,4.73088E+000,4.45636E-004,1.32346E-002,-1.15928E-002,8.34576E-004,1.76137E-002,-3.79368E-005,9.99789E-006,-8.47698E-006,1.14528E-005,-3.93917E-005,-8.02609E+001,4.05253E-005,7,6.99997E+000,3.20280E-001
1166,1760,2.19514E-001,9.54273E+000,3.87433E-004,1.36396E-002,-1.20429E-002,3.10190E-004,1.81980E-002,-7.34322E-005,6.80267E-005,-1.69635E-005,7.00325E-005,-7.54379E-005,-8.32566E+001,8.41612E-005,7,6.99997E+000,3.20280E-001
1166,1055,9.01588E-002,-3.74126E+000,-1.26178E-003,1.43217E-002,-1.20674E-002,-2.01123E-003,1.88356E-002,1.44656E-006,-1.54224E-005,-5.10193E-005,4.47239E-005,-5.86997E-005,-4.03064E+001,6.13254E-005,7,6.99997E+000,3.20280E-001
1181,1235,4.06143E-001,-3.53365E-001,-2.19218E-003,1.40436E-002,-1.14438E-002,-2.12786E-003,1.82404E-002,-9.59022E-005,-9.97322E-006,9.39597E-005,5.03792E-005,-1.56255E-004,5.72865E+001,1.59506E-004,7,6.99997E+000,3.20280E-001
1166,1670,2.02012E-001,7.84418E+000,-2.45513E-003,1.29995E-002,-1.18993E-002,-7.70477E-004,1.76401E-002,1.61844E-005,1.12557E-005,-2.14967E-005,3.53575E-005,-7.91739E-006,-4.17302E+001,3.71106E-005,7,6.99997E+000,3.20280E-001
1076,1610,-1.50924E+000,6.71011E+000,2.30065E-003,1.29673E-002,-1.15423E-002,3.23983E-003,1.76599E-002,-6.82276E-005,5.47094E-005,-3.71524E-005,6.50648E-005,-7.85830E-005,-7.44253E+001,8.40296E-005,7,6.99997E+000,3.20280E-001
1211,860,9.03021E-001,-7.40791E+000,2.38731E-003,1.41526E-002,-1.13818E-002,2.16112E-003,1.82897E-002,1.21834E-004,1.32540E-005,-5.39121E-005,1.44055E-004,-8.96688E-006,-2.23999E+001,1.61413E-004,7,6.99997E+000,3.20280E-001
1151,1280,-1.53352E-001,4.93528E-001,1.00204E-003,1.29911E-002,-1.12676E-002,3.61783E-003,1.75732E-002,-2.17513E-004,2.09140E-005,1.54524E-005,2.19113E-005,-2.18510E-004,8.63073E+001,2.40663E-004,7,6.99997E+000,3.20280E-001
1196,1730,7.80730E-001,8.97902E+000,1.26835E-004,1.32405E-002,-1.16041E-002,2.26217E-004,1.76073E-002,-5.37086E-005,6.33397E-005,-3.91682E-005,7.52373E-005,-6.56062E-005,-7.31035E+001,8.18844E-005,7,6.99997E+000,3.20280E-001
1106,1175,-1.02257E+000,-1.48362E+000,3.20420E-003,1.24908E-002,-1.15237E-002,7.69718E-003,1.86564E-002,-5.21672E-004,-2.33317E-005,1.75821E-005,-2.27121E-005,-5.22292E-004,8.79819E+001,6.16622E-004,7,6.99997E+000,3.20280E-001
1046,1790,-2.04363E+000,1.01034E+001,-8.23679E-003,1.35596E-002,-1.17130E-002,-5.19968E-004,1.79256E-002,-4.30475E-004,-3.12992E-004,6.05937E-005,-2.87341E-004,-4.56126E-004,6.70553E+001,7.49826E-004,7,6.99997E+000,3.20280E-001
1241,710,1.43946E+000,-1.02275E+001,1.23815E-005,1.30366E-002,-1.17083E-002,3.84011E-003,1.79384E-002,-1.55165E-004,-8.11162E-005,-5.66628E-005,-5.04541E-005,-1.85828E-004,-6.15807E+001,2.48873E-004,7,6.99997E+000,3.20280E-001
1181,1415,4.37544E-001,3.03656E+000,-1.99667E-003,1.23928E-002,-1.15448E-002,3.77637E-004,1.69413E-002,7.66888E-005,9.75827E-006,-1.35296E-005,7.93202E-005,7.12680E-006,-1.10065E+001,9.59708E-005,7,6.99997E+000,3.20280E-001
1151,785,-2.43644E-001,-8.81632E+000,1.33954E-003,1.31170E-002,-1.18324E-002,1.74977E-003,1.77517E-002,-6.64159E-005,3.11054E-005,-1.76960E-005,3.42172E-005,-6.95277E-005,-8.00267E+001,6.95306E-005,7,6.99997E+000,3.20280E-001
1046,1745,-2.05024E+000,9.25633E+000,1.00371E-002,1.36258E-002,-1.11362E-002,5.58765E-003,1.84635E-002,-2.14233E-004,1.12588E-005,1.24154E-005,1.19403E-005,-2.14914E-004,8.68580E+001,2.41563E-004,7,6.99997E+000,3.20280E-001
1136,1595,-3.78479E-001,6.42956E+000,4.49358E-003,1.31031E-002,-1.10717E-002,5.14983E-003,1.79107E-002,1.28842E-005,2.75855E-005,4.54972E-006,2.88797E-005,1.15901E-005,7.41222E+001,4.16827E-005,7,6.99997E+000,3.20280E-001
1181,1760,5.02565E-001,9.54386E+000,1.97837E-003,1.30448E-002,-1.18073E-002,1.47000E-003,1.76562E-002,-8.38336E-005,1.01915E-004,-1.69060E-005,1.03441E-004,-8.53597E-005,-8.48417E+001,1.10494E-004,7,6.99997E+000,3.20280E-001
1046,1700,-2.05598E+000,8.40727E+000,2.21429E-002,1.38413E-002,-1.22941E-002,-9.96506E-004,1.85397E-002,-2.06011E-004,5.28618E-005,4.68290E-005,6.10726E-005,-2.14222E-004,8.00552E+001,2.20720E-004,7,6.99997E+000,3.20280E-001
1091,1670,-1.21491E+000,7.84187E+000,-3.60520E-004,1.33807E-002,-1.11041E-002,2.65861E-003,1.75901E-002,-5.71679E-005,1.07907E-005,-4.47013E-005,3.29613E-005,-7.93384E-005,-6.36200E+001,7.97156E-005,7,6.99997E+000,3.20280E-001
1211,1730,1.06460E+000,8.97953E+000,2.58199E-003,1.32848E-002,-1.15384E-002,1.02822E-003,1.76261E-002,-9.14951E-005,8.38377E-005,-2.58254E-005,8.75625E-005,-9.52199E-005,-8.17929E+001,1.05807E-004,7,6.99997E+000,3.20280E-001
1256,695,1.72027E+000,-1.05091E+001,4.42651E-003,1.32520E-002,-1.11634E-002,4.77345E-003,1.79728E-002,-5.84324E-005,-2.40884E-005,-1.89360E-004,1.48877E-004,-2.31397E-004,-4.75908E+001,2.34547E-004,7,6.99997E+000,3.20280E-001
1166,1625,1.93671E-001,6.99713E+000,6.68954E-003,1.28268E-002,-1.07526E-002,7.16679E-003,1.82074E-002,2.83824E-005,-9.99687E-006,2.57189E-006,2.85540E-005,-1.01684E-005,3.81679E+000,2.89454E-005,7,6.99997E+000,3.20280E-001
1181,1055,3.72094E-001,-3.74017E+000,9.23931E-003,1.26525E-002,-1.10423E-002,4.09327E-003,1.72851E-002,9.88410E-005,-1.49162E-006,-5.30762E-005,1.21707E-004,-2.43578E-005,-2.33072E+001,1.28797E-004,7,6.99997E+000,3.20280E-001
1061,1790,-1.75991E+000,1.01045E+001,-5.03485E-003,1.36942E-002,-1.17593E-002,6.72824E-004,1.80628E-002,-4.35970E-004,-3.29552E-004,5.02124E-006,-3.29316E-004,-4.36207E-004,8.73045E+001,7.68006E-004,7,6.99997E+000,3.20280E-001
1091,1280,-1.28109E+000,4.95584E-001,4.27738E-002,1.37765E-002,-1.09406E-002,1.05382E-002,2.05071E-002,-4.12023E-004,2.39051E-005,-1.51135E-004,7.11771E-005,-4.59295E-004,-7.26314E+001,4.94405E-004,7,6.99997E+000,3.20280E-001
1256,710,1.72378E+000,-1.02281E+001,-4.59124E-003,1.42890E-002,-1.18855E-002,-1.35825E-003,1.86356E-002,-1.33233E-004,-3.30151E-005,-1.49852E-004,7.48839E-005,-2.41132E-004,-5.42447E+001,2.46834E-004,7,6.99997E+000,3.20280E-001
1166,1745,2.15741E-001,9.25978E+000,-6.52557E-004,1.30958E-002,-1.13471E-002,3.09458E-003,1.76020E-002,-5.09145E-005,3.78663E-005,-3.15911E-005,4.79599E-005,-6.10081E-005,-7.22809E+001,6.42516E-005,7,6.99997E+000,3.20280E-001
1226,860,1.18539E+000,-7.40861E+000,6.59457E-003,1.33569E-002,-1.16012E-002,5.34215E-003,1.84806E-002,1.11461E-004,-6.83741E-006,-6.90707E-005,1.43248E-004,-3.86244E-005,-2.47123E+001,1.48229E-004,7,6.99997E+000,3.20280E-001
1181,1625,4.77646E-001,6.99667E+000,1.65182E-004,1.32434E-002,-1.14214E-002,4.82402E-005,1.74882E-002,4.94241E-005,-1.55740E-005,1.47975E-006,4.94577E-005,-1.56077E-005,1.30350E+000,5.05667E-005,7,6.99997E+000,3.20280E-001
1166,785,3.95252E-002,-8.81685E+000,3.75034E-003,1.33220E-002,-1.16431E-002,3.18835E-003,1.79779E-002,-3.61569E-005,2.87963E-005,-2.20906E-005,3.55972E-005,-4.29578E-005,-7.28882E+001,4.59472E-005,7,6.99997E+000,3.20280E-001
1226,1640,1.33116E+000,7.28081E+000,-4.09982E-003,1.35080E-002,-1.20722E-002,-2.11194E-003,1.82391E-002,2.77192E-005,-8.11088E-006,-1.31555E-005,3.20306E-005,-1.24223E-005,-1.81454E+001,3.22982E-005,7,6.99997E+000,3.20280E-001
1166,680,2.08093E-002,-1.07874E+001,4.45013E-003,1.38759E-002,-1.12599E-002,4.14748E-003,1.83447E-002,-1.21019E-005,-9.47418E-005,-5.06333E-005,1.19316E-005,-1.18775E-004,-2.53917E+001,1.30806E-004,7,6.99997E+000,3.20280E-001
1226,770,1.16692E+000,-9.09922E+000,5.66072E-003,1.20372E-002,-1.13136E-002,7.55944E-003,1.81670E-002,4.85522E-005,1.93765E-006,-3.56278E-005,6.78192E-005,-1.73293E-005,-2.84039E+001,7.04697E-005,7,6.99997E+000,3.20280E-001
1166,1775,2.21846E-001,9.82521E+000,-7.54838E-003,1.34789E-002,-1.27362E-002,-5.18188E-003,1.92547E-002,-9.04719E-005,5.54835E-005,-9.34561E-006,5.60795E-005,-9.10678E-005,-8.63512E+001,9.18783E-005,7,6.99997E+000,3.20280E-001
1181,1175,3.94671E-001,-1.48409E+000,-9.78359E-004,1.35698E-002,-1.23578E-002,-1.80787E-003,1.84425E-002,3.15555E-005,1.69237E-005,7.71307E-005,1.01716E-004,-5.32373E-005,4.22908E+001,1.01754E-004,7,6.99997E+000,3.20280E-001
1166,1565,1.83106E-001,5.86423E+000,1.78765E-003,1.33681E-002,-1.17754E-002,2.33940E-003,1.79678E-002,3.65000E-005,1.82822E-006,3.30650E-006,3.68125E-005,1.51571E-006,5.39921E+000,4.34089E-005,7,6.99997E+000,3.20280E-001
1106,665,-1.11302E+000,-1.10677E+001,2.42223E-004,1.37043E-002,-1.16203E-002,1.40453E-004,1.79682E-002,9.84650E-006,-1.81107E-004,9.04619E-005,4.58960E-005,-2.17157E-004,2.17275E+001,2.28901E-004,7,6.99997E+000,3.20280E-001
1106,1190,-1.02049E+000,-1.20157E+000,2.23983E-003,1.16576E-002,-1.16420E-002,5.05392E-003,1.72330E-002,-4.86328E-004,-1.87553E-005,2.40381E-005,-1.75228E-005,-4.87560E-004,8.70647E+001,5.73371E-004,7,6.99997E+000,3.20280E-001
1196,1235,6.88633E-001,-3.53324E-001,3.43006E-003,1.29543E-002,-1.17255E-002,7.18253E-004,1.74876E-002,-2.31841E-005,-1.28825E-005,1.09170E-004,9.12585E-005,-1.27325E-004,4.63506E+001,1.31252E-004,7,6.99997E+000,3.20280E-001
1181,1790,5.06816E-001,1.01114E+001,7.49041E-003,1.20717E-002,-1.05933E-002,9.97519E-003,1.89063E-002,-1.20044E-004,9.36751E-005,1.69499E-005,9.50110E-005,-1.21380E-004,8.54935E+001,1.27686E-004,7,6.99997E+000,3.20280E-001
1136,1055,-4.76792E-001,-3.74118E+000,2.75293E-005,1.36453E-002,-1.18558E-002,9.30000E-004,1.81003E-002,-1.93115E-004,-1.94757E-005,-4.75447E-005,-7.30971E-006,-2.05281E-004,-7.56469E+001,2.41369E-004,7,6.99997E+000,3.20280E-001
1211,1700,1.05829E+000,8.41336E+000,5.12685E-003,1.25073E-002,-1.13789E-002,2.86997E-003,1.71508E-002,-5.61617E-005,3.28697E-005,-1.74725E-005,3.61759E-005,-5.94679E-005,-7.92850E+001,5.99313E-005,7,6.99997E+000,3.20280E-001
1226,1730,1.34669E+000,8.98043E+000,5.19630E-003,1.20105E-002,-1.09142E-002,6.17701E-003,1.73645E-002,-1.78032E-004,9.72259E-005,1.69059E-006,9.72363E-005,-1.78042E-004,8.96481E+001,1.78295E-004,7,6.99997E+000,3.20280E-001
1106,1745,-9.17546E-001,9.25756E+000,4.19164E-004,1.37064E-002,-1.12736E-002,3.40848E-003,1.80714E-002,-8.11539E-005,-5.31773E-005,-5.72780E-005,-8.20426E-006,-1.26127E-004,-5.18620E+001,1.50599E-004,7,6.99997E+000,3.20280E-001
1196,1760,7.85686E-001,9.54526E+000,3.56053E-003,1.25472E-002,-1.13734E-002,3.14099E-003,1.72236E-002,-9.74732E-005,1.35070E-004,-1.35332E-005,1.35855E-004,-9.82582E-005,-8.66805E+001,1.40296E-004,7,6.99997E+000,3.20280E-001
1181,1565,4.67369E-001,5.86516E+000,5.19229E-003,1.35683E-002,-1.17556E-002,5.80447E-004,1.79619E-002,5.21680E-005,-5.77267E-006,1.22392E-006,5.21938E-005,-5.79851E-006,1.20958E+000,5.72150E-005,7,6.99997E+000,3.20280E-001
1091,1115,-1.31253E+000,-2.61006E+000,2.20783E-002,1.38631E-002,-1.13273E-002,4.88855E-003,1.85578E-002,-5.07962E-004,-4.78447E-005,-3.15252E-005,-4.56947E-005,-5.10112E-004,-8.60987E+001,6.17103E-004,7,6.99997E+000,3.20280E-001
1121,1550,-6.71151E-001,5.57944E+000,-5.91547E-003,1.26942E-002,-1.16036E-002,4.28751E-004,1.72038E-002,-2.71521E-005,2.70660E-005,-2.46379E-006,2.71778E-005,-2.72638E-005,-8.74035E+001,3.14320E-005,7,6.99997E+000,3.20280E-001
1196,1625,7.60787E-001,6.99707E+000,3.33892E-003,1.28834E-002,-1.15205E-002,3.45247E-003,1.76245E-002,7.04370E-005,-1.99037E-005,-2.10677E-006,7.04861E-005,-1.99528E-005,-1.33519E+000,7.26637E-005,7,6.99997E+000,3.20280E-001
1181,1730,4.96143E-001,8.97754E+000,-2.83160E-003,1.28572E-002,-1.13543E-002,2.25716E-003,1.73009E-002,-4.36768E-005,4.15914E-005,-4.03089E-005,5.76299E-005,-5.97153E-005,-6.83029E+001,6.77814E-005,7,6.99997E+000,3.20280E-001
1046,1760,-2.04837E+000,9.53930E+000,5.12989E-003,1.32803E-002,-1.08881E-002,4.85563E-003,1.78464E-002,-2.43018E-004,-2.98717E-005,7.40184E-007,-2.98691E-005,-2.43020E-004,8.98010E+001,2.99354E-004,7,6.99997E+000,3.20280E-001
1271,1790,2.21012E+000,1.01155E+001,-4.20575E-004,1.29042E-002,-1.09497E-002,1.08316E-003,1.69584E-002,-6.91030E-004,5.30484E-004,1.27103E-005,5.30617E-004,-6.91163E-004,8.94039E+001,7.23434E-004,7,6.99997E+000,3.20280E-001
1061,1670,-1.78283E+000,7.84066E+000,1.03128E-004,1.23695E-002,-1.12586E-002,5.62493E-003,1.76465E-002,-1.82975E-004,2.64175E-005,-1.97511E-005,2.82642E-005,-1.84822E-004,-8.46583E+001,1.99112E-004,7,6.99997E+000,3.20280E-001
1256,1565,1.88440E+000,5.86815E+000,9.47538E-003,1.29269E-002,-1.10441E-002,5.64855E-003,1.79160E-002,6.28928E-005,1.58151E-005,-2.17166E-005,7.13803E-005,7.32764E-006,-2.13471E+001,8.69628E-005,7,6.99997E+000,3.20280E-001
1106,1700,-9.26551E-001,8.40845E+000,-1.91650E-003,1.31741E-002,-1.13985E-002,3.47589E-003,1.77642E-002,-5.10766E-005,-1.04657E-005,-5.02843E-005,2.34582E-005,-8.50005E-005,-5.59948E+001,8.77983E-005,7,6.99997E+000,3.20280E-001
1121,1745,-6.34347E-001,9.25737E+000,-2.94952E-003,1.36027E-002,-1.19069E-002,1.28241E-003,1.81232E-002,-4.61593E-005,-3.53401E-005,-4.66957E-005,6.25825E-006,-8.77577E-005,-4.83041E+001,9.79209E-005,7,6.99997E+000,3.20280E-001
1241,1595,1.60562E+000,6.43331E+000,3.60636E-003,1.24528E-002,-1.11279E-002,2.63622E-003,1.69071E-002,5.89760E-005,-5.26520E-005,8.95604E-006,5.96899E-005,-5.33660E-005,4.55805E+000,6.55785E-005,7,6.99997E+000,3.20280E-001
1076,1640,-1.50376E+000,7.27512E+000,-4.79846E-003,1.32866E-002,-1.16613E-002,-1.68191E-003,1.77581E-002,-1.22091E-004,4.00885E-005,-4.96105E-005,5.40605E-005,-1.36063E-004,-7.42709E+001,1.37016E-004,7,6.99997E+000,3.20280E-001
1241,860,1.46841E+000,-7.40960E+000,-4.47956E-003,1.35262E-002,-1.21784E-002,-3.87066E-003,1.86079E-002,8.78525E-005,-3.83316E-005,-6.94098E-005,1.18560E-004,-6.90389E-005,-2.38649E+001,1.19094E-004,7,6.99997E+000,3.20280E-001
1256,1580,1.88719E+000,6.15095E+000,4.52543E-003,1.28981E-002,-1.11771E-002,8.64398E-004,1.70891E-002,5.39442E-005,-1.06240E-005,-2.35650E-005,6.16297E-005,-1.83096E-005,-1.80634E+001,6.32987E-005,7,6.99997E+000,3.20280E-001
1091,1130,-1.30918E+000,-2.32675E+000,2.62070E-002,1.42709E-002,-1.09333E-002,7.10052E-003,1.93291E-002,-4.97338E-004,-1.98955E-005,-5.79308E-005,-1.29670E-005,-5.04267E-004,-8.31798E+001,5.89906E-004,7,6.99997E+000,3.20280E-001
1136,1550,-3.87091E-001,5.57996E+000,1.86637E-003,1.27122E-002,-1.21031E-002,2.22598E-003,1.76930E-002,-1.28700E-005,2.06338E-005,1.61052E-006,2.07110E-005,-1.29473E-005,8.72542E+001,2.09261E-005,7,6.99997E+000,3.20280E-001
1241,1730,1.63194E+000,8.97977E+000,-8.57226E-003,1.40275E-002,-1.18089E-002,-3.76134E-003,1.87181E-002,-1.80360E-004,1.75460E-004,-3.50761E-005,1.78885E-004,-1.83785E-004,-8.44234E+001,2.09445E-004,7,6.99997E+000,3.20280E-001
1256,1775,1.92359E+000,9.83095E+000,2.52693E-004,1.29675E-002,-1.14612E-002,1.24262E-003,1.73510E-002,-3.44462E-004,3.98425E-004,2.47692E-005,3.99250E-004,-3.45287E-004,8.80925E+001,4.33232E-004,7,6.99997E+000,3.20280E-001
1256,1595,1.89003E+000,6.43359E+000,5.64592E-003,1.31540E-002,-1.11988E-002,4.00850E-003,1.77344E-002,1.02655E-004,-2.99936E-005,-4.48913E-005,1.16419E-004,-4.37577E-005,-1.70460E+001,1.17609E-004,7,6.99997E+000,3.20280E-001
1286,1790,2.49278E+000,1.01161E+001,8.94434E-004,1.18817E-002,-1.09796E-002,3.67503E-003,1.65901E-002,-1.10913E-003,7.83235E-004,-1.64767E-004,7.97474E-004,-1.12337E-003,-8.50608E+001,1.15589E-003,7,6.99997E+000,3.20280E-001
1271,1775,2.20756E+000,9.83181E+000,9.82152E-004,1.32189E-002,-1.12864E-002,2.67341E-003,1.75860E-002,-6.48416E-004,3.57069E-004,1.05241E-005,3.57179E-004,-6.48526E-004,8.94004E+001,6.49639E-004,7,6.99997E+000,3.20280E-001
1151,1550,-1.03201E-001,5.58146E+000,2.88249E-003,1.30186E-002,-1.13613E-002,1.50444E-003,1.73443E-002,1.36026E-006,1.47085E-005,4.64824E-006,1.61677E-005,-9.88851E-008,7.25723E+001,1.86120E-005,7,6.99997E+000,3.20280E-001
1181,665,3.00084E-001,-1.10707E+001,-3.71206E-003,1.35164E-002,-1.21358E-002,-4.96889E-004,1.81719E-002,1.07728E-004,-1.22298E-004,-1.35802E-004,1.70676E-004,-1.85246E-004,-2.48691E+001,2.06008E-004,7,6.99997E+000,3.20280E-001
1166,1550,1.79635E-001,5.58180E+000,6.64576E-003,1.27233E-002,-1.14325E-002,7.67281E-003,1.87472E-002,1.55448E-005,9.29912E-006,6.65780E-006,1.97757E-005,5.06815E-006,3.24356E+001,2.62550E-005,7,6.99997E+000,3.20280E-001
1136,1745,-3.52071E-001,9.25976E+000,8.72004E-003,1.21881E-002,-1.03825E-002,1.11657E-002,1.95197E-002,-3.63802E-005,-8.58394E-006,-3.10078E-005,1.14980E-005,-5.64621E-005,-5.70713E+001,5.96767E-005,7,6.99997E+000,3.20280E-001
1286,1775,2.49025E+000,9.83208E+000,1.02603E-003,1.21197E-002,-1.16437E-002,2.97601E-003,1.70681E-002,-8.79520E-004,4.97418E-004,-1.28254E-004,5.09262E-004,-8.91364E-004,-8.47237E+001,8.94383E-004,7,6.99997E+000,3.20280E-001
1091,1145,-1.30505E+000,-2.04609E+000,2.42972E-002,1.52872E-002,-1.18364E-002,1.52432E-003,1.93939E-002,-5.26642E-004,-2.69681E-005,-4.60305E-005,-2.27631E-005,-5.30847E-004,-8.47804E+001,6.26525E-004,7,6.99997E+000,3.20280E-001
1256,1730,1.91585E+000,8.97971E+000,-9.23690E-003,1.41325E-002,-1.23471E-002,-5.05688E-003,1.94358E-002,-2.23499E-004,2.07383E-004,-3.80916E-005,2.10724E-004,-2.26841E-004,-8.49867E+001,2.53142E-004,7,6.99997E+000,3.20280E-001
1121,1700,-6.44044E-001,8.40929E+000,-1.74562E-003,1.22667E-002,-1.11085E-002,3.64948E-003,1.69467E-002,-2.44336E-005,-9.31123E-006,-4.36576E-005,2.74351E-005,-6.11800E-005,-4.99129E+001,6.12884E-005,7,6.99997E+000,3.20280E-001
1241,1790,1.64224E+000,1.01144E+001,4.54530E-003,1.24768E-002,-1.08513E-002,5.01847E-003,1.72802E-002,-3.01077E-004,5.06504E-004,5.21174E-005,5.09854E-004,-3.04427E-004,8.63227E+001,5.13048E-004,7,6.99997E+000,3.20280E-001
1181,1550,4.63880E-001,5.58112E+000,-8.42997E-003,1.36336E-002,-1.22194E-002,-6.54132E-003,1.94416E-002,2.97238E-005,4.39713E-006,7.64812E-006,3.18542E-005,2.26676E-006,1.55651E+001,3.81582E-005,7,6.99997E+000,3.20280E-001
1091,1640,-1.22066E+000,7.27587E+000,-4.79750E-004,1.28495E-002,-1.15787E-002,6.42416E-004,1.73086E-002,-1.04618E-004,3.00950E-005,-3.54409E-005,3.88500E-005,-1.13373E-004,-7.61240E+001,1.15228E-004,7,6.99997E+000,3.20280E-001
1196,1580,7.52876E-001,6.14872E+000,5.86096E-003,1.28718E-002,-1.16531E-002,1.93695E-003,1.74708E-002,8.17283E-005,-1.14123E-005,-2.43810E-006,8.17921E-005,-1.14761E-005,-1.49844E+000,8.85663E-005,7,6.99997E+000,3.20280E-001
1196,665,5.81905E-001,-1.10709E+001,-2.30802E-005,1.25077E-002,-1.14542E-002,3.14831E-003,1.72497E-002,1.27475E-004,-1.18773E-004,-1.83473E-004,2.25308E-004,-2.16606E-004,-2.80677E+001,2.55287E-004,7,6.99997E+000,3.20280E-001
1076,1670,-1.49866E+000,7.84013E+000,-7.32911E-003,1.33706E-002,-1.19693E-002,-7.68298E-004,1.79618E-002,-1.04588E-004,1.31319E-005,-4.42842E-005,2.79305E-005,-1.19387E-004,-7.15217E+001,1.24893E-004,7,6.99997E+000,3.20280E-001
1091,860,-1.36075E+000,-7.40623E+000,-8.66687E-003,1.39452E-002,-1.20517E-002,-5.43280E-003,1.92153E-002,-9.65589E-005,2.40051E-005,1.88790E-005,2.68922E-005,-9.94460E-005,8.13053E+001,1.02881E-004,7,6.99997E+000,3.20280E-001
1196,1025,6.50181E-001,-4.30567E+000,3.63308E-003,1.32895E-002,-1.21208E-002,-5.72812E-004,1.79959E-002,3.16727E-004,1.22838E-005,-8.89032E-005,3.40787E-004,-1.17762E-005,-1.51433E+001,3.86887E-004,7,6.99997E+000,3.20280E-001
1241,1775,1.63981E+000,9.83065E+000,3.75985E-003,1.28578E-002,-1.09508E-002,4.02930E-003,1.73631E-002,-2.66416E-004,3.60641E-004,3.24747E-005,3.62319E-004,-2.68094E-004,8.70433E+001,3.75967E-004,7,6.99997E+000,3.20280E-001
1166,1730,2.12220E-001,8.97707E+000,5.64120E-004,1.24908E-002,-1.09234E-002,5.51135E-003,1.74847E-002,-3.81741E-005,2.02820E-005,-3.87741E-005,3.96102E-005,-5.75023E-005,-6.35046E+001,5.88535E-005,7,6.99997E+000,3.20280E-001
1136,1700,-3.59584E-001,8.40832E+000,-1.41610E-002,1.34885E-002,-1.24383E-002,-6.97044E-003,1.96275E-002,-8.63768E-006,-2.15576E-007,-3.26654E-005,2.85091E-005,-3.73623E-005,-4.86729E+001,3.90477E-005,7,6.99997E+000,3.20280E-001
1151,1745,-6.74204E-002,9.25940E+000,9.25180E-004,1.31626E-002,-1.13805E-002,1.97066E-003,1.75115E-002,-4.36525E-005,1.30790E-005,-3.07649E-005,2.65593E-005,-5.71328E-005,-6.63383E+001,5.71798E-005,7,6.99997E+000,3.20280E-001
1256,1790,1.92678E+000,1.01151E+001,5.18175E-003,1.30422E-002,-1.09775E-002,3.91418E-003,1.74907E-002,-3.92659E-004,5.81658E-004,3.73154E-005,5.83085E-004,-3.94087E-004,8.78099E+001,5.94986E-004,7,6.99997E+000,3.20280E-001
1106,1640,-9.36613E-001,7.27564E+000,-2.26693E-003,1.33304E-002,-1.22397E-002,-3.12062E-003,1.83643E-002,-6.91646E-005,2.42704E-005,-3.68851E-005,3.70763E-005,-8.19705E-005,-7.08538E+001,8.20947E-005,7,6.99997E+000,3.20280E-001
1106,1775,-9.12779E-001,9.82342E+000,-1.66610E-003,1.28815E-002,-1.15242E-002,2.19671E-004,1.72855E-002,-1.30563E-004,-9.82649E-005,-6.30619E-005,-4.93171E-005,-1.79511E-004,-5.21818E+001,2.40857E-004,7,6.99997E+000,3.20280E-001
1106,1595,-9.45649E-001,6.42761E+000,-3.21772E-004,1.27964E-002,-1.18035E-002,1.54740E-003,1.74776E-002,-7.24360E-005,4.60610E-005,1.17948E-006,4.60727E-005,-7.24477E-005,8.94298E+001,7.33349E-005,7,6.99997E+000,3.20280E-001
1121,1580,-6.65161E-001,6.14568E+000,4.12067E-003,1.25754E-002,-1.13439E-002,5.05474E-003,1.76741E-002,-5.96130E-006,3.21262E-005,3.51252E-006,3.24474E-005,-6.28252E-006,8.47748E+001,3.44181E-005,7,6.99997E+000,3.20280E-001
1106,860,-1.08023E+000,-7.40521E+000,2.04272E-003,1.17927E-002,-1.10474E-002,6.22418E-003,1.73163E-002,-1.10537E-004,4.24057E-005,1.18833E-005,4.33235E-005,-1.11455E-004,8.55836E+001,1.12372E-004,7,6.99997E+000,3.20280E-001
1121,1775,-6.29828E-001,9.82477E+000,3.81415E-003,1.23273E-002,-1.11699E-002,5.45605E-003,1.75071E-002,-6.94145E-005,-6.06867E-005,-4.57774E-005,-1.90656E-005,-1.11036E-004,-4.77227E+001,1.40520E-004,7,6.99997E+000,3.20280E-001
1256,1760,1.91957E+000,9.54830E+000,2.03621E-003,1.20780E-002,-1.07347E-002,5.52954E-003,1.70789E-002,-3.00582E-004,3.35620E-004,-2.48613E-006,3.35630E-004,-3.00591E-004,-8.97761E+001,3.68990E-004,7,6.99997E+000,3.20280E-001
1121,1790,-6.27164E-001,1.01071E+001,2.18647E-003,1.24842E-002,-1.13991E-002,5.81634E-003,1.78781E-002,-8.08733E-005,-1.64824E-004,-1.39606E-005,-7.86126E-005,-1.67085E-004,-9.19827E+000,2.50951E-004,7,6.99997E+000,3.20280E-001
1061,1640,-1.78666E+000,7.27514E+000,9.19549E-003,1.33390E-002,-1.12789E-002,9.45026E-003,1.98608E-002,-1.94682E-004,5.41568E-005,-6.07514E-005,6.81965E-005,-2.08721E-004,-7.69873E+001,2.12858E-004,7,6.99997E+000,3.20280E-001
1136,1775,-3.45553E-001,9.82501E+000,-1.81205E-003,1.31337E-002,-1.17601E-002,1.52795E-004,1.76300E-002,-7.01604E-005,-1.78691E-005,-2.09765E-005,-1.04945E-005,-7.75350E-005,-7.06301E+001,9.61631E-005,7,6.99997E+000,3.20280E-001
1121,860,-7.95243E-001,-7.40622E+000,-6.58201E-004,1.35330E-002,-1.17240E-002,-2.11364E-004,1.79064E-002,-7.68332E-005,5.32910E-005,1.08397E-006,5.33000E-005,-7.68423E-005,8.95228E+001,7.87395E-005,7,6.99997E+000,3.20280E-001
1271,1760,2.20447E+000,9.54889E+000,-7.36419E-004,1.28999E-002,-1.11364E-002,3.27148E-004,1.70450E-002,-6.20934E-004,3.20582E-004,-3.15090E-005,3.21635E-004,-6.21987E-004,-8.80854E+001,6.22108E-004,7,6.99997E+000,3.20280E-001
1181,1775,5.04973E-001,9.82809E+000,7.00818E-003,1.24253E-002,-1.12465E-002,4.51535E-003,1.73568E-002,-1.00707E-004,9.69963E-005,-4.38834E-006,9.70937E-005,-1.00804E-004,-8.87291E+001,1.14317E-004,7,6.99997E+000,3.20280E-001
1136,1790,-3.43412E-001,1.01077E+001,-2.20893E-003,1.26579E-002,-1.16887E-002,8.73790E-004,1.72514E-002,-9.02984E-005,-9.39223E-005,9.81382E-006,-8.21306E-005,-1.02090E-004,3.97695E+001,1.84581E-004,7,6.99997E+000,3.20280E-001
1121,1655,-6.51526E-001,7.56088E+000,1.03205E-002,1.22985E-002,-1.06868E-002,9.50582E-003,1.88633E-002,-2.20371E-005,1.87626E-005,-3.88088E-005,4.22066E-005,-4.54810E-005,-5.88643E+001,5.07322E-005,7,6.99997E+000,3.20280E-001
1196,1775,7.88758E-001,9.82830E+000,3.69514E-004,1.29695E-002,-1.16329E-002,1.22862E-003,1.74654E-002,-1.11953E-004,1.36670E-004,4.61849E-006,1.36756E-004,-1.12038E-004,8.89361E+001,1.45753E-004,7,6.99997E+000,3.20280E-001
1136,1655,-3.66188E-001,7.56074E+000,-4.17892E-003,1.43615E-002,-1.15273E-002,-3.72294E-003,1.87881E-002,4.67562E-006,1.67983E-005,-2.60483E-005,3.74812E-005,-1.60073E-005,-5.15497E+001,3.76139E-005,7,6.99997E+000,3.20280E-001
1151,1790,-5.96572E-002,1.01082E+001,-5.21014E-003,1.31298E-002,-1.17954E-002,1.31056E-004,1.76504E-002,-1.00179E-004,-3.39026E-005,1.24991E-005,-3.16237E-005,-1.02457E-004,7.96672E+001,1.40179E-004,7,6.99997E+000,3.20280E-001
1226,1790,1.36041E+000,1.01135E+001,1.10729E-003,1.40714E-002,-1.13270E-002,-1.09126E-003,1.80968E-002,-2.96346E-004,2.66717E-004,1.27410E-004,2.94206E-004,-3.23834E-004,7.78252E+001,3.58053E-004,7,6.99997E+000,3.20280E-001
1106,1790,-9.09173E-001,1.01056E+001,-8.47108E-003,1.40528E-002,-1.20108E-002,-4.03875E-003,1.89223E-002,-1.74630E-004,-2.34555E-004,-2.62931E-005,-1.64729E-004,-2.44455E-004,-2.06341E+001,4.11765E-004,7,6.99997E+000,3.20280E-001
1166,1790,2.24191E-001,1.01091E+001,-7.38610E-003,1.33380E-002,-1.18498E-002,-2.53968E-003,1.80214E-002,-1.10103E-004,2.86132E-005,1.48894E-005,3.01934E-005,-1.11684E-004,8.39420E+001,1.15544E-004,7,6.99997E+000,3.20280E-001
1211,1790,1.07500E+000,1.01131E+001,3.31226E-003,1.26015E-002,-1.07257E-002,2.98885E-003,1.68158E-002,-2.08007E-004,2.33506E-004,3.99266E-005,2.37087E-004,-2.11588E-004,8.48741E+001,2.60295E-004,7,6.99997E+000,3.20280E-001
1196,1790,7.91177E-001,1.01113E+001,-6.32560E-004,1.28368E-002,-1.13965E-002,2.27119E-003,1.73154E-002,-1.27799E-004,1.57346E-004,2.31992E-005,1.59221E-004,-1.29675E-004,8.53790E+001,1.69391E-004,7,6.99997E+000,3.20280E-001
