Coordinates.Image X [Pixel],Coordinates.Image Y [Pixel],coor.X [mm],coor.Y [mm],coor.Z [mm],disp.Horizontal Displacement U [mm],disp.Vertical Displacement V [mm],disp.Out-Of-Plane: W [mm],disp.Displacement Magnitude [mm],strain.Strain-global frame: Exx [ ],strain.Strain-global frame: Eyy [ ],strain.Strain-global frame: Exy [ ],strain.Maximum Principal Strain: EI [ ],strain.Minimum Principal Strain: EII [ ],strain.Shear Angle Gamma [deg],strain.Von Mises Equivalent Strain [ ],ext.Current Image [#],ext.Time [s],ext.Force [N]
1196,1130,6.56137E-001,-2.31826E+000,2.30556E-003,0.00000E+000,0.00000E+000,0.00000E+000,0.00000E+000,0.00000E+000,0.00000E+000,0.00000E+000,0.00000E+000,0.00000E+000,0.00000E+000,0.00000E+000,0,0.00000E+000,2.81807E-001
1211,1070,9.28139E-001,-3.44716E+000,1.99840E-003,0.00000E+000,0.00000E+000,0.00000E+000,0.00000E+000,0.00000E+000,0.00000E+000,0.00000E+000,0.00000E+000,0.00000E+000,0.00000E+000,0.00000E+000,0,0.00000E+000,2.81807E-001
1196,1175,6.64266E-001,-1.47167E+000,4.64140E-004,0.00000E+000,0.00000E+000,0.00000E+000,0.00000E+000,0.00000E+000,0.00000E+000,0.00000E+000,0.00000E+000,0.00000E+000,0.00000E+000,0.00000E+000,0,0.00000E+000,2.81807E-001
1121,1100,-7.65444E-001,-2.88326E+000,-2.56961E-003,0.00000E+000,0.00000E+000,0.00000E+000,0.00000E+000,0.00000E+000,0.00000E+000,0.00000E+000,0.00000E+000,0.00000E+000,0.00000E+000,0.00000E+000,0,0.00000E+000,2.81807E-001
1226,1250,1.24432E+000,-5.95385E-002,-3.72727E-003,0.00000E+000,0.00000E+000,0.00000E+000,0.00000E+000,0.00000E+000,0.00000E+000,0.00000E+000,0.00000E+000,0.00000E+000,0.00000E+000,0.00000E+000,0,0.00000E+000,2.81807E-001
1166,1280,1.17302E-001,5.04974E-001,1.06134E-003,0.00000E+000,0.00000E+000,0.00000E+000,0.00000E+000,0.00000E+000,0.00000E+000,0.00000E+000,0.00000E+000,0.00000E+000,0.00000E+000,0.00000E+000,0,0.00000E+000,2.81807E-001
1091,1250,-1.30037E+000,-5.78647E-002,3.15118E-002,0.00000E+000,0.00000E+000,0.00000E+000,0.00000E+000,0.00000E+000,0.00000E+000,0.00000E+000,0.00000E+000,0.00000E+000,0.00000E+000,0.00000E+000,0,0.00000E+000,2.81807E-001
1091,950,-1.35855E+000,-5.70266E+000,-3.77713E-003,0.00000E+000,0.00000E+000,0.00000E+000,0.00000E+000,0.00000E+000,0.00000E+000,0.00000E+000,0.00000E+000,0.00000E+000,0.00000E+000,0.00000E+000,0,0.00000E+000,2.81807E-001
1166,905,4.82887E-002,-6.54986E+000,9.80368E-004,0.00000E+000,0.00000E+000,0.00000E+000,0.00000E+000,0.00000E+000,0.00000E+000,0.00000E+000,0.00000E+000,0.00000E+000,0.00000E+000,0.00000E+000,0,0.00000E+000,2.81807E-001
1196,1340,6.95330E-001,1.63590E+000,3.91972E-003,0.00000E+000,0.00000E+000,0.00000E+000,0.00000E+000,0.00000E+000,0.00000E+000,0.00000E+000,0.00000E+000,0.00000E+000,0.00000E+000,0.00000E+000,0,0.00000E+000,2.81807E-001
1121,1055,-7.73212E-001,-3.72908E+000,9.41624E-004,0.00000E+000,0.00000E+000,0.00000E+000,0.00000E+000,0.00000E+000,0.00000E+000,0.00000E+000,0.00000E+000,0.00000E+000,0.00000E+000,0.00000E+000,0,0.00000E+000,2.81807E-001
1196,1280,6.83651E-001,5.05307E-001,-5.17078E-004,0.00000E+000,0.00000E+000,0.00000E+000,0.00000E+000,0.00000E+000,0.00000E+000,0.00000E+000,0.00000E+000,0.00000E+000,0.00000E+000,0.00000E+000,0,0.00000E+000,2.81807E-001
1151,965,-2.23780E-001,-5.42184E+000,1.07227E-004,0.00000E+000,0.00000E+000,0.00000E+000,0.00000E+000,0.00000E+000,0.00000E+000,0.00000E+000,0.00000E+000,0.00000E+000,0.00000E+000,0.00000E+000,0,0.00000E+000,2.81807E-001
1196,935,6.19954E-001,-5.98613E+000,1.97616E-003,0.00000E+000,0.00000E+000,0.00000E+000,0.00000E+000,0.00000E+000,0.00000E+000,0.00000E+000,0.00000E+000,0.00000E+000,0.00000E+000,0.00000E+000,0,0.00000E+000,2.81807E-001
1136,860,-5.25796E-001,-7.39486E+000,7.11897E-004,0.00000E+000,0.00000E+000,0.00000E+000,0.00000E+000,0.00000E+000,0.00000E+000,0.00000E+000,0.00000E+000,0.00000E+000,0.00000E+000,0.00000E+000,0,0.00000E+000,2.81807E-001
1211,1280,9.67208E-001,5.05575E-001,1.51765E-003,0.00000E+000,0.00000E+000,0.00000E+000,0.00000E+000,0.00000E+000,0.00000E+000,0.00000E+000,0.00000E+000,0.00000E+000,0.00000E+000,0.00000E+000,0,0.00000E+000,2.81807E-001
1106,845,-1.09497E+000,-7.67638E+000,-6.21979E-003,0.00000E+000,0.00000E+000,0.00000E+000,0.00000E+000,0.00000E+000,0.00000E+000,0.00000E+000,0.00000E+000,0.00000E+000,0.00000E+000,0.00000E+000,0,0.00000E+000,2.81807E-001
1181,860,3.22423E-001,-7.39576E+000,-3.72112E-003,0.00000E+000,0.00000E+000,0.00000E+000,0.00000E+000,0.00000E+000,0.00000E+000,0.00000E+000,0.00000E+000,0.00000E+000,0.00000E+000,0.00000E+000,0,0.00000E+000,2.81807E-001
1181,785,3.09138E-001,-8.80519E+000,8.91659E-004,0.00000E+000,0.00000E+000,0.00000E+000,0.00000E+000,0.00000E+000,0.00000E+000,0.00000E+000,0.00000E+000,0.00000E+000,0.00000E+000,0.00000E+000,0,0.00000E+000,2.81807E-001
1166,1445,1.47665E-001,3.61367E+000,3.05801E-004,0.00000E+000,0.00000E+000,0.00000E+000,0.00000E+000,0.00000E+000,0.00000E+000,0.00000E+000,0.00000E+000,0.00000E+000,0.00000E+000,0.00000E+000,0,0.00000E+000,2.81807E-001
1211,1025,9.19612E-001,-4.29392E+000,7.39303E-004,0.00000E+000,0.00000E+000,0.00000E+000,0.00000E+000,0.00000E+000,0.00000E+000,0.00000E+000,0.00000E+000,0.00000E+000,0.00000E+000,0.00000E+000,0,0.00000E+000,2.81807E-001
1151,1130,-1.93607E-001,-2.31867E+000,-3.48132E-004,0.00000E+000,0.00000E+000,0.00000E+000,0.00000E+000,0.00000E+000,0.00000E+000,0.00000E+000,0.00000E+000,0.00000E+000,0.00000E+000,0.00000E+000,0,0.00000E+000,2.81807E-001
1091,1490,-1.26091E+000,4.45919E+000,-2.90290E-003,0.00000E+000,0.00000E+000,0.00000E+000,0.00000E+000,0.00000E+000,0.00000E+000,0.00000E+000,0.00000E+000,0.00000E+000,0.00000E+000,0.00000E+000,0,0.00000E+000,2.81807E-001
1211,935,9.02764E-001,-5.98652E+000,-1.67641E-004,0.00000E+000,0.00000E+000,0.00000E+000,0.00000E+000,0.00000E+000,0.00000E+000,0.00000E+000,0.00000E+000,0.00000E+000,0.00000E+000,0.00000E+000,0,0.00000E+000,2.81807E-001
1121,845,-8.11926E-001,-7.67650E+000,-4.14962E-003,0.00000E+000,0.00000E+000,0.00000E+000,0.00000E+000,0.00000E+000,0.00000E+000,0.00000E+000,0.00000E+000,0.00000E+000,0.00000E+000,0.00000E+000,0,0.00000E+000,2.81807E-001
1196,785,5.91980E-001,-8.80516E+000,1.50720E-004,0.00000E+000,0.00000E+000,0.00000E+000,0.00000E+000,0.00000E+000,0.00000E+000,0.00000E+000,0.00000E+000,0.00000E+000,0.00000E+000,0.00000E+000,0,0.00000E+000,2.81807E-001
1151,1295,-1.63339E-001,7.87301E-001,-4.80152E-004,0.00000E+000,0.00000E+000,0.00000E+000,0.00000E+000,0.00000E+000,0.00000E+000,0.00000E+000,0.00000E+000,0.00000E+000,0.00000E+000,0.00000E+000,0,0.00000E+000,2.81807E-001
1121,1505,-6.91189E-001,4.74299E+000,1.25064E-003,0.00000E+000,0.00000E+000,0.00000E+000,0.00000E+000,0.00000E+000,0.00000E+000,0.00000E+000,0.00000E+000,0.00000E+000,0.00000E+000,0.00000E+000,0,0.00000E+000,2.81807E-001
1151,1445,-1.35945E-001,3.61305E+000,-2.02186E-003,0.00000E+000,0.00000E+000,0.00000E+000,0.00000E+000,0.00000E+000,0.00000E+000,0.00000E+000,0.00000E+000,0.00000E+000,0.00000E+000,0.00000E+000,0,0.00000E+000,2.81807E-001
1211,1235,9.58822E-001,-3.41561E-001,1.52326E-003,0.00000E+000,0.00000E+000,0.00000E+000,0.00000E+000,0.00000E+000,0.00000E+000,0.00000E+000,0.00000E+000,0.00000E+000,0.00000E+000,0.00000E+000,0,0.00000E+000,2.81807E-001
1166,740,1.80469E-002,-9.64955E+000,1.28210E-003,0.00000E+000,0.00000E+000,0.00000E+000,0.00000E+000,0.00000E+000,0.00000E+000,0.00000E+000,0.00000E+000,0.00000E+000,0.00000E+000,0.00000E+000,0,0.00000E+000,2.81807E-001
1151,1145,-1.90629E-001,-2.03576E+000,1.51685E-003,0.00000E+000,0.00000E+000,0.00000E+000,0.00000E+000,0.00000E+000,0.00000E+000,0.00000E+000,0.00000E+000,0.00000E+000,0.00000E+000,0.00000E+000,0,0.00000E+000,2.81807E-001
1211,785,8.74973E-001,-8.80575E+000,5.11350E-004,0.00000E+000,0.00000E+000,0.00000E+000,0.00000E+000,0.00000E+000,0.00000E+000,0.00000E+000,0.00000E+000,0.00000E+000,0.00000E+000,0.00000E+000,0,0.00000E+000,2.81807E-001
1226,935,1.18593E+000,-5.98670E+000,3.70201E-004,0.00000E+000,0.00000E+000,0.00000E+000,0.00000E+000,0.00000E+000,0.00000E+000,0.00000E+000,0.00000E+000,0.00000E+000,0.00000E+000,0.00000E+000,0,0.00000E+000,2.81807E-001
1151,1400,-1.43771E-001,2.76554E+000,1.80111E-003,0.00000E+000,0.00000E+000,0.00000E+000,0.00000E+000,0.00000E+000,0.00000E+000,0.00000E+000,0.00000E+000,0.00000E+000,0.00000E+000,0.00000E+000,0,0.00000E+000,2.81807E-001
1226,1280,1.25062E+000,5.05879E-001,2.02285E-003,0.00000E+000,0.00000E+000,0.00000E+000,0.00000E+000,0.00000E+000,0.00000E+000,0.00000E+000,0.00000E+000,0.00000E+000,0.00000E+000,0.00000E+000,0,0.00000E+000,2.81807E-001
1136,845,-5.28936E-001,-7.67680E+000,-2.80711E-003,0.00000E+000,0.00000E+000,0.00000E+000,0.00000E+000,0.00000E+000,0.00000E+000,0.00000E+000,0.00000E+000,0.00000E+000,0.00000E+000,0.00000E+000,0,0.00000E+000,2.81807E-001
1136,1505,-4.07986E-001,4.74348E+000,2.76059E-004,0.00000E+000,0.00000E+000,0.00000E+000,0.00000E+000,0.00000E+000,0.00000E+000,0.00000E+000,0.00000E+000,0.00000E+000,0.00000E+000,0.00000E+000,0,0.00000E+000,2.81807E-001
1091,1025,-1.34392E+000,-4.29276E+000,5.98959E-003,0.00000E+000,0.00000E+000,0.00000E+000,0.00000E+000,0.00000E+000,0.00000E+000,0.00000E+000,0.00000E+000,0.00000E+000,0.00000E+000,0.00000E+000,0,0.00000E+000,2.81807E-001
1121,1520,-6.88811E-001,5.02588E+000,-1.92354E-003,0.00000E+000,0.00000E+000,0.00000E+000,0.00000E+000,0.00000E+000,0.00000E+000,0.00000E+000,0.00000E+000,0.00000E+000,0.00000E+000,0.00000E+000,0,0.00000E+000,2.81807E-001
1136,1475,-4.13568E-001,4.17828E+000,-4.77165E-004,0.00000E+000,0.00000E+000,0.00000E+000,0.00000E+000,0.00000E+000,0.00000E+000,0.00000E+000,0.00000E+000,0.00000E+000,0.00000E+000,0.00000E+000,0,0.00000E+000,2.81807E-001
1121,935,-7.94853E-001,-5.98523E+000,2.30508E-003,0.00000E+000,0.00000E+000,0.00000E+000,0.00000E+000,0.00000E+000,0.00000E+000,0.00000E+000,0.00000E+000,0.00000E+000,0.00000E+000,0.00000E+000,0,0.00000E+000,2.81807E-001
1181,905,3.31487E-001,-6.54975E+000,2.81012E-003,0.00000E+000,0.00000E+000,0.00000E+000,0.00000E+000,0.00000E+000,0.00000E+000,0.00000E+000,0.00000E+000,0.00000E+000,0.00000E+000,0.00000E+000,0,0.00000E+000,2.81807E-001
1106,1490,-9.77591E-001,4.45983E+000,-2.17217E-003,0.00000E+000,0.00000E+000,0.00000E+000,0.00000E+000,0.00000E+000,0.00000E+000,0.00000E+000,0.00000E+000,0.00000E+000,0.00000E+000,0.00000E+000,0,0.00000E+000,2.81807E-001
1091,845,-1.37753E+000,-7.67626E+000,-4.38055E-003,0.00000E+000,0.00000E+000,0.00000E+000,0.00000E+000,0.00000E+000,0.00000E+000,0.00000E+000,0.00000E+000,0.00000E+000,0.00000E+000,0.00000E+000,0,0.00000E+000,2.81807E-001
1121,980,-7.87176E-001,-5.13960E+000,-1.95537E-003,0.00000E+000,0.00000E+000,0.00000E+000,0.00000E+000,0.00000E+000,0.00000E+000,0.00000E+000,0.00000E+000,0.00000E+000,0.00000E+000,0.00000E+000,0,0.00000E+000,2.81807E-001
1166,1400,1.39589E-001,2.76587E+000,2.27100E-003,0.00000E+000,0.00000E+000,0.00000E+000,0.00000E+000,0.00000E+000,0.00000E+000,0.00000E+000,0.00000E+000,0.00000E+000,0.00000E+000,0.00000E+000,0,0.00000E+000,2.81807E-001
1151,1475,-1.30278E-001,4.17870E+000,-7.83332E-004,0.00000E+000,0.00000E+000,0.00000E+000,0.00000E+000,0.00000E+000,0.00000E+000,0.00000E+000,0.00000E+000,0.00000E+000,0.00000E+000,0.00000E+000,0,0.00000E+000,2.81807E-001
1166,1295,1.19819E-001,7.87416E-001,-1.06910E-003,0.00000E+000,0.00000E+000,0.00000E+000,0.00000E+000,0.00000E+000,0.00000E+000,0.00000E+000,0.00000E+000,0.00000E+000,0.00000E+000,0.00000E+000,0,0.00000E+000,2.81807E-001
1151,1160,-1.87974E-001,-1.75362E+000,7.04778E-004,0.00000E+000,0.00000E+000,0.00000E+000,0.00000E+000,0.00000E+000,0.00000E+000,0.00000E+000,0.00000E+000,0.00000E+000,0.00000E+000,0.00000E+000,0,0.00000E+000,2.81807E-001
1151,800,-2.54160E-001,-8.52304E+000,-1.57532E-003,0.00000E+000,0.00000E+000,0.00000E+000,0.00000E+000,0.00000E+000,0.00000E+000,0.00000E+000,0.00000E+000,0.00000E+000,0.00000E+000,0.00000E+000,0,0.00000E+000,2.81807E-001
1106,1205,-1.02917E+000,-9.07650E-001,-5.27585E-004,0.00000E+000,0.00000E+000,0.00000E+000,0.00000E+000,0.00000E+000,0.00000E+000,0.00000E+000,0.00000E+000,0.00000E+000,0.00000E+000,0.00000E+000,0,0.00000E+000,2.81807E-001
1151,1385,-1.46777E-001,2.48247E+000,-2.74340E-004,0.00000E+000,0.00000E+000,0.00000E+000,0.00000E+000,0.00000E+000,0.00000E+000,0.00000E+000,0.00000E+000,0.00000E+000,0.00000E+000,0.00000E+000,0,0.00000E+000,2.81807E-001
1136,1100,-4.81934E-001,-2.88282E+000,1.59191E-003,0.00000E+000,0.00000E+000,0.00000E+000,0.00000E+000,0.00000E+000,0.00000E+000,0.00000E+000,0.00000E+000,0.00000E+000,0.00000E+000,0.00000E+000,0,0.00000E+000,2.81807E-001
1136,1520,-4.05197E-001,5.02662E+000,5.53268E-004,0.00000E+000,0.00000E+000,0.00000E+000,0.00000E+000,0.00000E+000,0.00000E+000,0.00000E+000,0.00000E+000,0.00000E+000,0.00000E+000,0.00000E+000,0,0.00000E+000,2.81807E-001
1196,905,6.14208E-001,-6.55001E+000,3.40121E-004,0.00000E+000,0.00000E+000,0.00000E+000,0.00000E+000,0.00000E+000,0.00000E+000,0.00000E+000,0.00000E+000,0.00000E+000,0.00000E+000,0.00000E+000,0,0.00000E+000,2.81807E-001
1121,1070,-7.70617E-001,-3.44697E+000,-2.04541E-004,0.00000E+000,0.00000E+000,0.00000E+000,0.00000E+000,0.00000E+000,0.00000E+000,0.00000E+000,0.00000E+000,0.00000E+000,0.00000E+000,0.00000E+000,0,0.00000E+000,2.81807E-001
1091,1040,-1.34045E+000,-4.01048E+000,1.26504E-002,0.00000E+000,0.00000E+000,0.00000E+000,0.00000E+000,0.00000E+000,0.00000E+000,0.00000E+000,0.00000E+000,0.00000E+000,0.00000E+000,0.00000E+000,0,0.00000E+000,2.81807E-001
1211,1340,9.78442E-001,1.63619E+000,1.80157E-003,0.00000E+000,0.00000E+000,0.00000E+000,0.00000E+000,0.00000E+000,0.00000E+000,0.00000E+000,0.00000E+000,0.00000E+000,0.00000E+000,0.00000E+000,0,0.00000E+000,2.81807E-001
1136,935,-5.12348E-001,-5.98548E+000,-1.14020E-003,0.00000E+000,0.00000E+000,0.00000E+000,0.00000E+000,0.00000E+000,0.00000E+000,0.00000E+000,0.00000E+000,0.00000E+000,0.00000E+000,0.00000E+000,0,0.00000E+000,2.81807E-001
1151,1265,-1.68870E-001,2.22709E-001,-7.02637E-004,0.00000E+000,0.00000E+000,0.00000E+000,0.00000E+000,0.00000E+000,0.00000E+000,0.00000E+000,0.00000E+000,0.00000E+000,0.00000E+000,0.00000E+000,0,0.00000E+000,2.81807E-001
1181,1115,3.69874E-001,-2.60086E+000,-3.48159E-004,0.00000E+000,0.00000E+000,0.00000E+000,0.00000E+000,0.00000E+000,0.00000E+000,0.00000E+000,0.00000E+000,0.00000E+000,0.00000E+000,0.00000E+000,0,0.00000E+000,2.81807E-001
1091,1505,-1.25785E+000,4.74227E+000,5.21505E-005,0.00000E+000,0.00000E+000,0.00000E+000,0.00000E+000,0.00000E+000,0.00000E+000,0.00000E+000,0.00000E+000,0.00000E+000,0.00000E+000,0.00000E+000,0,0.00000E+000,2.81807E-001
1106,1415,-9.91235E-001,3.04708E+000,-2.30162E-003,0.00000E+000,0.00000E+000,0.00000E+000,0.00000E+000,0.00000E+000,0.00000E+000,0.00000E+000,0.00000E+000,0.00000E+000,0.00000E+000,0.00000E+000,0,0.00000E+000,2.81807E-001
1151,1535,-1.19152E-001,5.30984E+000,-7.11257E-005,0.00000E+000,0.00000E+000,0.00000E+000,0.00000E+000,0.00000E+000,0.00000E+000,0.00000E+000,0.00000E+000,0.00000E+000,0.00000E+000,0.00000E+000,0,0.00000E+000,2.81807E-001
1181,1295,4.03159E-001,7.87629E-001,-3.99804E-004,0.00000E+000,0.00000E+000,0.00000E+000,0.00000E+000,0.00000E+000,0.00000E+000,0.00000E+000,0.00000E+000,0.00000E+000,0.00000E+000,0.00000E+000,0,0.00000E+000,2.81807E-001
1136,980,-5.04374E-001,-5.14005E+000,-3.05552E-003,0.00000E+000,0.00000E+000,0.00000E+000,0.00000E+000,0.00000E+000,0.00000E+000,0.00000E+000,0.00000E+000,0.00000E+000,0.00000E+000,0.00000E+000,0,0.00000E+000,2.81807E-001
1166,1430,1.44754E-001,3.33084E+000,-8.87454E-004,0.00000E+000,0.00000E+000,0.00000E+000,0.00000E+000,0.00000E+000,0.00000E+000,0.00000E+000,0.00000E+000,0.00000E+000,0.00000E+000,0.00000E+000,0,0.00000E+000,2.81807E-001
1166,800,2.88679E-002,-8.52354E+000,-1.71563E-004,0.00000E+000,0.00000E+000,0.00000E+000,0.00000E+000,0.00000E+000,0.00000E+000,0.00000E+000,0.00000E+000,0.00000E+000,0.00000E+000,0.00000E+000,0,0.00000E+000,2.81807E-001
1136,1235,-4.57380E-001,-3.42215E-001,5.94096E-004,0.00000E+000,0.00000E+000,0.00000E+000,0.00000E+000,0.00000E+000,0.00000E+000,0.00000E+000,0.00000E+000,0.00000E+000,0.00000E+000,0.00000E+000,0,0.00000E+000,2.81807E-001
1121,1490,-6.94086E-001,4.46043E+000,-1.46880E-004,0.00000E+000,0.00000E+000,0.00000E+000,0.00000E+000,0.00000E+000,0.00000E+000,0.00000E+000,0.00000E+000,0.00000E+000,0.00000E+000,0.00000E+000,0,0.00000E+000,2.81807E-001
1121,1085,-7.68018E-001,-3.16515E+000,-1.27121E-003,0.00000E+000,0.00000E+000,0.00000E+000,0.00000E+000,0.00000E+000,0.00000E+000,0.00000E+000,0.00000E+000,0.00000E+000,0.00000E+000,0.00000E+000,0,0.00000E+000,2.81807E-001
1166,1385,1.36702E-001,2.48307E+000,1.27856E-003,0.00000E+000,0.00000E+000,0.00000E+000,0.00000E+000,0.00000E+000,0.00000E+000,0.00000E+000,0.00000E+000,0.00000E+000,0.00000E+000,0.00000E+000,0,0.00000E+000,2.81807E-001
1181,1400,4.22477E-001,2.76570E+000,-1.50659E-003,0.00000E+000,0.00000E+000,0.00000E+000,0.00000E+000,0.00000E+000,0.00000E+000,0.00000E+000,0.00000E+000,0.00000E+000,0.00000E+000,0.00000E+000,0,0.00000E+000,2.81807E-001
1106,1355,-1.00171E+000,1.91657E+000,1.48821E-003,0.00000E+000,0.00000E+000,0.00000E+000,0.00000E+000,0.00000E+000,0.00000E+000,0.00000E+000,0.00000E+000,0.00000E+000,0.00000E+000,0.00000E+000,0,0.00000E+000,2.81807E-001
1151,1175,-1.85226E-001,-1.47151E+000,7.00702E-004,0.00000E+000,0.00000E+000,0.00000E+000,0.00000E+000,0.00000E+000,0.00000E+000,0.00000E+000,0.00000E+000,0.00000E+000,0.00000E+000,0.00000E+000,0,0.00000E+000,2.81807E-001
1166,1475,1.53134E-001,4.17918E+000,-3.24181E-004,0.00000E+000,0.00000E+000,0.00000E+000,0.00000E+000,0.00000E+000,0.00000E+000,0.00000E+000,0.00000E+000,0.00000E+000,0.00000E+000,0.00000E+000,0,0.00000E+000,2.81807E-001
1211,1040,9.22626E-001,-4.01168E+000,2.61570E-003,0.00000E+000,0.00000E+000,0.00000E+000,0.00000E+000,0.00000E+000,0.00000E+000,0.00000E+000,0.00000E+000,0.00000E+000,0.00000E+000,0.00000E+000,0,0.00000E+000,2.81807E-001
1166,920,5.08971E-002,-6.26805E+000,-2.60470E-004,0.00000E+000,0.00000E+000,0.00000E+000,0.00000E+000,0.00000E+000,0.00000E+000,0.00000E+000,0.00000E+000,0.00000E+000,0.00000E+000,0.00000E+000,0,0.00000E+000,2.81807E-001
1166,1265,1.14741E-001,2.23009E-001,2.74317E-003,0.00000E+000,0.00000E+000,0.00000E+000,0.00000E+000,0.00000E+000,0.00000E+000,0.00000E+000,0.00000E+000,0.00000E+000,0.00000E+000,0.00000E+000,0,0.00000E+000,2.81807E-001
1181,725,2.97676E-001,-9.93174E+000,-2.68891E-003,0.00000E+000,0.00000E+000,0.00000E+000,0.00000E+000,0.00000E+000,0.00000E+000,0.00000E+000,0.00000E+000,0.00000E+000,0.00000E+000,0.00000E+000,0,0.00000E+000,2.81807E-001
1211,755,8.69156E-001,-9.36989E+000,-1.50408E-003,0.00000E+000,0.00000E+000,0.00000E+000,0.00000E+000,0.00000E+000,0.00000E+000,0.00000E+000,0.00000E+000,0.00000E+000,0.00000E+000,0.00000E+000,0,0.00000E+000,2.81807E-001
1211,1190,9.50335E-001,-1.18882E+000,6.83168E-004,0.00000E+000,0.00000E+000,0.00000E+000,0.00000E+000,0.00000E+000,0.00000E+000,0.00000E+000,0.00000E+000,0.00000E+000,0.00000E+000,0.00000E+000,0,0.00000E+000,2.81807E-001
1151,935,-2.29379E-001,-5.98586E+000,-8.16596E-004,0.00000E+000,0.00000E+000,0.00000E+000,0.00000E+000,0.00000E+000,0.00000E+000,0.00000E+000,0.00000E+000,0.00000E+000,0.00000E+000,0.00000E+000,0,0.00000E+000,2.81807E-001
1211,1520,1.01167E+000,5.02808E+000,-1.39217E-003,0.00000E+000,0.00000E+000,0.00000E+000,0.00000E+000,0.00000E+000,0.00000E+000,0.00000E+000,0.00000E+000,0.00000E+000,0.00000E+000,0.00000E+000,0,0.00000E+000,2.81807E-001
1181,800,3.11888E-001,-8.52331E+000,7.69606E-004,0.00000E+000,0.00000E+000,0.00000E+000,0.00000E+000,0.00000E+000,0.00000E+000,0.00000E+000,0.00000E+000,0.00000E+000,0.00000E+000,0.00000E+000,0,0.00000E+000,2.81807E-001
1121,1415,-7.07599E-001,3.04768E+000,1.30996E-003,0.00000E+000,0.00000E+000,0.00000E+000,0.00000E+000,0.00000E+000,0.00000E+000,0.00000E+000,0.00000E+000,0.00000E+000,0.00000E+000,0.00000E+000,0,0.00000E+000,2.81807E-001
1196,1055,6.42514E-001,-3.72911E+000,4.70441E-003,0.00000E+000,0.00000E+000,0.00000E+000,0.00000E+000,0.00000E+000,0.00000E+000,0.00000E+000,0.00000E+000,0.00000E+000,0.00000E+000,0.00000E+000,0,0.00000E+000,2.81807E-001
1121,770,-8.24940E-001,-9.08529E+000,9.15108E-004,0.00000E+000,0.00000E+000,0.00000E+000,0.00000E+000,0.00000E+000,0.00000E+000,0.00000E+000,0.00000E+000,0.00000E+000,0.00000E+000,0.00000E+000,0,0.00000E+000,2.81807E-001
1226,1025,1.20273E+000,-4.29378E+000,3.55747E-004,0.00000E+000,0.00000E+000,0.00000E+000,0.00000E+000,0.00000E+000,0.00000E+000,0.00000E+000,0.00000E+000,0.00000E+000,0.00000E+000,0.00000E+000,0,0.00000E+000,2.81807E-001
1151,980,-2.21299E-001,-5.14020E+000,-2.11611E-003,0.00000E+000,0.00000E+000,0.00000E+000,0.00000E+000,0.00000E+000,0.00000E+000,0.00000E+000,0.00000E+000,0.00000E+000,0.00000E+000,0.00000E+000,0,0.00000E+000,2.81807E-001
1181,1265,3.98111E-001,2.23109E-001,3.86330E-003,0.00000E+000,0.00000E+000,0.00000E+000,0.00000E+000,0.00000E+000,0.00000E+000,0.00000E+000,0.00000E+000,0.00000E+000,0.00000E+000,0.00000E+000,0,0.00000E+000,2.81807E-001
1196,725,5.80777E-001,-9.93251E+000,-7.28120E-004,0.00000E+000,0.00000E+000,0.00000E+000,0.00000E+000,0.00000E+000,0.00000E+000,0.00000E+000,0.00000E+000,0.00000E+000,0.00000E+000,0.00000E+000,0,0.00000E+000,2.81807E-001
1181,1385,4.20011E-001,2.48343E+000,1.12000E-003,0.00000E+000,0.00000E+000,0.00000E+000,0.00000E+000,0.00000E+000,0.00000E+000,0.00000E+000,0.00000E+000,0.00000E+000,0.00000E+000,0.00000E+000,0,0.00000E+000,2.81807E-001
1181,965,3.42115E-001,-5.42206E+000,-9.09136E-004,0.00000E+000,0.00000E+000,0.00000E+000,0.00000E+000,0.00000E+000,0.00000E+000,0.00000E+000,0.00000E+000,0.00000E+000,0.00000E+000,0.00000E+000,0,0.00000E+000,2.81807E-001
1181,935,3.37113E-001,-5.98605E+000,3.64405E-003,0.00000E+000,0.00000E+000,0.00000E+000,0.00000E+000,0.00000E+000,0.00000E+000,0.00000E+000,0.00000E+000,0.00000E+000,0.00000E+000,0.00000E+000,0,0.00000E+000,2.81807E-001
1211,905,8.97321E-001,-6.55031E+000,9.43677E-004,0.00000E+000,0.00000E+000,0.00000E+000,0.00000E+000,0.00000E+000,0.00000E+000,0.00000E+000,0.00000E+000,0.00000E+000,0.00000E+000,0.00000E+000,0,0.00000E+000,2.81807E-001
1151,1115,-1.96554E-001,-2.60114E+000,-2.00806E-003,0.00000E+000,0.00000E+000,0.00000E+000,0.00000E+000,0.00000E+000,0.00000E+000,0.00000E+000,0.00000E+000,0.00000E+000,0.00000E+000,0.00000E+000,0,0.00000E+000,2.81807E-001
1226,1040,1.20576E+000,-4.01178E+000,2.31035E-003,0.00000E+000,0.00000E+000,0.00000E+000,0.00000E+000,0.00000E+000,0.00000E+000,0.00000E+000,0.00000E+000,0.00000E+000,0.00000E+000,0.00000E+000,0,0.00000E+000,2.81807E-001
1076,785,-1.67089E+000,-8.80253E+000,-3.37576E-003,0.00000E+000,0.00000E+000,0.00000E+000,0.00000E+000,0.00000E+000,0.00000E+000,0.00000E+000,0.00000E+000,0.00000E+000,0.00000E+000,0.00000E+000,0,0.00000E+000,2.81807E-001
1121,755,-8.27952E-001,-9.36717E+000,-1.60325E-003,0.00000E+000,0.00000E+000,0.00000E+000,0.00000E+000,0.00000E+000,0.00000E+000,0.00000E+000,0.00000E+000,0.00000E+000,0.00000E+000,0.00000E+000,0,0.00000E+000,2.81807E-001
1151,710,-2.70623E-001,-1.02128E+001,-1.82426E-003,0.00000E+000,0.00000E+000,0.00000E+000,0.00000E+000,0.00000E+000,0.00000E+000,0.00000E+000,0.00000E+000,0.00000E+000,0.00000E+000,0.00000E+000,0,0.00000E+000,2.81807E-001
1106,1400,-9.93962E-001,2.76435E+000,-2.28873E-003,0.00000E+000,0.00000E+000,0.00000E+000,0.00000E+000,0.00000E+000,0.00000E+000,0.00000E+000,0.00000E+000,0.00000E+000,0.00000E+000,0.00000E+000,0,0.00000E+000,2.81807E-001
1181,1130,3.73022E-001,-2.31854E+000,2.86177E-003,0.00000E+000,0.00000E+000,0.00000E+000,0.00000E+000,0.00000E+000,0.00000E+000,0.00000E+000,0.00000E+000,0.00000E+000,0.00000E+000,0.00000E+000,0,0.00000E+000,2.81807E-001
1136,800,-5.36824E-001,-8.52178E+000,-2.22335E-004,0.00000E+000,0.00000E+000,0.00000E+000,0.00000E+000,0.00000E+000,0.00000E+000,0.00000E+000,0.00000E+000,0.00000E+000,0.00000E+000,0.00000E+000,0,0.00000E+000,2.81807E-001
1166,1070,7.86576E-002,-3.44697E+000,1.26530E-003,0.00000E+000,0.00000E+000,0.00000E+000,0.00000E+000,0.00000E+000,0.00000E+000,0.00000E+000,0.00000E+000,0.00000E+000,0.00000E+000,0.00000E+000,0,0.00000E+000,2.81807E-001
1091,1430,-1.27208E+000,3.32890E+000,-5.56797E-003,0.00000E+000,0.00000E+000,0.00000E+000,0.00000E+000,0.00000E+000,0.00000E+000,0.00000E+000,0.00000E+000,0.00000E+000,0.00000E+000,0.00000E+000,0,0.00000E+000,2.81807E-001
1136,1415,-4.24379E-001,3.04787E+000,1.07633E-003,0.00000E+000,0.00000E+000,0.00000E+000,0.00000E+000,0.00000E+000,0.00000E+000,0.00000E+000,0.00000E+000,0.00000E+000,0.00000E+000,0.00000E+000,0,0.00000E+000,2.81807E-001
1241,770,1.43746E+000,-9.08864E+000,-5.42069E-003,0.00000E+000,0.00000E+000,0.00000E+000,0.00000E+000,0.00000E+000,0.00000E+000,0.00000E+000,0.00000E+000,0.00000E+000,0.00000E+000,0.00000E+000,0,0.00000E+000,2.81807E-001
1121,1595,-6.74946E-001,6.44007E+000,-5.38591E-004,0.00000E+000,0.00000E+000,0.00000E+000,0.00000E+000,0.00000E+000,0.00000E+000,0.00000E+000,0.00000E+000,0.00000E+000,0.00000E+000,0.00000E+000,0,0.00000E+000,2.81807E-001
1106,1385,-9.96871E-001,2.48120E+000,-3.79550E-003,0.00000E+000,0.00000E+000,0.00000E+000,0.00000E+000,0.00000E+000,0.00000E+000,0.00000E+000,0.00000E+000,0.00000E+000,0.00000E+000,0.00000E+000,0,0.00000E+000,2.81807E-001
1226,1340,1.26141E+000,1.63605E+000,-1.76605E-003,0.00000E+000,0.00000E+000,0.00000E+000,0.00000E+000,0.00000E+000,0.00000E+000,0.00000E+000,0.00000E+000,0.00000E+000,0.00000E+000,0.00000E+000,0,0.00000E+000,2.81807E-001
1196,980,6.28224E-001,-5.14016E+000,1.44507E-003,0.00000E+000,0.00000E+000,0.00000E+000,0.00000E+000,0.00000E+000,0.00000E+000,0.00000E+000,0.00000E+000,0.00000E+000,0.00000E+000,0.00000E+000,0,0.00000E+000,2.81807E-001
1211,1055,9.25302E-001,-3.72934E+000,1.61455E-003,0.00000E+000,0.00000E+000,0.00000E+000,0.00000E+000,0.00000E+000,0.00000E+000,0.00000E+000,0.00000E+000,0.00000E+000,0.00000E+000,0.00000E+000,0,0.00000E+000,2.81807E-001
1226,905,1.18038E+000,-6.55092E+000,8.86058E-004,0.00000E+000,0.00000E+000,0.00000E+000,0.00000E+000,0.00000E+000,0.00000E+000,0.00000E+000,0.00000E+000,0.00000E+000,0.00000E+000,0.00000E+000,0,0.00000E+000,2.81807E-001
1106,1565,-9.63806E-001,5.87399E+000,-1.02448E-003,0.00000E+000,0.00000E+000,0.00000E+000,0.00000E+000,0.00000E+000,0.00000E+000,0.00000E+000,0.00000E+000,0.00000E+000,0.00000E+000,0.00000E+000,0,0.00000E+000,2.81807E-001
1211,725,8.63755E-001,-9.93313E+000,-1.21500E-004,0.00000E+000,0.00000E+000,0.00000E+000,0.00000E+000,0.00000E+000,0.00000E+000,0.00000E+000,0.00000E+000,0.00000E+000,0.00000E+000,0.00000E+000,0,0.00000E+000,2.81807E-001
1181,740,3.00614E-001,-9.65009E+000,-1.17846E-003,0.00000E+000,0.00000E+000,0.00000E+000,0.00000E+000,0.00000E+000,0.00000E+000,0.00000E+000,0.00000E+000,0.00000E+000,0.00000E+000,0.00000E+000,0,0.00000E+000,2.81807E-001
1166,1685,1.91757E-001,8.13911E+000,-1.95302E-003,0.00000E+000,0.00000E+000,0.00000E+000,0.00000E+000,0.00000E+000,0.00000E+000,0.00000E+000,0.00000E+000,0.00000E+000,0.00000E+000,0.00000E+000,0,0.00000E+000,2.81807E-001
1106,1580,-9.61180E-001,6.15636E+000,-1.86480E-003,0.00000E+000,0.00000E+000,0.00000E+000,0.00000E+000,0.00000E+000,0.00000E+000,0.00000E+000,0.00000E+000,0.00000E+000,0.00000E+000,0.00000E+000,0,0.00000E+000,2.81807E-001
1166,1085,8.14257E-002,-3.16515E+000,1.38946E-003,0.00000E+000,0.00000E+000,0.00000E+000,0.00000E+000,0.00000E+000,0.00000E+000,0.00000E+000,0.00000E+000,0.00000E+000,0.00000E+000,0.00000E+000,0,0.00000E+000,2.81807E-001
1106,1235,-1.02367E+000,-3.42739E-001,-7.36468E-005,0.00000E+000,0.00000E+000,0.00000E+000,0.00000E+000,0.00000E+000,0.00000E+000,0.00000E+000,0.00000E+000,0.00000E+000,0.00000E+000,0.00000E+000,0,0.00000E+000,2.81807E-001
1106,935,-1.07789E+000,-5.98500E+000,8.83069E-004,0.00000E+000,0.00000E+000,0.00000E+000,0.00000E+000,0.00000E+000,0.00000E+000,0.00000E+000,0.00000E+000,0.00000E+000,0.00000E+000,0.00000E+000,0,0.00000E+000,2.81807E-001
1091,785,-1.38855E+000,-8.80302E+000,-6.44453E-003,0.00000E+000,0.00000E+000,0.00000E+000,0.00000E+000,0.00000E+000,0.00000E+000,0.00000E+000,0.00000E+000,0.00000E+000,0.00000E+000,0.00000E+000,0,0.00000E+000,2.81807E-001
1166,1220,1.06342E-001,-6.24046E-001,1.80868E-003,0.00000E+000,0.00000E+000,0.00000E+000,0.00000E+000,0.00000E+000,0.00000E+000,0.00000E+000,0.00000E+000,0.00000E+000,0.00000E+000,0.00000E+000,0,0.00000E+000,2.81807E-001
1211,1625,1.03157E+000,7.00958E+000,7.36440E-004,0.00000E+000,0.00000E+000,0.00000E+000,0.00000E+000,0.00000E+000,0.00000E+000,0.00000E+000,0.00000E+000,0.00000E+000,0.00000E+000,0.00000E+000,0,0.00000E+000,2.81807E-001
1166,965,5.91198E-002,-5.42207E+000,-6.53446E-004,0.00000E+000,0.00000E+000,0.00000E+000,0.00000E+000,0.00000E+000,0.00000E+000,0.00000E+000,0.00000E+000,0.00000E+000,0.00000E+000,0.00000E+000,0,0.00000E+000,2.81807E-001
1151,845,-2.46078E-001,-7.67701E+000,-2.89605E-003,0.00000E+000,0.00000E+000,0.00000E+000,0.00000E+000,0.00000E+000,0.00000E+000,0.00000E+000,0.00000E+000,0.00000E+000,0.00000E+000,0.00000E+000,0,0.00000E+000,2.81807E-001
1136,1265,-4.51959E-001,2.22420E-001,5.31562E-005,0.00000E+000,0.00000E+000,0.00000E+000,0.00000E+000,0.00000E+000,0.00000E+000,0.00000E+000,0.00000E+000,0.00000E+000,0.00000E+000,0.00000E+000,0,0.00000E+000,2.81807E-001
1181,1085,3.64697E-001,-3.16506E+000,2.74653E-003,0.00000E+000,0.00000E+000,0.00000E+000,0.00000E+000,0.00000E+000,0.00000E+000,0.00000E+000,0.00000E+000,0.00000E+000,0.00000E+000,0.00000E+000,0,0.00000E+000,2.81807E-001
1211,1505,1.00901E+000,4.74538E+000,-2.36969E-004,0.00000E+000,0.00000E+000,0.00000E+000,0.00000E+000,0.00000E+000,0.00000E+000,0.00000E+000,0.00000E+000,0.00000E+000,0.00000E+000,0.00000E+000,0,0.00000E+000,2.81807E-001
1136,710,-5.53257E-001,-1.02122E+001,-6.84512E-004,0.00000E+000,0.00000E+000,0.00000E+000,0.00000E+000,0.00000E+000,0.00000E+000,0.00000E+000,0.00000E+000,0.00000E+000,0.00000E+000,0.00000E+000,0,0.00000E+000,2.81807E-001
1196,800,5.94646E-001,-8.52345E+000,-7.55695E-004,0.00000E+000,0.00000E+000,0.00000E+000,0.00000E+000,0.00000E+000,0.00000E+000,0.00000E+000,0.00000E+000,0.00000E+000,0.00000E+000,0.00000E+000,0,0.00000E+000,2.81807E-001
1181,1145,3.75694E-001,-2.03624E+000,2.00319E-003,0.00000E+000,0.00000E+000,0.00000E+000,0.00000E+000,0.00000E+000,0.00000E+000,0.00000E+000,0.00000E+000,0.00000E+000,0.00000E+000,0.00000E+000,0,0.00000E+000,2.81807E-001
1211,980,9.11545E-001,-5.14012E+000,3.30614E-003,0.00000E+000,0.00000E+000,0.00000E+000,0.00000E+000,0.00000E+000,0.00000E+000,0.00000E+000,0.00000E+000,0.00000E+000,0.00000E+000,0.00000E+000,0,0.00000E+000,2.81807E-001
1181,1685,4.75495E-001,8.13988E+000,-2.61035E-004,0.00000E+000,0.00000E+000,0.00000E+000,0.00000E+000,0.00000E+000,0.00000E+000,0.00000E+000,0.00000E+000,0.00000E+000,0.00000E+000,0.00000E+000,0,0.00000E+000,2.81807E-001
1136,1490,-4.10547E-001,4.46085E+000,1.90112E-003,0.00000E+000,0.00000E+000,0.00000E+000,0.00000E+000,0.00000E+000,0.00000E+000,0.00000E+000,0.00000E+000,0.00000E+000,0.00000E+000,0.00000E+000,0,0.00000E+000,2.81807E-001
1166,1340,1.28249E-001,1.63541E+000,-2.14302E-005,0.00000E+000,0.00000E+000,0.00000E+000,0.00000E+000,0.00000E+000,0.00000E+000,0.00000E+000,0.00000E+000,0.00000E+000,0.00000E+000,0.00000E+000,0,0.00000E+000,2.81807E-001
1106,1430,-9.88522E-001,3.32955E+000,-2.40685E-003,0.00000E+000,0.00000E+000,0.00000E+000,0.00000E+000,0.00000E+000,0.00000E+000,0.00000E+000,0.00000E+000,0.00000E+000,0.00000E+000,0.00000E+000,0,0.00000E+000,2.81807E-001
1151,1655,-9.71281E-002,7.57279E+000,-7.15449E-004,0.00000E+000,0.00000E+000,0.00000E+000,0.00000E+000,0.00000E+000,0.00000E+000,0.00000E+000,0.00000E+000,0.00000E+000,0.00000E+000,0.00000E+000,0,0.00000E+000,2.81807E-001
1121,1385,-7.13497E-001,2.48177E+000,-2.27485E-003,0.00000E+000,0.00000E+000,0.00000E+000,0.00000E+000,0.00000E+000,0.00000E+000,0.00000E+000,0.00000E+000,0.00000E+000,0.00000E+000,0.00000E+000,0,0.00000E+000,2.81807E-001
1151,695,-2.73442E-001,-1.04943E+001,-2.54670E-003,0.00000E+000,0.00000E+000,0.00000E+000,0.00000E+000,0.00000E+000,0.00000E+000,0.00000E+000,0.00000E+000,0.00000E+000,0.00000E+000,0.00000E+000,0,0.00000E+000,2.81807E-001
1121,1400,-7.10192E-001,2.76515E+000,2.55140E-003,0.00000E+000,0.00000E+000,0.00000E+000,0.00000E+000,0.00000E+000,0.00000E+000,0.00000E+000,0.00000E+000,0.00000E+000,0.00000E+000,0.00000E+000,0,0.00000E+000,2.81807E-001
1211,1535,1.01466E+000,5.31127E+000,1.26482E-004,0.00000E+000,0.00000E+000,0.00000E+000,0.00000E+000,0.00000E+000,0.00000E+000,0.00000E+000,0.00000E+000,0.00000E+000,0.00000E+000,0.00000E+000,0,0.00000E+000,2.81807E-001
1121,1235,-7.40461E-001,-3.42353E-001,9.40472E-004,0.00000E+000,0.00000E+000,0.00000E+000,0.00000E+000,0.00000E+000,0.00000E+000,0.00000E+000,0.00000E+000,0.00000E+000,0.00000E+000,0.00000E+000,0,0.00000E+000,2.81807E-001
1136,680,-5.59243E-001,-1.07757E+001,-5.23744E-003,0.00000E+000,0.00000E+000,0.00000E+000,0.00000E+000,0.00000E+000,0.00000E+000,0.00000E+000,0.00000E+000,0.00000E+000,0.00000E+000,0.00000E+000,0,0.00000E+000,2.81807E-001
1091,1355,-1.28452E+000,1.91667E+000,4.32421E-003,0.00000E+000,0.00000E+000,0.00000E+000,0.00000E+000,0.00000E+000,0.00000E+000,0.00000E+000,0.00000E+000,0.00000E+000,0.00000E+000,0.00000E+000,0,0.00000E+000,2.81807E-001
1106,785,-1.10552E+000,-8.80346E+000,-3.76046E-003,0.00000E+000,0.00000E+000,0.00000E+000,0.00000E+000,0.00000E+000,0.00000E+000,0.00000E+000,0.00000E+000,0.00000E+000,0.00000E+000,0.00000E+000,0,0.00000E+000,2.81807E-001
1211,665,8.52111E-001,-1.10601E+001,-4.42395E-003,0.00000E+000,0.00000E+000,0.00000E+000,0.00000E+000,0.00000E+000,0.00000E+000,0.00000E+000,0.00000E+000,0.00000E+000,0.00000E+000,0.00000E+000,0,0.00000E+000,2.81807E-001
1226,1055,1.20840E+000,-3.72948E+000,8.64312E-004,0.00000E+000,0.00000E+000,0.00000E+000,0.00000E+000,0.00000E+000,0.00000E+000,0.00000E+000,0.00000E+000,0.00000E+000,0.00000E+000,0.00000E+000,0,0.00000E+000,2.81807E-001
1196,740,5.83458E-001,-9.65086E+000,-1.50486E-003,0.00000E+000,0.00000E+000,0.00000E+000,0.00000E+000,0.00000E+000,0.00000E+000,0.00000E+000,0.00000E+000,0.00000E+000,0.00000E+000,0.00000E+000,0,0.00000E+000,2.81807E-001
1181,1220,3.89252E-001,-6.24563E-001,-6.45248E-004,0.00000E+000,0.00000E+000,0.00000E+000,0.00000E+000,0.00000E+000,0.00000E+000,0.00000E+000,0.00000E+000,0.00000E+000,0.00000E+000,0.00000E+000,0,0.00000E+000,2.81807E-001
1121,800,-8.19659E-001,-8.52155E+000,-4.84183E-004,0.00000E+000,0.00000E+000,0.00000E+000,0.00000E+000,0.00000E+000,0.00000E+000,0.00000E+000,0.00000E+000,0.00000E+000,0.00000E+000,0.00000E+000,0,0.00000E+000,2.81807E-001
1136,1085,-4.84360E-001,-3.16460E+000,4.23734E-003,0.00000E+000,0.00000E+000,0.00000E+000,0.00000E+000,0.00000E+000,0.00000E+000,0.00000E+000,0.00000E+000,0.00000E+000,0.00000E+000,0.00000E+000,0,0.00000E+000,2.81807E-001
1166,935,5.39124E-002,-5.98597E+000,1.95232E-003,0.00000E+000,0.00000E+000,0.00000E+000,0.00000E+000,0.00000E+000,0.00000E+000,0.00000E+000,0.00000E+000,0.00000E+000,0.00000E+000,0.00000E+000,0,0.00000E+000,2.81807E-001
1076,845,-1.65791E+000,-7.67450E+000,1.60874E-002,0.00000E+000,0.00000E+000,0.00000E+000,0.00000E+000,0.00000E+000,0.00000E+000,0.00000E+000,0.00000E+000,0.00000E+000,0.00000E+000,0.00000E+000,0,0.00000E+000,2.81807E-001
1196,1085,6.47798E-001,-3.16519E+000,2.40101E-003,0.00000E+000,0.00000E+000,0.00000E+000,0.00000E+000,0.00000E+000,0.00000E+000,0.00000E+000,0.00000E+000,0.00000E+000,0.00000E+000,0.00000E+000,0,0.00000E+000,2.81807E-001
1241,1700,1.61289E+000,8.42574E+000,4.65797E-004,0.00000E+000,0.00000E+000,0.00000E+000,0.00000E+000,0.00000E+000,0.00000E+000,0.00000E+000,0.00000E+000,0.00000E+000,0.00000E+000,0.00000E+000,0,0.00000E+000,2.81807E-001
1271,1730,2.18561E+000,8.99278E+000,-3.06633E-003,0.00000E+000,0.00000E+000,0.00000E+000,0.00000E+000,0.00000E+000,0.00000E+000,0.00000E+000,0.00000E+000,0.00000E+000,0.00000E+000,0.00000E+000,0,0.00000E+000,2.81807E-001
1226,1070,1.21090E+000,-3.44737E+000,-1.69621E-003,0.00000E+000,0.00000E+000,0.00000E+000,0.00000E+000,0.00000E+000,0.00000E+000,0.00000E+000,0.00000E+000,0.00000E+000,0.00000E+000,0.00000E+000,0,0.00000E+000,2.81807E-001
1151,1220,-1.76566E-001,-6.23795E-001,4.06677E-003,0.00000E+000,0.00000E+000,0.00000E+000,0.00000E+000,0.00000E+000,0.00000E+000,0.00000E+000,0.00000E+000,0.00000E+000,0.00000E+000,0.00000E+000,0,0.00000E+000,2.81807E-001
1091,1565,-1.24680E+000,5.87408E+000,1.49255E-003,0.00000E+000,0.00000E+000,0.00000E+000,0.00000E+000,0.00000E+000,0.00000E+000,0.00000E+000,0.00000E+000,0.00000E+000,0.00000E+000,0.00000E+000,0,0.00000E+000,2.81807E-001
1136,1370,-4.32711E-001,2.19963E+000,3.57475E-004,0.00000E+000,0.00000E+000,0.00000E+000,0.00000E+000,0.00000E+000,0.00000E+000,0.00000E+000,0.00000E+000,0.00000E+000,0.00000E+000,0.00000E+000,0,0.00000E+000,2.81807E-001
1166,1655,1.86118E-001,7.57353E+000,-2.79443E-003,0.00000E+000,0.00000E+000,0.00000E+000,0.00000E+000,0.00000E+000,0.00000E+000,0.00000E+000,0.00000E+000,0.00000E+000,0.00000E+000,0.00000E+000,0,0.00000E+000,2.81807E-001
1211,920,8.99993E-001,-6.26866E+000,-1.16114E-006,0.00000E+000,0.00000E+000,0.00000E+000,0.00000E+000,0.00000E+000,0.00000E+000,0.00000E+000,0.00000E+000,0.00000E+000,0.00000E+000,0.00000E+000,0,0.00000E+000,2.81807E-001
1121,1430,-7.05163E-001,3.32958E+000,-1.20396E-003,0.00000E+000,0.00000E+000,0.00000E+000,0.00000E+000,0.00000E+000,0.00000E+000,0.00000E+000,0.00000E+000,0.00000E+000,0.00000E+000,0.00000E+000,0,0.00000E+000,2.81807E-001
1256,1700,1.89653E+000,8.42658E+000,-1.88387E-004,0.00000E+000,0.00000E+000,0.00000E+000,0.00000E+000,0.00000E+000,0.00000E+000,0.00000E+000,0.00000E+000,0.00000E+000,0.00000E+000,0.00000E+000,0,0.00000E+000,2.81807E-001
1091,830,-1.38016E+000,-7.95791E+000,-3.78253E-003,0.00000E+000,0.00000E+000,0.00000E+000,0.00000E+000,0.00000E+000,0.00000E+000,0.00000E+000,0.00000E+000,0.00000E+000,0.00000E+000,0.00000E+000,0,0.00000E+000,2.81807E-001
1151,1370,-1.49253E-001,2.19966E+000,2.19116E-003,0.00000E+000,0.00000E+000,0.00000E+000,0.00000E+000,0.00000E+000,0.00000E+000,0.00000E+000,0.00000E+000,0.00000E+000,0.00000E+000,0.00000E+000,0,0.00000E+000,2.81807E-001
1136,695,-5.56289E-001,-1.04938E+001,-3.33133E-003,0.00000E+000,0.00000E+000,0.00000E+000,0.00000E+000,0.00000E+000,0.00000E+000,0.00000E+000,0.00000E+000,0.00000E+000,0.00000E+000,0.00000E+000,0,0.00000E+000,2.81807E-001
1151,1070,-2.04474E-001,-3.44702E+000,7.25930E-004,0.00000E+000,0.00000E+000,0.00000E+000,0.00000E+000,0.00000E+000,0.00000E+000,0.00000E+000,0.00000E+000,0.00000E+000,0.00000E+000,0.00000E+000,0,0.00000E+000,2.81807E-001
1151,1730,-8.35023E-002,8.98784E+000,-2.39963E-003,0.00000E+000,0.00000E+000,0.00000E+000,0.00000E+000,0.00000E+000,0.00000E+000,0.00000E+000,0.00000E+000,0.00000E+000,0.00000E+000,0.00000E+000,0,0.00000E+000,2.81807E-001
1241,1655,1.60432E+000,7.57646E+000,-2.83178E-004,0.00000E+000,0.00000E+000,0.00000E+000,0.00000E+000,0.00000E+000,0.00000E+000,0.00000E+000,0.00000E+000,0.00000E+000,0.00000E+000,0.00000E+000,0,0.00000E+000,2.81807E-001
1211,1085,9.30907E-001,-3.16487E+000,1.77758E-003,0.00000E+000,0.00000E+000,0.00000E+000,0.00000E+000,0.00000E+000,0.00000E+000,0.00000E+000,0.00000E+000,0.00000E+000,0.00000E+000,0.00000E+000,0,0.00000E+000,2.81807E-001
1226,920,1.18303E+000,-6.26926E+000,-3.64864E-004,0.00000E+000,0.00000E+000,0.00000E+000,0.00000E+000,0.00000E+000,0.00000E+000,0.00000E+000,0.00000E+000,0.00000E+000,0.00000E+000,0.00000E+000,0,0.00000E+000,2.81807E-001
1061,695,-1.96969E+000,-1.04925E+001,-4.13164E-003,0.00000E+000,0.00000E+000,0.00000E+000,0.00000E+000,0.00000E+000,0.00000E+000,0.00000E+000,0.00000E+000,0.00000E+000,0.00000E+000,0.00000E+000,0,0.00000E+000,2.81807E-001
1226,1190,1.23342E+000,-1.18888E+000,-9.52131E-004,0.00000E+000,0.00000E+000,0.00000E+000,0.00000E+000,0.00000E+000,0.00000E+000,0.00000E+000,0.00000E+000,0.00000E+000,0.00000E+000,0.00000E+000,0,0.00000E+000,2.81807E-001
1256,1655,1.88797E+000,7.57689E+000,-4.68857E-004,0.00000E+000,0.00000E+000,0.00000E+000,0.00000E+000,0.00000E+000,0.00000E+000,0.00000E+000,0.00000E+000,0.00000E+000,0.00000E+000,0.00000E+000,0,0.00000E+000,2.81807E-001
1226,1085,1.21367E+000,-3.16502E+000,-1.99712E-003,0.00000E+000,0.00000E+000,0.00000E+000,0.00000E+000,0.00000E+000,0.00000E+000,0.00000E+000,0.00000E+000,0.00000E+000,0.00000E+000,0.00000E+000,0,0.00000E+000,2.81807E-001
1076,830,-1.66174E+000,-7.95634E+000,6.06441E-003,0.00000E+000,0.00000E+000,0.00000E+000,0.00000E+000,0.00000E+000,0.00000E+000,0.00000E+000,0.00000E+000,0.00000E+000,0.00000E+000,0.00000E+000,0,0.00000E+000,2.81807E-001
1271,1700,2.18043E+000,8.42747E+000,1.07954E-003,0.00000E+000,0.00000E+000,0.00000E+000,0.00000E+000,0.00000E+000,0.00000E+000,0.00000E+000,0.00000E+000,0.00000E+000,0.00000E+000,0.00000E+000,0,0.00000E+000,2.81807E-001
1166,1370,1.34268E-001,2.20042E+000,4.16249E-003,0.00000E+000,0.00000E+000,0.00000E+000,0.00000E+000,0.00000E+000,0.00000E+000,0.00000E+000,0.00000E+000,0.00000E+000,0.00000E+000,0.00000E+000,0,0.00000E+000,2.81807E-001
1091,1730,-1.21718E+000,8.98521E+000,-1.15896E-003,0.00000E+000,0.00000E+000,0.00000E+000,0.00000E+000,0.00000E+000,0.00000E+000,0.00000E+000,0.00000E+000,0.00000E+000,0.00000E+000,0.00000E+000,0,0.00000E+000,2.81807E-001
1151,1250,-1.71578E-001,-5.98764E-002,-2.87044E-004,0.00000E+000,0.00000E+000,0.00000E+000,0.00000E+000,0.00000E+000,0.00000E+000,0.00000E+000,0.00000E+000,0.00000E+000,0.00000E+000,0.00000E+000,0,0.00000E+000,2.81807E-001
1076,695,-1.68730E+000,-1.04931E+001,-5.87403E-003,0.00000E+000,0.00000E+000,0.00000E+000,0.00000E+000,0.00000E+000,0.00000E+000,0.00000E+000,0.00000E+000,0.00000E+000,0.00000E+000,0.00000E+000,0,0.00000E+000,2.81807E-001
1091,965,-1.35586E+000,-5.42149E+000,-3.75245E-003,0.00000E+000,0.00000E+000,0.00000E+000,0.00000E+000,0.00000E+000,0.00000E+000,0.00000E+000,0.00000E+000,0.00000E+000,0.00000E+000,0.00000E+000,0,0.00000E+000,2.81807E-001
1196,1115,6.53201E-001,-2.60085E+000,1.04547E-003,0.00000E+000,0.00000E+000,0.00000E+000,0.00000E+000,0.00000E+000,0.00000E+000,0.00000E+000,0.00000E+000,0.00000E+000,0.00000E+000,0.00000E+000,0,0.00000E+000,2.81807E-001
1151,1490,-1.27204E-001,4.46148E+000,1.91966E-003,0.00000E+000,0.00000E+000,0.00000E+000,0.00000E+000,0.00000E+000,0.00000E+000,0.00000E+000,0.00000E+000,0.00000E+000,0.00000E+000,0.00000E+000,0,0.00000E+000,2.81807E-001
1136,1040,-4.93385E-001,-4.01159E+000,-2.70534E-003,0.00000E+000,0.00000E+000,0.00000E+000,0.00000E+000,0.00000E+000,0.00000E+000,0.00000E+000,0.00000E+000,0.00000E+000,0.00000E+000,0.00000E+000,0,0.00000E+000,2.81807E-001
1151,1085,-2.01589E-001,-3.16501E+000,1.92141E-003,0.00000E+000,0.00000E+000,0.00000E+000,0.00000E+000,0.00000E+000,0.00000E+000,0.00000E+000,0.00000E+000,0.00000E+000,0.00000E+000,0.00000E+000,0,0.00000E+000,2.81807E-001
1106,1655,-9.47132E-001,7.57100E+000,1.51747E-003,0.00000E+000,0.00000E+000,0.00000E+000,0.00000E+000,0.00000E+000,0.00000E+000,0.00000E+000,0.00000E+000,0.00000E+000,0.00000E+000,0.00000E+000,0,0.00000E+000,2.81807E-001
1151,815,-2.51748E-001,-8.24115E+000,-4.42984E-003,0.00000E+000,0.00000E+000,0.00000E+000,0.00000E+000,0.00000E+000,0.00000E+000,0.00000E+000,0.00000E+000,0.00000E+000,0.00000E+000,0.00000E+000,0,0.00000E+000,2.81807E-001
1226,1700,1.32917E+000,8.42493E+000,1.04269E-004,0.00000E+000,0.00000E+000,0.00000E+000,0.00000E+000,0.00000E+000,0.00000E+000,0.00000E+000,0.00000E+000,0.00000E+000,0.00000E+000,0.00000E+000,0,0.00000E+000,2.81807E-001
1091,995,-1.34961E+000,-4.85707E+000,3.58402E-003,0.00000E+000,0.00000E+000,0.00000E+000,0.00000E+000,0.00000E+000,0.00000E+000,0.00000E+000,0.00000E+000,0.00000E+000,0.00000E+000,0.00000E+000,0,0.00000E+000,2.81807E-001
1136,1070,-4.87310E-001,-3.44691E+000,2.42583E-003,0.00000E+000,0.00000E+000,0.00000E+000,0.00000E+000,0.00000E+000,0.00000E+000,0.00000E+000,0.00000E+000,0.00000E+000,0.00000E+000,0.00000E+000,0,0.00000E+000,2.81807E-001
1091,695,-1.40462E+000,-1.04934E+001,-5.40948E-003,0.00000E+000,0.00000E+000,0.00000E+000,0.00000E+000,0.00000E+000,0.00000E+000,0.00000E+000,0.00000E+000,0.00000E+000,0.00000E+000,0.00000E+000,0,0.00000E+000,2.81807E-001
1181,1370,4.17564E-001,2.20114E+000,3.91230E-003,0.00000E+000,0.00000E+000,0.00000E+000,0.00000E+000,0.00000E+000,0.00000E+000,0.00000E+000,0.00000E+000,0.00000E+000,0.00000E+000,0.00000E+000,0,0.00000E+000,2.81807E-001
1166,1250,1.11674E-001,-5.95703E-002,1.70081E-004,0.00000E+000,0.00000E+000,0.00000E+000,0.00000E+000,0.00000E+000,0.00000E+000,0.00000E+000,0.00000E+000,0.00000E+000,0.00000E+000,0.00000E+000,0,0.00000E+000,2.81807E-001
1196,920,6.16963E-001,-6.26852E+000,2.13880E-004,0.00000E+000,0.00000E+000,0.00000E+000,0.00000E+000,0.00000E+000,0.00000E+000,0.00000E+000,0.00000E+000,0.00000E+000,0.00000E+000,0.00000E+000,0,0.00000E+000,2.81807E-001
1136,1385,-4.30141E-001,2.48239E+000,-1.19782E-003,0.00000E+000,0.00000E+000,0.00000E+000,0.00000E+000,0.00000E+000,0.00000E+000,0.00000E+000,0.00000E+000,0.00000E+000,0.00000E+000,0.00000E+000,0,0.00000E+000,2.81807E-001
1121,1325,-7.23853E-001,1.35229E+000,2.73257E-003,0.00000E+000,0.00000E+000,0.00000E+000,0.00000E+000,0.00000E+000,0.00000E+000,0.00000E+000,0.00000E+000,0.00000E+000,0.00000E+000,0.00000E+000,0,0.00000E+000,2.81807E-001
1151,680,-2.76193E-001,-1.07758E+001,-2.65411E-003,0.00000E+000,0.00000E+000,0.00000E+000,0.00000E+000,0.00000E+000,0.00000E+000,0.00000E+000,0.00000E+000,0.00000E+000,0.00000E+000,0.00000E+000,0,0.00000E+000,2.81807E-001
1106,1730,-9.33627E-001,8.98626E+000,7.65434E-005,0.00000E+000,0.00000E+000,0.00000E+000,0.00000E+000,0.00000E+000,0.00000E+000,0.00000E+000,0.00000E+000,0.00000E+000,0.00000E+000,0.00000E+000,0,0.00000E+000,2.81807E-001
1151,1040,-2.10263E-001,-4.01149E+000,-1.77445E-003,0.00000E+000,0.00000E+000,0.00000E+000,0.00000E+000,0.00000E+000,0.00000E+000,0.00000E+000,0.00000E+000,0.00000E+000,0.00000E+000,0.00000E+000,0,0.00000E+000,2.81807E-001
1196,1655,7.53350E-001,7.57452E+000,-1.33728E-003,0.00000E+000,0.00000E+000,0.00000E+000,0.00000E+000,0.00000E+000,0.00000E+000,0.00000E+000,0.00000E+000,0.00000E+000,0.00000E+000,0.00000E+000,0,0.00000E+000,2.81807E-001
1166,815,3.13287E-002,-8.24145E+000,-2.71826E-003,0.00000E+000,0.00000E+000,0.00000E+000,0.00000E+000,0.00000E+000,0.00000E+000,0.00000E+000,0.00000E+000,0.00000E+000,0.00000E+000,0.00000E+000,0,0.00000E+000,2.81807E-001
1211,740,8.66580E-001,-9.65133E+000,2.16002E-004,0.00000E+000,0.00000E+000,0.00000E+000,0.00000E+000,0.00000E+000,0.00000E+000,0.00000E+000,0.00000E+000,0.00000E+000,0.00000E+000,0.00000E+000,0,0.00000E+000,2.81807E-001
1136,1400,-4.27161E-001,2.76514E+000,7.96521E-004,0.00000E+000,0.00000E+000,0.00000E+000,0.00000E+000,0.00000E+000,0.00000E+000,0.00000E+000,0.00000E+000,0.00000E+000,0.00000E+000,0.00000E+000,0,0.00000E+000,2.81807E-001
1196,1145,6.58632E-001,-2.03604E+000,-1.46271E-004,0.00000E+000,0.00000E+000,0.00000E+000,0.00000E+000,0.00000E+000,0.00000E+000,0.00000E+000,0.00000E+000,0.00000E+000,0.00000E+000,0.00000E+000,0,0.00000E+000,2.81807E-001
1166,1490,1.55984E-001,4.46206E+000,3.38477E-004,0.00000E+000,0.00000E+000,0.00000E+000,0.00000E+000,0.00000E+000,0.00000E+000,0.00000E+000,0.00000E+000,0.00000E+000,0.00000E+000,0.00000E+000,0,0.00000E+000,2.81807E-001
1181,1250,3.95173E-001,-5.93518E-002,2.47219E-003,0.00000E+000,0.00000E+000,0.00000E+000,0.00000E+000,0.00000E+000,0.00000E+000,0.00000E+000,0.00000E+000,0.00000E+000,0.00000E+000,0.00000E+000,0,0.00000E+000,2.81807E-001
1091,1415,-1.27493E+000,3.04612E+000,-6.67149E-003,0.00000E+000,0.00000E+000,0.00000E+000,0.00000E+000,0.00000E+000,0.00000E+000,0.00000E+000,0.00000E+000,0.00000E+000,0.00000E+000,0.00000E+000,0,0.00000E+000,2.81807E-001
1151,1100,-1.98928E-001,-2.88307E+000,1.19491E-003,0.00000E+000,0.00000E+000,0.00000E+000,0.00000E+000,0.00000E+000,0.00000E+000,0.00000E+000,0.00000E+000,0.00000E+000,0.00000E+000,0.00000E+000,0,0.00000E+000,2.81807E-001
1121,680,-8.41708E-001,-1.07750E+001,-3.12728E-003,0.00000E+000,0.00000E+000,0.00000E+000,0.00000E+000,0.00000E+000,0.00000E+000,0.00000E+000,0.00000E+000,0.00000E+000,0.00000E+000,0.00000E+000,0,0.00000E+000,2.81807E-001
1106,1220,-1.02652E+000,-6.25361E-001,-1.19854E-003,0.00000E+000,0.00000E+000,0.00000E+000,0.00000E+000,0.00000E+000,0.00000E+000,0.00000E+000,0.00000E+000,0.00000E+000,0.00000E+000,0.00000E+000,0,0.00000E+000,2.81807E-001
1121,1115,-7.62571E-001,-2.60101E+000,-1.31810E-003,0.00000E+000,0.00000E+000,0.00000E+000,0.00000E+000,0.00000E+000,0.00000E+000,0.00000E+000,0.00000E+000,0.00000E+000,0.00000E+000,0.00000E+000,0,0.00000E+000,2.81807E-001
1061,1715,-1.78693E+000,8.70028E+000,-3.96425E-003,0.00000E+000,0.00000E+000,0.00000E+000,0.00000E+000,0.00000E+000,0.00000E+000,0.00000E+000,0.00000E+000,0.00000E+000,0.00000E+000,0.00000E+000,0,0.00000E+000,2.81807E-001
1106,695,-1.12188E+000,-1.04936E+001,-4.78433E-003,0.00000E+000,0.00000E+000,0.00000E+000,0.00000E+000,0.00000E+000,0.00000E+000,0.00000E+000,0.00000E+000,0.00000E+000,0.00000E+000,0.00000E+000,0,0.00000E+000,2.81807E-001
1196,1385,7.03442E-001,2.48344E+000,1.77892E-003,0.00000E+000,0.00000E+000,0.00000E+000,0.00000E+000,0.00000E+000,0.00000E+000,0.00000E+000,0.00000E+000,0.00000E+000,0.00000E+000,0.00000E+000,0,0.00000E+000,2.81807E-001
1181,830,3.17261E-001,-7.95956E+000,-5.71613E-004,0.00000E+000,0.00000E+000,0.00000E+000,0.00000E+000,0.00000E+000,0.00000E+000,0.00000E+000,0.00000E+000,0.00000E+000,0.00000E+000,0.00000E+000,0,0.00000E+000,2.81807E-001
1181,815,3.14846E-001,-8.24114E+000,2.38242E-003,0.00000E+000,0.00000E+000,0.00000E+000,0.00000E+000,0.00000E+000,0.00000E+000,0.00000E+000,0.00000E+000,0.00000E+000,0.00000E+000,0.00000E+000,0,0.00000E+000,2.81807E-001
1061,680,-1.97270E+000,-1.07738E+001,-7.08407E-003,0.00000E+000,0.00000E+000,0.00000E+000,0.00000E+000,0.00000E+000,0.00000E+000,0.00000E+000,0.00000E+000,0.00000E+000,0.00000E+000,0.00000E+000,0,0.00000E+000,2.81807E-001
1211,1655,1.03692E+000,7.57528E+000,-1.43030E-003,0.00000E+000,0.00000E+000,0.00000E+000,0.00000E+000,0.00000E+000,0.00000E+000,0.00000E+000,0.00000E+000,0.00000E+000,0.00000E+000,0.00000E+000,0,0.00000E+000,2.81807E-001
1211,1175,9.47489E-001,-1.47147E+000,2.94817E-004,0.00000E+000,0.00000E+000,0.00000E+000,0.00000E+000,0.00000E+000,0.00000E+000,0.00000E+000,0.00000E+000,0.00000E+000,0.00000E+000,0.00000E+000,0,0.00000E+000,2.81807E-001
1181,920,3.34061E-001,-6.26833E+000,1.24053E-003,0.00000E+000,0.00000E+000,0.00000E+000,0.00000E+000,0.00000E+000,0.00000E+000,0.00000E+000,0.00000E+000,0.00000E+000,0.00000E+000,0.00000E+000,0,0.00000E+000,2.81807E-001
1211,1115,9.36514E-001,-2.60101E+000,2.04939E-003,0.00000E+000,0.00000E+000,0.00000E+000,0.00000E+000,0.00000E+000,0.00000E+000,0.00000E+000,0.00000E+000,0.00000E+000,0.00000E+000,0.00000E+000,0,0.00000E+000,2.81807E-001
1106,1520,-9.72363E-001,5.02475E+000,-4.10095E-003,0.00000E+000,0.00000E+000,0.00000E+000,0.00000E+000,0.00000E+000,0.00000E+000,0.00000E+000,0.00000E+000,0.00000E+000,0.00000E+000,0.00000E+000,0,0.00000E+000,2.81807E-001
1136,1325,-4.40810E-001,1.35223E+000,1.53567E-003,0.00000E+000,0.00000E+000,0.00000E+000,0.00000E+000,0.00000E+000,0.00000E+000,0.00000E+000,0.00000E+000,0.00000E+000,0.00000E+000,0.00000E+000,0,0.00000E+000,2.81807E-001
1121,1220,-7.43329E-001,-6.24666E-001,-2.44062E-004,0.00000E+000,0.00000E+000,0.00000E+000,0.00000E+000,0.00000E+000,0.00000E+000,0.00000E+000,0.00000E+000,0.00000E+000,0.00000E+000,0.00000E+000,0,0.00000E+000,2.81807E-001
1076,1595,-1.52483E+000,6.43866E+000,-7.72623E-005,0.00000E+000,0.00000E+000,0.00000E+000,0.00000E+000,0.00000E+000,0.00000E+000,0.00000E+000,0.00000E+000,0.00000E+000,0.00000E+000,0.00000E+000,0,0.00000E+000,2.81807E-001
1106,995,-1.06769E+000,-4.85759E+000,-4.74672E-003,0.00000E+000,0.00000E+000,0.00000E+000,0.00000E+000,0.00000E+000,0.00000E+000,0.00000E+000,0.00000E+000,0.00000E+000,0.00000E+000,0.00000E+000,0,0.00000E+000,2.81807E-001
1196,830,6.00619E-001,-7.95960E+000,2.82202E-003,0.00000E+000,0.00000E+000,0.00000E+000,0.00000E+000,0.00000E+000,0.00000E+000,0.00000E+000,0.00000E+000,0.00000E+000,0.00000E+000,0.00000E+000,0,0.00000E+000,2.81807E-001
1136,1220,-4.60163E-001,-6.24124E-001,1.79724E-004,0.00000E+000,0.00000E+000,0.00000E+000,0.00000E+000,0.00000E+000,0.00000E+000,0.00000E+000,0.00000E+000,0.00000E+000,0.00000E+000,0.00000E+000,0,0.00000E+000,2.81807E-001
1151,1340,-1.54777E-001,1.63517E+000,2.01238E-003,0.00000E+000,0.00000E+000,0.00000E+000,0.00000E+000,0.00000E+000,0.00000E+000,0.00000E+000,0.00000E+000,0.00000E+000,0.00000E+000,0.00000E+000,0,0.00000E+000,2.81807E-001
1076,860,-1.65400E+000,-7.39286E+000,2.68785E-002,0.00000E+000,0.00000E+000,0.00000E+000,0.00000E+000,0.00000E+000,0.00000E+000,0.00000E+000,0.00000E+000,0.00000E+000,0.00000E+000,0.00000E+000,0,0.00000E+000,2.81807E-001
1106,875,-1.08911E+000,-7.11255E+000,-2.38227E-003,0.00000E+000,0.00000E+000,0.00000E+000,0.00000E+000,0.00000E+000,0.00000E+000,0.00000E+000,0.00000E+000,0.00000E+000,0.00000E+000,0.00000E+000,0,0.00000E+000,2.81807E-001
1136,815,-5.34289E-001,-8.24040E+000,-1.86230E-003,0.00000E+000,0.00000E+000,0.00000E+000,0.00000E+000,0.00000E+000,0.00000E+000,0.00000E+000,0.00000E+000,0.00000E+000,0.00000E+000,0.00000E+000,0,0.00000E+000,2.81807E-001
1226,1175,1.23038E+000,-1.47158E+000,-2.93913E-003,0.00000E+000,0.00000E+000,0.00000E+000,0.00000E+000,0.00000E+000,0.00000E+000,0.00000E+000,0.00000E+000,0.00000E+000,0.00000E+000,0.00000E+000,0,0.00000E+000,2.81807E-001
1211,1130,9.39471E-001,-2.31790E+000,3.31514E-003,0.00000E+000,0.00000E+000,0.00000E+000,0.00000E+000,0.00000E+000,0.00000E+000,0.00000E+000,0.00000E+000,0.00000E+000,0.00000E+000,0.00000E+000,0,0.00000E+000,2.81807E-001
1076,680,-1.68981E+000,-1.07742E+001,-4.40463E-003,0.00000E+000,0.00000E+000,0.00000E+000,0.00000E+000,0.00000E+000,0.00000E+000,0.00000E+000,0.00000E+000,0.00000E+000,0.00000E+000,0.00000E+000,0,0.00000E+000,2.81807E-001
1226,1655,1.32063E+000,7.57605E+000,-6.64147E-004,0.00000E+000,0.00000E+000,0.00000E+000,0.00000E+000,0.00000E+000,0.00000E+000,0.00000E+000,0.00000E+000,0.00000E+000,0.00000E+000,0.00000E+000,0,0.00000E+000,2.81807E-001
1091,1520,-1.25535E+000,5.02466E+000,-1.79065E-003,0.00000E+000,0.00000E+000,0.00000E+000,0.00000E+000,0.00000E+000,0.00000E+000,0.00000E+000,0.00000E+000,0.00000E+000,0.00000E+000,0.00000E+000,0,0.00000E+000,2.81807E-001
1151,1325,-1.57513E-001,1.35278E+000,2.16341E-003,0.00000E+000,0.00000E+000,0.00000E+000,0.00000E+000,0.00000E+000,0.00000E+000,0.00000E+000,0.00000E+000,0.00000E+000,0.00000E+000,0.00000E+000,0,0.00000E+000,2.81807E-001
1076,1715,-1.50357E+000,8.70146E+000,-3.82291E-003,0.00000E+000,0.00000E+000,0.00000E+000,0.00000E+000,0.00000E+000,0.00000E+000,0.00000E+000,0.00000E+000,0.00000E+000,0.00000E+000,0.00000E+000,0,0.00000E+000,2.81807E-001
1121,695,-8.38847E-001,-1.04935E+001,-1.86650E-003,0.00000E+000,0.00000E+000,0.00000E+000,0.00000E+000,0.00000E+000,0.00000E+000,0.00000E+000,0.00000E+000,0.00000E+000,0.00000E+000,0.00000E+000,0,0.00000E+000,2.81807E-001
1181,770,3.06484E-001,-9.08680E+000,1.79918E-003,0.00000E+000,0.00000E+000,0.00000E+000,0.00000E+000,0.00000E+000,0.00000E+000,0.00000E+000,0.00000E+000,0.00000E+000,0.00000E+000,0.00000E+000,0,0.00000E+000,2.81807E-001
1196,1685,7.59502E-001,8.14105E+000,3.38286E-003,0.00000E+000,0.00000E+000,0.00000E+000,0.00000E+000,0.00000E+000,0.00000E+000,0.00000E+000,0.00000E+000,0.00000E+000,0.00000E+000,0.00000E+000,0,0.00000E+000,2.81807E-001
1166,1040,7.31220E-002,-4.01154E+000,1.15813E-003,0.00000E+000,0.00000E+000,0.00000E+000,0.00000E+000,0.00000E+000,0.00000E+000,0.00000E+000,0.00000E+000,0.00000E+000,0.00000E+000,0.00000E+000,0,0.00000E+000,2.81807E-001
1136,1250,-4.54519E-001,-5.97694E-002,1.60656E-003,0.00000E+000,0.00000E+000,0.00000E+000,0.00000E+000,0.00000E+000,0.00000E+000,0.00000E+000,0.00000E+000,0.00000E+000,0.00000E+000,0.00000E+000,0,0.00000E+000,2.81807E-001
1106,965,-1.07315E+000,-5.42153E+000,-5.06192E-003,0.00000E+000,0.00000E+000,0.00000E+000,0.00000E+000,0.00000E+000,0.00000E+000,0.00000E+000,0.00000E+000,0.00000E+000,0.00000E+000,0.00000E+000,0,0.00000E+000,2.81807E-001
1121,1730,-6.50598E-001,8.98647E+000,-3.43360E-003,0.00000E+000,0.00000E+000,0.00000E+000,0.00000E+000,0.00000E+000,0.00000E+000,0.00000E+000,0.00000E+000,0.00000E+000,0.00000E+000,0.00000E+000,0,0.00000E+000,2.81807E-001
1196,1370,7.00505E-001,2.20037E+000,5.88045E-004,0.00000E+000,0.00000E+000,0.00000E+000,0.00000E+000,0.00000E+000,0.00000E+000,0.00000E+000,0.00000E+000,0.00000E+000,0.00000E+000,0.00000E+000,0,0.00000E+000,2.81807E-001
1076,1550,-1.53286E+000,5.59053E+000,6.87161E-004,0.00000E+000,0.00000E+000,0.00000E+000,0.00000E+000,0.00000E+000,0.00000E+000,0.00000E+000,0.00000E+000,0.00000E+000,0.00000E+000,0.00000E+000,0,0.00000E+000,2.81807E-001
1226,1535,1.29842E+000,5.31233E+000,2.01577E-003,0.00000E+000,0.00000E+000,0.00000E+000,0.00000E+000,0.00000E+000,0.00000E+000,0.00000E+000,0.00000E+000,0.00000E+000,0.00000E+000,0.00000E+000,0,0.00000E+000,2.81807E-001
1226,1505,1.29267E+000,4.74620E+000,1.05252E-003,0.00000E+000,0.00000E+000,0.00000E+000,0.00000E+000,0.00000E+000,0.00000E+000,0.00000E+000,0.00000E+000,0.00000E+000,0.00000E+000,0.00000E+000,0,0.00000E+000,2.81807E-001
1211,800,8.77575E-001,-8.52378E+000,-1.06939E-003,0.00000E+000,0.00000E+000,0.00000E+000,0.00000E+000,0.00000E+000,0.00000E+000,0.00000E+000,0.00000E+000,0.00000E+000,0.00000E+000,0.00000E+000,0,0.00000E+000,2.81807E-001
1226,785,1.15778E+000,-8.80629E+000,-1.02602E-003,0.00000E+000,0.00000E+000,0.00000E+000,0.00000E+000,0.00000E+000,0.00000E+000,0.00000E+000,0.00000E+000,0.00000E+000,0.00000E+000,0.00000E+000,0,0.00000E+000,2.81807E-001
1226,980,1.19413E+000,-5.14051E+000,-1.29207E-003,0.00000E+000,0.00000E+000,0.00000E+000,0.00000E+000,0.00000E+000,0.00000E+000,0.00000E+000,0.00000E+000,0.00000E+000,0.00000E+000,0.00000E+000,0,0.00000E+000,2.81807E-001
1151,1625,-1.02855E-001,7.00720E+000,-2.48907E-003,0.00000E+000,0.00000E+000,0.00000E+000,0.00000E+000,0.00000E+000,0.00000E+000,0.00000E+000,0.00000E+000,0.00000E+000,0.00000E+000,0.00000E+000,0,0.00000E+000,2.81807E-001
1196,1400,7.05986E-001,2.76598E+000,-3.03113E-004,0.00000E+000,0.00000E+000,0.00000E+000,0.00000E+000,0.00000E+000,0.00000E+000,0.00000E+000,0.00000E+000,0.00000E+000,0.00000E+000,0.00000E+000,0,0.00000E+000,2.81807E-001
1121,1340,-7.21176E-001,1.63464E+000,2.25546E-003,0.00000E+000,0.00000E+000,0.00000E+000,0.00000E+000,0.00000E+000,0.00000E+000,0.00000E+000,0.00000E+000,0.00000E+000,0.00000E+000,0.00000E+000,0,0.00000E+000,2.81807E-001
1091,1595,-1.24164E+000,6.43932E+000,-9.16427E-004,0.00000E+000,0.00000E+000,0.00000E+000,0.00000E+000,0.00000E+000,0.00000E+000,0.00000E+000,0.00000E+000,0.00000E+000,0.00000E+000,0.00000E+000,0,0.00000E+000,2.81807E-001
1151,1685,-9.21552E-002,8.13822E+000,-5.42780E-003,0.00000E+000,0.00000E+000,0.00000E+000,0.00000E+000,0.00000E+000,0.00000E+000,0.00000E+000,0.00000E+000,0.00000E+000,0.00000E+000,0.00000E+000,0,0.00000E+000,2.81807E-001
1121,995,-7.84424E-001,-4.85750E+000,-1.72371E-003,0.00000E+000,0.00000E+000,0.00000E+000,0.00000E+000,0.00000E+000,0.00000E+000,0.00000E+000,0.00000E+000,0.00000E+000,0.00000E+000,0.00000E+000,0,0.00000E+000,2.81807E-001
1091,680,-1.40714E+000,-1.07747E+001,-3.95710E-003,0.00000E+000,0.00000E+000,0.00000E+000,0.00000E+000,0.00000E+000,0.00000E+000,0.00000E+000,0.00000E+000,0.00000E+000,0.00000E+000,0.00000E+000,0,0.00000E+000,2.81807E-001
1181,1040,3.56750E-001,-4.01135E+000,5.82935E-003,0.00000E+000,0.00000E+000,0.00000E+000,0.00000E+000,0.00000E+000,0.00000E+000,0.00000E+000,0.00000E+000,0.00000E+000,0.00000E+000,0.00000E+000,0,0.00000E+000,2.81807E-001
1211,1490,1.00665E+000,4.46315E+000,3.44547E-003,0.00000E+000,0.00000E+000,0.00000E+000,0.00000E+000,0.00000E+000,0.00000E+000,0.00000E+000,0.00000E+000,0.00000E+000,0.00000E+000,0.00000E+000,0,0.00000E+000,2.81807E-001
1211,830,8.83599E-001,-7.95977E+000,2.73260E-003,0.00000E+000,0.00000E+000,0.00000E+000,0.00000E+000,0.00000E+000,0.00000E+000,0.00000E+000,0.00000E+000,0.00000E+000,0.00000E+000,0.00000E+000,0,0.00000E+000,2.81807E-001
1136,1730,-3.67163E-001,8.98690E+000,-3.71083E-003,0.00000E+000,0.00000E+000,0.00000E+000,0.00000E+000,0.00000E+000,0.00000E+000,0.00000E+000,0.00000E+000,0.00000E+000,0.00000E+000,0.00000E+000,0,0.00000E+000,2.81807E-001
1121,875,-8.05739E-001,-7.11275E+000,2.31005E-003,0.00000E+000,0.00000E+000,0.00000E+000,0.00000E+000,0.00000E+000,0.00000E+000,0.00000E+000,0.00000E+000,0.00000E+000,0.00000E+000,0.00000E+000,0,0.00000E+000,2.81807E-001
1166,860,3.98313E-002,-7.39532E+000,-7.22195E-004,0.00000E+000,0.00000E+000,0.00000E+000,0.00000E+000,0.00000E+000,0.00000E+000,0.00000E+000,0.00000E+000,0.00000E+000,0.00000E+000,0.00000E+000,0,0.00000E+000,2.81807E-001
1136,1340,-4.38181E-001,1.63481E+000,5.16225E-004,0.00000E+000,0.00000E+000,0.00000E+000,0.00000E+000,0.00000E+000,0.00000E+000,0.00000E+000,0.00000E+000,0.00000E+000,0.00000E+000,0.00000E+000,0,0.00000E+000,2.81807E-001
1091,1460,-1.26612E+000,3.89445E+000,-9.98236E-004,0.00000E+000,0.00000E+000,0.00000E+000,0.00000E+000,0.00000E+000,0.00000E+000,0.00000E+000,0.00000E+000,0.00000E+000,0.00000E+000,0.00000E+000,0,0.00000E+000,2.81807E-001
1196,815,5.97789E-001,-8.24137E+000,2.34371E-003,0.00000E+000,0.00000E+000,0.00000E+000,0.00000E+000,0.00000E+000,0.00000E+000,0.00000E+000,0.00000E+000,0.00000E+000,0.00000E+000,0.00000E+000,0,0.00000E+000,2.81807E-001
1211,1145,9.42275E-001,-2.03542E+000,3.38003E-003,0.00000E+000,0.00000E+000,0.00000E+000,0.00000E+000,0.00000E+000,0.00000E+000,0.00000E+000,0.00000E+000,0.00000E+000,0.00000E+000,0.00000E+000,0,0.00000E+000,2.81807E-001
1091,935,-1.36122E+000,-5.98495E+000,-3.41174E-003,0.00000E+000,0.00000E+000,0.00000E+000,0.00000E+000,0.00000E+000,0.00000E+000,0.00000E+000,0.00000E+000,0.00000E+000,0.00000E+000,0.00000E+000,0,0.00000E+000,2.81807E-001
1076,1565,-1.53037E+000,5.87338E+000,-1.20841E-003,0.00000E+000,0.00000E+000,0.00000E+000,0.00000E+000,0.00000E+000,0.00000E+000,0.00000E+000,0.00000E+000,0.00000E+000,0.00000E+000,0.00000E+000,0,0.00000E+000,2.81807E-001
1151,1025,-2.13044E-001,-4.29368E+000,-2.04746E-003,0.00000E+000,0.00000E+000,0.00000E+000,0.00000E+000,0.00000E+000,0.00000E+000,0.00000E+000,0.00000E+000,0.00000E+000,0.00000E+000,0.00000E+000,0,0.00000E+000,2.81807E-001
1226,665,1.13544E+000,-1.10606E+001,-7.73422E-004,0.00000E+000,0.00000E+000,0.00000E+000,0.00000E+000,0.00000E+000,0.00000E+000,0.00000E+000,0.00000E+000,0.00000E+000,0.00000E+000,0.00000E+000,0,0.00000E+000,2.81807E-001
1121,1370,-7.16178E-001,2.19890E+000,-1.73975E-003,0.00000E+000,0.00000E+000,0.00000E+000,0.00000E+000,0.00000E+000,0.00000E+000,0.00000E+000,0.00000E+000,0.00000E+000,0.00000E+000,0.00000E+000,0,0.00000E+000,2.81807E-001
1091,980,-1.35272E+000,-5.13951E+000,5.71302E-005,0.00000E+000,0.00000E+000,0.00000E+000,0.00000E+000,0.00000E+000,0.00000E+000,0.00000E+000,0.00000E+000,0.00000E+000,0.00000E+000,0.00000E+000,0,0.00000E+000,2.81807E-001
1226,1625,1.31495E+000,7.00976E+000,-1.05826E-003,0.00000E+000,0.00000E+000,0.00000E+000,0.00000E+000,0.00000E+000,0.00000E+000,0.00000E+000,0.00000E+000,0.00000E+000,0.00000E+000,0.00000E+000,0,0.00000E+000,2.81807E-001
1091,1715,-1.22020E+000,8.70212E+000,-3.71508E-003,0.00000E+000,0.00000E+000,0.00000E+000,0.00000E+000,0.00000E+000,0.00000E+000,0.00000E+000,0.00000E+000,0.00000E+000,0.00000E+000,0.00000E+000,0,0.00000E+000,2.81807E-001
1241,1685,1.60980E+000,8.14257E+000,-1.75587E-003,0.00000E+000,0.00000E+000,0.00000E+000,0.00000E+000,0.00000E+000,0.00000E+000,0.00000E+000,0.00000E+000,0.00000E+000,0.00000E+000,0.00000E+000,0,0.00000E+000,2.81807E-001
1091,1310,-1.29200E+000,1.06966E+000,1.00629E-002,0.00000E+000,0.00000E+000,0.00000E+000,0.00000E+000,0.00000E+000,0.00000E+000,0.00000E+000,0.00000E+000,0.00000E+000,0.00000E+000,0.00000E+000,0,0.00000E+000,2.81807E-001
1241,1535,1.58198E+000,5.31295E+000,1.93565E-003,0.00000E+000,0.00000E+000,0.00000E+000,0.00000E+000,0.00000E+000,0.00000E+000,0.00000E+000,0.00000E+000,0.00000E+000,0.00000E+000,0.00000E+000,0,0.00000E+000,2.81807E-001
1196,755,5.86199E-001,-9.36927E+000,-1.75778E-003,0.00000E+000,0.00000E+000,0.00000E+000,0.00000E+000,0.00000E+000,0.00000E+000,0.00000E+000,0.00000E+000,0.00000E+000,0.00000E+000,0.00000E+000,0,0.00000E+000,2.81807E-001
1136,785,-5.39207E-001,-8.80323E+000,2.73604E-003,0.00000E+000,0.00000E+000,0.00000E+000,0.00000E+000,0.00000E+000,0.00000E+000,0.00000E+000,0.00000E+000,0.00000E+000,0.00000E+000,0.00000E+000,0,0.00000E+000,2.81807E-001
1091,1550,-1.24998E+000,5.59061E+000,-2.45488E-003,0.00000E+000,0.00000E+000,0.00000E+000,0.00000E+000,0.00000E+000,0.00000E+000,0.00000E+000,0.00000E+000,0.00000E+000,0.00000E+000,0.00000E+000,0,0.00000E+000,2.81807E-001
1226,830,1.16606E+000,-7.96044E+000,-1.95865E-003,0.00000E+000,0.00000E+000,0.00000E+000,0.00000E+000,0.00000E+000,0.00000E+000,0.00000E+000,0.00000E+000,0.00000E+000,0.00000E+000,0.00000E+000,0,0.00000E+000,2.81807E-001
1106,680,-1.12441E+000,-1.07748E+001,-3.29311E-003,0.00000E+000,0.00000E+000,0.00000E+000,0.00000E+000,0.00000E+000,0.00000E+000,0.00000E+000,0.00000E+000,0.00000E+000,0.00000E+000,0.00000E+000,0,0.00000E+000,2.81807E-001
1076,1520,-1.53843E+000,5.02505E+000,-6.50301E-004,0.00000E+000,0.00000E+000,0.00000E+000,0.00000E+000,0.00000E+000,0.00000E+000,0.00000E+000,0.00000E+000,0.00000E+000,0.00000E+000,0.00000E+000,0,0.00000E+000,2.81807E-001
1196,1265,6.81125E-001,2.23015E-001,1.67980E-003,0.00000E+000,0.00000E+000,0.00000E+000,0.00000E+000,0.00000E+000,0.00000E+000,0.00000E+000,0.00000E+000,0.00000E+000,0.00000E+000,0.00000E+000,0,0.00000E+000,2.81807E-001
1091,1655,-1.23100E+000,7.57009E+000,-2.93512E-003,0.00000E+000,0.00000E+000,0.00000E+000,0.00000E+000,0.00000E+000,0.00000E+000,0.00000E+000,0.00000E+000,0.00000E+000,0.00000E+000,0.00000E+000,0,0.00000E+000,2.81807E-001
1226,1490,1.28998E+000,4.46322E+000,2.10530E-003,0.00000E+000,0.00000E+000,0.00000E+000,0.00000E+000,0.00000E+000,0.00000E+000,0.00000E+000,0.00000E+000,0.00000E+000,0.00000E+000,0.00000E+000,0,0.00000E+000,2.81807E-001
1241,665,1.41856E+000,-1.10605E+001,7.51689E-004,0.00000E+000,0.00000E+000,0.00000E+000,0.00000E+000,0.00000E+000,0.00000E+000,0.00000E+000,0.00000E+000,0.00000E+000,0.00000E+000,0.00000E+000,0,0.00000E+000,2.81807E-001
1166,1130,8.96489E-002,-2.31853E+000,8.89247E-004,0.00000E+000,0.00000E+000,0.00000E+000,0.00000E+000,0.00000E+000,0.00000E+000,0.00000E+000,0.00000E+000,0.00000E+000,0.00000E+000,0.00000E+000,0,0.00000E+000,2.81807E-001
1121,815,-8.17101E-001,-8.24027E+000,-1.82204E-003,0.00000E+000,0.00000E+000,0.00000E+000,0.00000E+000,0.00000E+000,0.00000E+000,0.00000E+000,0.00000E+000,0.00000E+000,0.00000E+000,0.00000E+000,0,0.00000E+000,2.81807E-001
1256,1685,1.89352E+000,8.14348E+000,-1.63585E-003,0.00000E+000,0.00000E+000,0.00000E+000,0.00000E+000,0.00000E+000,0.00000E+000,0.00000E+000,0.00000E+000,0.00000E+000,0.00000E+000,0.00000E+000,0,0.00000E+000,2.81807E-001
1046,1730,-2.06578E+000,8.98465E+000,1.13175E-002,0.00000E+000,0.00000E+000,0.00000E+000,0.00000E+000,0.00000E+000,0.00000E+000,0.00000E+000,0.00000E+000,0.00000E+000,0.00000E+000,0.00000E+000,0,0.00000E+000,2.81807E-001
1181,1325,4.09358E-001,1.35314E+000,5.05832E-003,0.00000E+000,0.00000E+000,0.00000E+000,0.00000E+000,0.00000E+000,0.00000E+000,0.00000E+000,0.00000E+000,0.00000E+000,0.00000E+000,0.00000E+000,0,0.00000E+000,2.81807E-001
1136,1625,-3.86129E-001,7.00620E+000,-1.07081E-003,0.00000E+000,0.00000E+000,0.00000E+000,0.00000E+000,0.00000E+000,0.00000E+000,0.00000E+000,0.00000E+000,0.00000E+000,0.00000E+000,0.00000E+000,0,0.00000E+000,2.81807E-001
1196,1535,7.30941E-001,5.31079E+000,-1.75140E-003,0.00000E+000,0.00000E+000,0.00000E+000,0.00000E+000,0.00000E+000,0.00000E+000,0.00000E+000,0.00000E+000,0.00000E+000,0.00000E+000,0.00000E+000,0,0.00000E+000,2.81807E-001
1196,1250,6.78472E-001,-5.92461E-002,2.78785E-003,0.00000E+000,0.00000E+000,0.00000E+000,0.00000E+000,0.00000E+000,0.00000E+000,0.00000E+000,0.00000E+000,0.00000E+000,0.00000E+000,0.00000E+000,0,0.00000E+000,2.81807E-001
1106,1340,-1.00420E+000,1.63427E+000,3.48591E-003,0.00000E+000,0.00000E+000,0.00000E+000,0.00000E+000,0.00000E+000,0.00000E+000,0.00000E+000,0.00000E+000,0.00000E+000,0.00000E+000,0.00000E+000,0,0.00000E+000,2.81807E-001
1166,1190,1.01144E-001,-1.18910E+000,4.69048E-003,0.00000E+000,0.00000E+000,0.00000E+000,0.00000E+000,0.00000E+000,0.00000E+000,0.00000E+000,0.00000E+000,0.00000E+000,0.00000E+000,0.00000E+000,0,0.00000E+000,2.81807E-001
1256,665,1.70088E+000,-1.10614E+001,-4.54789E-003,0.00000E+000,0.00000E+000,0.00000E+000,0.00000E+000,0.00000E+000,0.00000E+000,0.00000E+000,0.00000E+000,0.00000E+000,0.00000E+000,0.00000E+000,0,0.00000E+000,2.81807E-001
1106,1550,-9.67299E-001,5.59035E+000,-7.56868E-003,0.00000E+000,0.00000E+000,0.00000E+000,0.00000E+000,0.00000E+000,0.00000E+000,0.00000E+000,0.00000E+000,0.00000E+000,0.00000E+000,0.00000E+000,0,0.00000E+000,2.81807E-001
1106,1130,-1.04240E+000,-2.31839E+000,2.60890E-003,0.00000E+000,0.00000E+000,0.00000E+000,0.00000E+000,0.00000E+000,0.00000E+000,0.00000E+000,0.00000E+000,0.00000E+000,0.00000E+000,0.00000E+000,0,0.00000E+000,2.81807E-001
1271,1685,2.17760E+000,8.14440E+000,1.19936E-003,0.00000E+000,0.00000E+000,0.00000E+000,0.00000E+000,0.00000E+000,0.00000E+000,0.00000E+000,0.00000E+000,0.00000E+000,0.00000E+000,0.00000E+000,0,0.00000E+000,2.81807E-001
1241,1505,1.57609E+000,4.74652E+000,1.18735E-005,0.00000E+000,0.00000E+000,0.00000E+000,0.00000E+000,0.00000E+000,0.00000E+000,0.00000E+000,0.00000E+000,0.00000E+000,0.00000E+000,0.00000E+000,0,0.00000E+000,2.81807E-001
1211,1400,9.89639E-001,2.76678E+000,1.76234E-003,0.00000E+000,0.00000E+000,0.00000E+000,0.00000E+000,0.00000E+000,0.00000E+000,0.00000E+000,0.00000E+000,0.00000E+000,0.00000E+000,0.00000E+000,0,0.00000E+000,2.81807E-001
1121,1130,-7.59299E-001,-2.31859E+000,3.37040E-003,0.00000E+000,0.00000E+000,0.00000E+000,0.00000E+000,0.00000E+000,0.00000E+000,0.00000E+000,0.00000E+000,0.00000E+000,0.00000E+000,0.00000E+000,0,0.00000E+000,2.81807E-001
1106,1460,-9.82771E-001,3.89481E+000,1.92955E-004,0.00000E+000,0.00000E+000,0.00000E+000,0.00000E+000,0.00000E+000,0.00000E+000,0.00000E+000,0.00000E+000,0.00000E+000,0.00000E+000,0.00000E+000,0,0.00000E+000,2.81807E-001
1106,815,-1.10004E+000,-8.23995E+000,-3.15541E-003,0.00000E+000,0.00000E+000,0.00000E+000,0.00000E+000,0.00000E+000,0.00000E+000,0.00000E+000,0.00000E+000,0.00000E+000,0.00000E+000,0.00000E+000,0,0.00000E+000,2.81807E-001
1121,785,-8.22087E-001,-8.80313E+000,2.02276E-003,0.00000E+000,0.00000E+000,0.00000E+000,0.00000E+000,0.00000E+000,0.00000E+000,0.00000E+000,0.00000E+000,0.00000E+000,0.00000E+000,0.00000E+000,0,0.00000E+000,2.81807E-001
1106,980,-1.07020E+000,-5.13942E+000,-3.02862E-003,0.00000E+000,0.00000E+000,0.00000E+000,0.00000E+000,0.00000E+000,0.00000E+000,0.00000E+000,0.00000E+000,0.00000E+000,0.00000E+000,0.00000E+000,0,0.00000E+000,2.81807E-001
1136,875,-5.22630E-001,-7.11308E+000,4.47831E-003,0.00000E+000,0.00000E+000,0.00000E+000,0.00000E+000,0.00000E+000,0.00000E+000,0.00000E+000,0.00000E+000,0.00000E+000,0.00000E+000,0.00000E+000,0,0.00000E+000,2.81807E-001
1166,1025,7.04018E-002,-4.29350E+000,1.46490E-003,0.00000E+000,0.00000E+000,0.00000E+000,0.00000E+000,0.00000E+000,0.00000E+000,0.00000E+000,0.00000E+000,0.00000E+000,0.00000E+000,0.00000E+000,0,0.00000E+000,2.81807E-001
1106,1310,-1.01021E+000,1.06921E+000,-1.40332E-003,0.00000E+000,0.00000E+000,0.00000E+000,0.00000E+000,0.00000E+000,0.00000E+000,0.00000E+000,0.00000E+000,0.00000E+000,0.00000E+000,0.00000E+000,0,0.00000E+000,2.81807E-001
1106,830,-1.09761E+000,-7.95859E+000,-5.57946E-003,0.00000E+000,0.00000E+000,0.00000E+000,0.00000E+000,0.00000E+000,0.00000E+000,0.00000E+000,0.00000E+000,0.00000E+000,0.00000E+000,0.00000E+000,0,0.00000E+000,2.81807E-001
1211,1370,9.83759E-001,2.20054E+000,-4.66403E-004,0.00000E+000,0.00000E+000,0.00000E+000,0.00000E+000,0.00000E+000,0.00000E+000,0.00000E+000,0.00000E+000,0.00000E+000,0.00000E+000,0.00000E+000,0,0.00000E+000,2.81807E-001
1226,1520,1.29531E+000,5.02917E+000,-4.94984E-004,0.00000E+000,0.00000E+000,0.00000E+000,0.00000E+000,0.00000E+000,0.00000E+000,0.00000E+000,0.00000E+000,0.00000E+000,0.00000E+000,0.00000E+000,0,0.00000E+000,2.81807E-001
1241,1490,1.57339E+000,4.46378E+000,1.07183E-003,0.00000E+000,0.00000E+000,0.00000E+000,0.00000E+000,0.00000E+000,0.00000E+000,0.00000E+000,0.00000E+000,0.00000E+000,0.00000E+000,0.00000E+000,0,0.00000E+000,2.81807E-001
1211,680,8.54949E-001,-1.07786E+001,-3.92650E-003,0.00000E+000,0.00000E+000,0.00000E+000,0.00000E+000,0.00000E+000,0.00000E+000,0.00000E+000,0.00000E+000,0.00000E+000,0.00000E+000,0.00000E+000,0,0.00000E+000,2.81807E-001
1061,665,-1.97524E+000,-1.10547E+001,-6.04350E-003,0.00000E+000,0.00000E+000,0.00000E+000,0.00000E+000,0.00000E+000,0.00000E+000,0.00000E+000,0.00000E+000,0.00000E+000,0.00000E+000,0.00000E+000,0,0.00000E+000,2.81807E-001
1151,1715,-8.62281E-002,8.70498E+000,-2.09417E-003,0.00000E+000,0.00000E+000,0.00000E+000,0.00000E+000,0.00000E+000,0.00000E+000,0.00000E+000,0.00000E+000,0.00000E+000,0.00000E+000,0.00000E+000,0,0.00000E+000,2.81807E-001
1121,1265,-7.35035E-001,2.22478E-001,5.94045E-004,0.00000E+000,0.00000E+000,0.00000E+000,0.00000E+000,0.00000E+000,0.00000E+000,0.00000E+000,0.00000E+000,0.00000E+000,0.00000E+000,0.00000E+000,0,0.00000E+000,2.81807E-001
1166,1145,9.24634E-002,-2.03603E+000,1.31025E-003,0.00000E+000,0.00000E+000,0.00000E+000,0.00000E+000,0.00000E+000,0.00000E+000,0.00000E+000,0.00000E+000,0.00000E+000,0.00000E+000,0.00000E+000,0,0.00000E+000,2.81807E-001
1091,1340,-1.28731E+000,1.63409E+000,3.70105E-003,0.00000E+000,0.00000E+000,0.00000E+000,0.00000E+000,0.00000E+000,0.00000E+000,0.00000E+000,0.00000E+000,0.00000E+000,0.00000E+000,0.00000E+000,0,0.00000E+000,2.81807E-001
1076,1580,-1.52760E+000,6.15599E+000,-6.59220E-004,0.00000E+000,0.00000E+000,0.00000E+000,0.00000E+000,0.00000E+000,0.00000E+000,0.00000E+000,0.00000E+000,0.00000E+000,0.00000E+000,0.00000E+000,0,0.00000E+000,2.81807E-001
1226,800,1.16085E+000,-8.52414E+000,1.29227E-003,0.00000E+000,0.00000E+000,0.00000E+000,0.00000E+000,0.00000E+000,0.00000E+000,0.00000E+000,0.00000E+000,0.00000E+000,0.00000E+000,0.00000E+000,0,0.00000E+000,2.81807E-001
1181,1655,4.69722E-001,7.57417E+000,-2.04892E-003,0.00000E+000,0.00000E+000,0.00000E+000,0.00000E+000,0.00000E+000,0.00000E+000,0.00000E+000,0.00000E+000,0.00000E+000,0.00000E+000,0.00000E+000,0,0.00000E+000,2.81807E-001
1211,815,8.80511E-001,-8.24171E+000,1.76415E-004,0.00000E+000,0.00000E+000,0.00000E+000,0.00000E+000,0.00000E+000,0.00000E+000,0.00000E+000,0.00000E+000,0.00000E+000,0.00000E+000,0.00000E+000,0,0.00000E+000,2.81807E-001
1196,1010,6.33922E-001,-4.57612E+000,2.64919E-003,0.00000E+000,0.00000E+000,0.00000E+000,0.00000E+000,0.00000E+000,0.00000E+000,0.00000E+000,0.00000E+000,0.00000E+000,0.00000E+000,0.00000E+000,0,0.00000E+000,2.81807E-001
1151,755,-2.62261E-001,-9.36771E+000,-6.09003E-004,0.00000E+000,0.00000E+000,0.00000E+000,0.00000E+000,0.00000E+000,0.00000E+000,0.00000E+000,0.00000E+000,0.00000E+000,0.00000E+000,0.00000E+000,0,0.00000E+000,2.81807E-001
1121,710,-8.35948E-001,-1.02119E+001,-2.71080E-004,0.00000E+000,0.00000E+000,0.00000E+000,0.00000E+000,0.00000E+000,0.00000E+000,0.00000E+000,0.00000E+000,0.00000E+000,0.00000E+000,0.00000E+000,0,0.00000E+000,2.81807E-001
1121,1310,-7.26959E-001,1.06943E+000,-4.41934E-004,0.00000E+000,0.00000E+000,0.00000E+000,0.00000E+000,0.00000E+000,0.00000E+000,0.00000E+000,0.00000E+000,0.00000E+000,0.00000E+000,0.00000E+000,0,0.00000E+000,2.81807E-001
1241,1625,1.59833E+000,7.00985E+000,-3.04571E-003,0.00000E+000,0.00000E+000,0.00000E+000,0.00000E+000,0.00000E+000,0.00000E+000,0.00000E+000,0.00000E+000,0.00000E+000,0.00000E+000,0.00000E+000,0,0.00000E+000,2.81807E-001
1181,980,3.45164E-001,-5.13979E+000,1.47002E-003,0.00000E+000,0.00000E+000,0.00000E+000,0.00000E+000,0.00000E+000,0.00000E+000,0.00000E+000,0.00000E+000,0.00000E+000,0.00000E+000,0.00000E+000,0,0.00000E+000,2.81807E-001
1106,1145,-1.03993E+000,-2.03669E+000,4.57318E-004,0.00000E+000,0.00000E+000,0.00000E+000,0.00000E+000,0.00000E+000,0.00000E+000,0.00000E+000,0.00000E+000,0.00000E+000,0.00000E+000,0.00000E+000,0,0.00000E+000,2.81807E-001
1061,1730,-1.78415E+000,8.98379E+000,-3.36910E-003,0.00000E+000,0.00000E+000,0.00000E+000,0.00000E+000,0.00000E+000,0.00000E+000,0.00000E+000,0.00000E+000,0.00000E+000,0.00000E+000,0.00000E+000,0,0.00000E+000,2.81807E-001
1121,830,-8.14638E-001,-7.95864E+000,-4.02606E-003,0.00000E+000,0.00000E+000,0.00000E+000,0.00000E+000,0.00000E+000,0.00000E+000,0.00000E+000,0.00000E+000,0.00000E+000,0.00000E+000,0.00000E+000,0,0.00000E+000,2.81807E-001
1181,1475,4.36474E-001,4.17956E+000,-7.42539E-004,0.00000E+000,0.00000E+000,0.00000E+000,0.00000E+000,0.00000E+000,0.00000E+000,0.00000E+000,0.00000E+000,0.00000E+000,0.00000E+000,0.00000E+000,0,0.00000E+000,2.81807E-001
1181,1190,3.84015E-001,-1.18913E+000,1.99682E-003,0.00000E+000,0.00000E+000,0.00000E+000,0.00000E+000,0.00000E+000,0.00000E+000,0.00000E+000,0.00000E+000,0.00000E+000,0.00000E+000,0.00000E+000,0,0.00000E+000,2.81807E-001
1196,1325,6.92372E-001,1.35329E+000,2.47685E-003,0.00000E+000,0.00000E+000,0.00000E+000,0.00000E+000,0.00000E+000,0.00000E+000,0.00000E+000,0.00000E+000,0.00000E+000,0.00000E+000,0.00000E+000,0,0.00000E+000,2.81807E-001
1121,1145,-7.56616E-001,-2.03617E+000,2.93920E-003,0.00000E+000,0.00000E+000,0.00000E+000,0.00000E+000,0.00000E+000,0.00000E+000,0.00000E+000,0.00000E+000,0.00000E+000,0.00000E+000,0.00000E+000,0,0.00000E+000,2.81807E-001
1076,665,-1.69249E+000,-1.10556E+001,-4.39578E-003,0.00000E+000,0.00000E+000,0.00000E+000,0.00000E+000,0.00000E+000,0.00000E+000,0.00000E+000,0.00000E+000,0.00000E+000,0.00000E+000,0.00000E+000,0,0.00000E+000,2.81807E-001
1166,725,1.49299E-002,-9.93127E+000,-1.85724E-003,0.00000E+000,0.00000E+000,0.00000E+000,0.00000E+000,0.00000E+000,0.00000E+000,0.00000E+000,0.00000E+000,0.00000E+000,0.00000E+000,0.00000E+000,0,0.00000E+000,2.81807E-001
1181,1025,3.53881E-001,-4.29343E+000,4.96601E-003,0.00000E+000,0.00000E+000,0.00000E+000,0.00000E+000,0.00000E+000,0.00000E+000,0.00000E+000,0.00000E+000,0.00000E+000,0.00000E+000,0.00000E+000,0,0.00000E+000,2.81807E-001
1196,1355,6.97729E-001,1.91791E+000,6.81204E-004,0.00000E+000,0.00000E+000,0.00000E+000,0.00000E+000,0.00000E+000,0.00000E+000,0.00000E+000,0.00000E+000,0.00000E+000,0.00000E+000,0.00000E+000,0,0.00000E+000,2.81807E-001
1226,815,1.16382E+000,-8.24195E+000,2.67097E-003,0.00000E+000,0.00000E+000,0.00000E+000,0.00000E+000,0.00000E+000,0.00000E+000,0.00000E+000,0.00000E+000,0.00000E+000,0.00000E+000,0.00000E+000,0,0.00000E+000,2.81807E-001
1226,1760,1.34043E+000,9.55790E+000,-1.24026E-005,0.00000E+000,0.00000E+000,0.00000E+000,0.00000E+000,0.00000E+000,0.00000E+000,0.00000E+000,0.00000E+000,0.00000E+000,0.00000E+000,0.00000E+000,0,0.00000E+000,2.81807E-001
1241,1520,1.57878E+000,5.02969E+000,-1.13377E-003,0.00000E+000,0.00000E+000,0.00000E+000,0.00000E+000,0.00000E+000,0.00000E+000,0.00000E+000,0.00000E+000,0.00000E+000,0.00000E+000,0.00000E+000,0,0.00000E+000,2.81807E-001
1151,995,-2.18362E-001,-4.85767E+000,-5.48817E-004,0.00000E+000,0.00000E+000,0.00000E+000,0.00000E+000,0.00000E+000,0.00000E+000,0.00000E+000,0.00000E+000,0.00000E+000,0.00000E+000,0.00000E+000,0,0.00000E+000,2.81807E-001
1256,1625,1.88259E+000,7.01106E+000,1.88847E-003,0.00000E+000,0.00000E+000,0.00000E+000,0.00000E+000,0.00000E+000,0.00000E+000,0.00000E+000,0.00000E+000,0.00000E+000,0.00000E+000,0.00000E+000,0,0.00000E+000,2.81807E-001
1241,800,1.44395E+000,-8.52442E+000,1.85060E-003,0.00000E+000,0.00000E+000,0.00000E+000,0.00000E+000,0.00000E+000,0.00000E+000,0.00000E+000,0.00000E+000,0.00000E+000,0.00000E+000,0.00000E+000,0,0.00000E+000,2.81807E-001
1196,1490,7.22997E-001,4.46301E+000,1.84906E-003,0.00000E+000,0.00000E+000,0.00000E+000,0.00000E+000,0.00000E+000,0.00000E+000,0.00000E+000,0.00000E+000,0.00000E+000,0.00000E+000,0.00000E+000,0,0.00000E+000,2.81807E-001
1226,1685,1.32631E+000,8.14178E+000,-1.92153E-004,0.00000E+000,0.00000E+000,0.00000E+000,0.00000E+000,0.00000E+000,0.00000E+000,0.00000E+000,0.00000E+000,0.00000E+000,0.00000E+000,0.00000E+000,0,0.00000E+000,2.81807E-001
1226,1370,1.26708E+000,2.20128E+000,-1.28000E-003,0.00000E+000,0.00000E+000,0.00000E+000,0.00000E+000,0.00000E+000,0.00000E+000,0.00000E+000,0.00000E+000,0.00000E+000,0.00000E+000,0.00000E+000,0,0.00000E+000,2.81807E-001
1166,1715,1.97174E-001,8.70538E+000,-3.12135E-003,0.00000E+000,0.00000E+000,0.00000E+000,0.00000E+000,0.00000E+000,0.00000E+000,0.00000E+000,0.00000E+000,0.00000E+000,0.00000E+000,0.00000E+000,0,0.00000E+000,2.81807E-001
1226,1400,1.27295E+000,2.76724E+000,6.94151E-004,0.00000E+000,0.00000E+000,0.00000E+000,0.00000E+000,0.00000E+000,0.00000E+000,0.00000E+000,0.00000E+000,0.00000E+000,0.00000E+000,0.00000E+000,0,0.00000E+000,2.81807E-001
1091,1580,-1.24413E+000,6.15659E+000,1.06073E-003,0.00000E+000,0.00000E+000,0.00000E+000,0.00000E+000,0.00000E+000,0.00000E+000,0.00000E+000,0.00000E+000,0.00000E+000,0.00000E+000,0.00000E+000,0,0.00000E+000,2.81807E-001
1106,710,-1.11901E+000,-1.02121E+001,-3.31772E-003,0.00000E+000,0.00000E+000,0.00000E+000,0.00000E+000,0.00000E+000,0.00000E+000,0.00000E+000,0.00000E+000,0.00000E+000,0.00000E+000,0.00000E+000,0,0.00000E+000,2.81807E-001
1076,1655,-1.51451E+000,7.56956E+000,-4.60613E-003,0.00000E+000,0.00000E+000,0.00000E+000,0.00000E+000,0.00000E+000,0.00000E+000,0.00000E+000,0.00000E+000,0.00000E+000,0.00000E+000,0.00000E+000,0,0.00000E+000,2.81807E-001
1166,1160,9.49881E-002,-1.75402E+000,-6.88432E-004,0.00000E+000,0.00000E+000,0.00000E+000,0.00000E+000,0.00000E+000,0.00000E+000,0.00000E+000,0.00000E+000,0.00000E+000,0.00000E+000,0.00000E+000,0,0.00000E+000,2.81807E-001
1181,1280,4.00599E-001,5.04851E-001,1.50097E-003,0.00000E+000,0.00000E+000,0.00000E+000,0.00000E+000,0.00000E+000,0.00000E+000,0.00000E+000,0.00000E+000,0.00000E+000,0.00000E+000,0.00000E+000,0,0.00000E+000,2.81807E-001
1211,1010,9.16648E-001,-4.57611E+000,-7.21540E-004,0.00000E+000,0.00000E+000,0.00000E+000,0.00000E+000,0.00000E+000,0.00000E+000,0.00000E+000,0.00000E+000,0.00000E+000,0.00000E+000,0.00000E+000,0,0.00000E+000,2.81807E-001
1166,755,2.09740E-002,-9.36819E+000,2.84261E-003,0.00000E+000,0.00000E+000,0.00000E+000,0.00000E+000,0.00000E+000,0.00000E+000,0.00000E+000,0.00000E+000,0.00000E+000,0.00000E+000,0.00000E+000,0,0.00000E+000,2.81807E-001
1136,830,-5.31693E-001,-7.95863E+000,-3.02284E-003,0.00000E+000,0.00000E+000,0.00000E+000,0.00000E+000,0.00000E+000,0.00000E+000,0.00000E+000,0.00000E+000,0.00000E+000,0.00000E+000,0.00000E+000,0,0.00000E+000,2.81807E-001
1196,1310,6.89359E-001,1.07061E+000,5.77227E-004,0.00000E+000,0.00000E+000,0.00000E+000,0.00000E+000,0.00000E+000,0.00000E+000,0.00000E+000,0.00000E+000,0.00000E+000,0.00000E+000,0.00000E+000,0,0.00000E+000,2.81807E-001
1076,1730,-1.50087E+000,8.98437E+000,-3.90558E-003,0.00000E+000,0.00000E+000,0.00000E+000,0.00000E+000,0.00000E+000,0.00000E+000,0.00000E+000,0.00000E+000,0.00000E+000,0.00000E+000,0.00000E+000,0,0.00000E+000,2.81807E-001
1226,680,1.13852E+000,-1.07785E+001,1.59247E-003,0.00000E+000,0.00000E+000,0.00000E+000,0.00000E+000,0.00000E+000,0.00000E+000,0.00000E+000,0.00000E+000,0.00000E+000,0.00000E+000,0.00000E+000,0,0.00000E+000,2.81807E-001
1166,995,6.51455E-002,-4.85717E+000,3.62071E-003,0.00000E+000,0.00000E+000,0.00000E+000,0.00000E+000,0.00000E+000,0.00000E+000,0.00000E+000,0.00000E+000,0.00000E+000,0.00000E+000,0.00000E+000,0,0.00000E+000,2.81807E-001
1121,1475,-6.97095E-001,4.17769E+000,-2.49325E-003,0.00000E+000,0.00000E+000,0.00000E+000,0.00000E+000,0.00000E+000,0.00000E+000,0.00000E+000,0.00000E+000,0.00000E+000,0.00000E+000,0.00000E+000,0,0.00000E+000,2.81807E-001
1166,1535,1.64215E-001,5.31028E+000,-3.57074E-004,0.00000E+000,0.00000E+000,0.00000E+000,0.00000E+000,0.00000E+000,0.00000E+000,0.00000E+000,0.00000E+000,0.00000E+000,0.00000E+000,0.00000E+000,0,0.00000E+000,2.81807E-001
1091,665,-1.40989E+000,-1.10563E+001,-4.42794E-003,0.00000E+000,0.00000E+000,0.00000E+000,0.00000E+000,0.00000E+000,0.00000E+000,0.00000E+000,0.00000E+000,0.00000E+000,0.00000E+000,0.00000E+000,0,0.00000E+000,2.81807E-001
1151,1205,-1.79466E-001,-9.06340E-001,2.82511E-003,0.00000E+000,0.00000E+000,0.00000E+000,0.00000E+000,0.00000E+000,0.00000E+000,0.00000E+000,0.00000E+000,0.00000E+000,0.00000E+000,0.00000E+000,0,0.00000E+000,2.81807E-001
1241,815,1.44677E+000,-8.24260E+000,1.96631E-003,0.00000E+000,0.00000E+000,0.00000E+000,0.00000E+000,0.00000E+000,0.00000E+000,0.00000E+000,0.00000E+000,0.00000E+000,0.00000E+000,0.00000E+000,0,0.00000E+000,2.81807E-001
1211,1355,9.80874E-001,1.91823E+000,-1.23840E-003,0.00000E+000,0.00000E+000,0.00000E+000,0.00000E+000,0.00000E+000,0.00000E+000,0.00000E+000,0.00000E+000,0.00000E+000,0.00000E+000,0.00000E+000,0,0.00000E+000,2.81807E-001
1106,1160,-1.03738E+000,-1.75443E+000,-1.02222E-003,0.00000E+000,0.00000E+000,0.00000E+000,0.00000E+000,0.00000E+000,0.00000E+000,0.00000E+000,0.00000E+000,0.00000E+000,0.00000E+000,0.00000E+000,0,0.00000E+000,2.81807E-001
1076,725,-1.68190E+000,-9.92961E+000,-5.68670E-003,0.00000E+000,0.00000E+000,0.00000E+000,0.00000E+000,0.00000E+000,0.00000E+000,0.00000E+000,0.00000E+000,0.00000E+000,0.00000E+000,0.00000E+000,0,0.00000E+000,2.81807E-001
1211,1685,1.04336E+000,8.14172E+000,5.50303E-003,0.00000E+000,0.00000E+000,0.00000E+000,0.00000E+000,0.00000E+000,0.00000E+000,0.00000E+000,0.00000E+000,0.00000E+000,0.00000E+000,0.00000E+000,0,0.00000E+000,2.81807E-001
1181,875,3.25377E-001,-7.11383E+000,-2.10472E-003,0.00000E+000,0.00000E+000,0.00000E+000,0.00000E+000,0.00000E+000,0.00000E+000,0.00000E+000,0.00000E+000,0.00000E+000,0.00000E+000,0.00000E+000,0,0.00000E+000,2.81807E-001
1181,1490,4.39489E-001,4.46253E+000,1.22228E-003,0.00000E+000,0.00000E+000,0.00000E+000,0.00000E+000,0.00000E+000,0.00000E+000,0.00000E+000,0.00000E+000,0.00000E+000,0.00000E+000,0.00000E+000,0,0.00000E+000,2.81807E-001
1061,710,-1.96658E+000,-1.02103E+001,-3.20203E-004,0.00000E+000,0.00000E+000,0.00000E+000,0.00000E+000,0.00000E+000,0.00000E+000,0.00000E+000,0.00000E+000,0.00000E+000,0.00000E+000,0.00000E+000,0,0.00000E+000,2.81807E-001
1196,1190,6.66744E-001,-1.18942E+000,-2.13568E-003,0.00000E+000,0.00000E+000,0.00000E+000,0.00000E+000,0.00000E+000,0.00000E+000,0.00000E+000,0.00000E+000,0.00000E+000,0.00000E+000,0.00000E+000,0,0.00000E+000,2.81807E-001
1181,1160,3.78332E-001,-1.75406E+000,8.69370E-004,0.00000E+000,0.00000E+000,0.00000E+000,0.00000E+000,0.00000E+000,0.00000E+000,0.00000E+000,0.00000E+000,0.00000E+000,0.00000E+000,0.00000E+000,0,0.00000E+000,2.81807E-001
1121,1625,-6.69329E-001,7.00527E+000,7.18206E-004,0.00000E+000,0.00000E+000,0.00000E+000,0.00000E+000,0.00000E+000,0.00000E+000,0.00000E+000,0.00000E+000,0.00000E+000,0.00000E+000,0.00000E+000,0,0.00000E+000,2.81807E-001
1106,1370,-9.99456E-001,2.19853E+000,-2.55341E-003,0.00000E+000,0.00000E+000,0.00000E+000,0.00000E+000,0.00000E+000,0.00000E+000,0.00000E+000,0.00000E+000,0.00000E+000,0.00000E+000,0.00000E+000,0,0.00000E+000,2.81807E-001
1226,1010,1.19965E+000,-4.57573E+000,-2.08050E-003,0.00000E+000,0.00000E+000,0.00000E+000,0.00000E+000,0.00000E+000,0.00000E+000,0.00000E+000,0.00000E+000,0.00000E+000,0.00000E+000,0.00000E+000,0,0.00000E+000,2.81807E-001
1211,1325,9.75750E-001,1.35347E+000,2.72659E-003,0.00000E+000,0.00000E+000,0.00000E+000,0.00000E+000,0.00000E+000,0.00000E+000,0.00000E+000,0.00000E+000,0.00000E+000,0.00000E+000,0.00000E+000,0,0.00000E+000,2.81807E-001
1166,980,6.21494E-002,-5.13982E+000,1.65799E-003,0.00000E+000,0.00000E+000,0.00000E+000,0.00000E+000,0.00000E+000,0.00000E+000,0.00000E+000,0.00000E+000,0.00000E+000,0.00000E+000,0.00000E+000,0,0.00000E+000,2.81807E-001
1241,1760,1.62397E+000,9.55842E+000,-1.53215E-003,0.00000E+000,0.00000E+000,0.00000E+000,0.00000E+000,0.00000E+000,0.00000E+000,0.00000E+000,0.00000E+000,0.00000E+000,0.00000E+000,0.00000E+000,0,0.00000E+000,2.81807E-001
1181,1715,4.80691E-001,8.70603E+000,-3.47734E-003,0.00000E+000,0.00000E+000,0.00000E+000,0.00000E+000,0.00000E+000,0.00000E+000,0.00000E+000,0.00000E+000,0.00000E+000,0.00000E+000,0.00000E+000,0,0.00000E+000,2.81807E-001
1121,665,-8.44054E-001,-1.10566E+001,9.00581E-005,0.00000E+000,0.00000E+000,0.00000E+000,0.00000E+000,0.00000E+000,0.00000E+000,0.00000E+000,0.00000E+000,0.00000E+000,0.00000E+000,0.00000E+000,0,0.00000E+000,2.81807E-001
1226,1355,1.26392E+000,1.91872E+000,-4.29270E-003,0.00000E+000,0.00000E+000,0.00000E+000,0.00000E+000,0.00000E+000,0.00000E+000,0.00000E+000,0.00000E+000,0.00000E+000,0.00000E+000,0.00000E+000,0,0.00000E+000,2.81807E-001
1136,1025,-4.96122E-001,-4.29389E+000,-2.67494E-003,0.00000E+000,0.00000E+000,0.00000E+000,0.00000E+000,0.00000E+000,0.00000E+000,0.00000E+000,0.00000E+000,0.00000E+000,0.00000E+000,0.00000E+000,0,0.00000E+000,2.81807E-001
1061,1655,-1.79754E+000,7.56923E+000,-2.37715E-003,0.00000E+000,0.00000E+000,0.00000E+000,0.00000E+000,0.00000E+000,0.00000E+000,0.00000E+000,0.00000E+000,0.00000E+000,0.00000E+000,0.00000E+000,0,0.00000E+000,2.81807E-001
1211,1310,9.72913E-001,1.07095E+000,2.39831E-003,0.00000E+000,0.00000E+000,0.00000E+000,0.00000E+000,0.00000E+000,0.00000E+000,0.00000E+000,0.00000E+000,0.00000E+000,0.00000E+000,0.00000E+000,0,0.00000E+000,2.81807E-001
1256,1745,1.90421E+000,9.27528E+000,-7.12793E-003,0.00000E+000,0.00000E+000,0.00000E+000,0.00000E+000,0.00000E+000,0.00000E+000,0.00000E+000,0.00000E+000,0.00000E+000,0.00000E+000,0.00000E+000,0,0.00000E+000,2.81807E-001
1076,800,-1.66812E+000,-8.52067E+000,-2.60364E-003,0.00000E+000,0.00000E+000,0.00000E+000,0.00000E+000,0.00000E+000,0.00000E+000,0.00000E+000,0.00000E+000,0.00000E+000,0.00000E+000,0.00000E+000,0,0.00000E+000,2.81807E-001
1061,1685,-1.79249E+000,8.13468E+000,-5.43666E-003,0.00000E+000,0.00000E+000,0.00000E+000,0.00000E+000,0.00000E+000,0.00000E+000,0.00000E+000,0.00000E+000,0.00000E+000,0.00000E+000,0.00000E+000,0,0.00000E+000,2.81807E-001
1091,1445,-1.26890E+000,3.61206E+000,-1.57626E-003,0.00000E+000,0.00000E+000,0.00000E+000,0.00000E+000,0.00000E+000,0.00000E+000,0.00000E+000,0.00000E+000,0.00000E+000,0.00000E+000,0.00000E+000,0,0.00000E+000,2.81807E-001
1091,725,-1.39899E+000,-9.92934E+000,-3.46077E-003,0.00000E+000,0.00000E+000,0.00000E+000,0.00000E+000,0.00000E+000,0.00000E+000,0.00000E+000,0.00000E+000,0.00000E+000,0.00000E+000,0.00000E+000,0,0.00000E+000,2.81807E-001
1076,710,-1.68467E+000,-1.02116E+001,-6.33665E-003,0.00000E+000,0.00000E+000,0.00000E+000,0.00000E+000,0.00000E+000,0.00000E+000,0.00000E+000,0.00000E+000,0.00000E+000,0.00000E+000,0.00000E+000,0,0.00000E+000,2.81807E-001
1166,1205,1.03858E-001,-9.06454E-001,4.22531E-003,0.00000E+000,0.00000E+000,0.00000E+000,0.00000E+000,0.00000E+000,0.00000E+000,0.00000E+000,0.00000E+000,0.00000E+000,0.00000E+000,0.00000E+000,0,0.00000E+000,2.81807E-001
1196,1430,7.11802E-001,3.33191E+000,1.62297E-003,0.00000E+000,0.00000E+000,0.00000E+000,0.00000E+000,0.00000E+000,0.00000E+000,0.00000E+000,0.00000E+000,0.00000E+000,0.00000E+000,0.00000E+000,0,0.00000E+000,2.81807E-001
1181,995,3.48221E-001,-4.85737E+000,3.88302E-003,0.00000E+000,0.00000E+000,0.00000E+000,0.00000E+000,0.00000E+000,0.00000E+000,0.00000E+000,0.00000E+000,0.00000E+000,0.00000E+000,0.00000E+000,0,0.00000E+000,2.81807E-001
1196,1160,6.61395E-001,-1.75390E+000,-2.98226E-004,0.00000E+000,0.00000E+000,0.00000E+000,0.00000E+000,0.00000E+000,0.00000E+000,0.00000E+000,0.00000E+000,0.00000E+000,0.00000E+000,0.00000E+000,0,0.00000E+000,2.81807E-001
1226,1475,1.28707E+000,4.18048E+000,1.23006E-003,0.00000E+000,0.00000E+000,0.00000E+000,0.00000E+000,0.00000E+000,0.00000E+000,0.00000E+000,0.00000E+000,0.00000E+000,0.00000E+000,0.00000E+000,0,0.00000E+000,2.81807E-001
1166,1610,1.78222E-001,6.72506E+000,8.11108E-004,0.00000E+000,0.00000E+000,0.00000E+000,0.00000E+000,0.00000E+000,0.00000E+000,0.00000E+000,0.00000E+000,0.00000E+000,0.00000E+000,0.00000E+000,0,0.00000E+000,2.81807E-001
1106,1295,-1.01280E+000,7.86677E-001,-2.49945E-004,0.00000E+000,0.00000E+000,0.00000E+000,0.00000E+000,0.00000E+000,0.00000E+000,0.00000E+000,0.00000E+000,0.00000E+000,0.00000E+000,0.00000E+000,0,0.00000E+000,2.81807E-001
1166,770,2.34343E-002,-9.08675E+000,3.85938E-004,0.00000E+000,0.00000E+000,0.00000E+000,0.00000E+000,0.00000E+000,0.00000E+000,0.00000E+000,0.00000E+000,0.00000E+000,0.00000E+000,0.00000E+000,0,0.00000E+000,2.81807E-001
1121,890,-8.02848E-001,-6.83069E+000,3.75958E-003,0.00000E+000,0.00000E+000,0.00000E+000,0.00000E+000,0.00000E+000,0.00000E+000,0.00000E+000,0.00000E+000,0.00000E+000,0.00000E+000,0.00000E+000,0,0.00000E+000,2.81807E-001
1091,1325,-1.28934E+000,1.35199E+000,9.63948E-003,0.00000E+000,0.00000E+000,0.00000E+000,0.00000E+000,0.00000E+000,0.00000E+000,0.00000E+000,0.00000E+000,0.00000E+000,0.00000E+000,0.00000E+000,0,0.00000E+000,2.81807E-001
1241,680,1.42116E+000,-1.07789E+001,-9.87548E-004,0.00000E+000,0.00000E+000,0.00000E+000,0.00000E+000,0.00000E+000,0.00000E+000,0.00000E+000,0.00000E+000,0.00000E+000,0.00000E+000,0.00000E+000,0,0.00000E+000,2.81807E-001
1106,1085,-1.05144E+000,-3.16561E+000,-5.06297E-003,0.00000E+000,0.00000E+000,0.00000E+000,0.00000E+000,0.00000E+000,0.00000E+000,0.00000E+000,0.00000E+000,0.00000E+000,0.00000E+000,0.00000E+000,0,0.00000E+000,2.81807E-001
1151,1190,-1.82397E-001,-1.18925E+000,1.37038E-003,0.00000E+000,0.00000E+000,0.00000E+000,0.00000E+000,0.00000E+000,0.00000E+000,0.00000E+000,0.00000E+000,0.00000E+000,0.00000E+000,0.00000E+000,0,0.00000E+000,2.81807E-001
1091,1010,-1.34667E+000,-4.57479E+000,5.58151E-003,0.00000E+000,0.00000E+000,0.00000E+000,0.00000E+000,0.00000E+000,0.00000E+000,0.00000E+000,0.00000E+000,0.00000E+000,0.00000E+000,0.00000E+000,0,0.00000E+000,2.81807E-001
1091,1400,-1.27725E+000,2.76376E+000,-3.26942E-003,0.00000E+000,0.00000E+000,0.00000E+000,0.00000E+000,0.00000E+000,0.00000E+000,0.00000E+000,0.00000E+000,0.00000E+000,0.00000E+000,0.00000E+000,0,0.00000E+000,2.81807E-001
1211,1760,1.05674E+000,9.55723E+000,-1.93231E-005,0.00000E+000,0.00000E+000,0.00000E+000,0.00000E+000,0.00000E+000,0.00000E+000,0.00000E+000,0.00000E+000,0.00000E+000,0.00000E+000,0.00000E+000,0,0.00000E+000,2.81807E-001
1241,1670,1.60696E+000,7.85933E+000,-1.81713E-003,0.00000E+000,0.00000E+000,0.00000E+000,0.00000E+000,0.00000E+000,0.00000E+000,0.00000E+000,0.00000E+000,0.00000E+000,0.00000E+000,0.00000E+000,0,0.00000E+000,2.81807E-001
1091,710,-1.40192E+000,-1.02118E+001,-5.39253E-003,0.00000E+000,0.00000E+000,0.00000E+000,0.00000E+000,0.00000E+000,0.00000E+000,0.00000E+000,0.00000E+000,0.00000E+000,0.00000E+000,0.00000E+000,0,0.00000E+000,2.81807E-001
1106,1025,-1.06195E+000,-4.29351E+000,-2.08772E-003,0.00000E+000,0.00000E+000,0.00000E+000,0.00000E+000,0.00000E+000,0.00000E+000,0.00000E+000,0.00000E+000,0.00000E+000,0.00000E+000,0.00000E+000,0,0.00000E+000,2.81807E-001
1061,1625,-1.80189E+000,7.00429E+000,6.82614E-003,0.00000E+000,0.00000E+000,0.00000E+000,0.00000E+000,0.00000E+000,0.00000E+000,0.00000E+000,0.00000E+000,0.00000E+000,0.00000E+000,0.00000E+000,0,0.00000E+000,2.81807E-001
1181,1535,4.47343E-001,5.31044E+000,-2.92002E-003,0.00000E+000,0.00000E+000,0.00000E+000,0.00000E+000,0.00000E+000,0.00000E+000,0.00000E+000,0.00000E+000,0.00000E+000,0.00000E+000,0.00000E+000,0,0.00000E+000,2.81807E-001
1226,1310,1.25627E+000,1.07070E+000,2.35948E-003,0.00000E+000,0.00000E+000,0.00000E+000,0.00000E+000,0.00000E+000,0.00000E+000,0.00000E+000,0.00000E+000,0.00000E+000,0.00000E+000,0.00000E+000,0,0.00000E+000,2.81807E-001
1181,755,3.03453E-001,-9.36877E+000,-4.63197E-004,0.00000E+000,0.00000E+000,0.00000E+000,0.00000E+000,0.00000E+000,0.00000E+000,0.00000E+000,0.00000E+000,0.00000E+000,0.00000E+000,0.00000E+000,0,0.00000E+000,2.81807E-001
1106,1445,-9.85568E-001,3.61224E+000,-4.32033E-004,0.00000E+000,0.00000E+000,0.00000E+000,0.00000E+000,0.00000E+000,0.00000E+000,0.00000E+000,0.00000E+000,0.00000E+000,0.00000E+000,0.00000E+000,0,0.00000E+000,2.81807E-001
1211,1160,9.44694E-001,-1.75363E+000,2.71466E-004,0.00000E+000,0.00000E+000,0.00000E+000,0.00000E+000,0.00000E+000,0.00000E+000,0.00000E+000,0.00000E+000,0.00000E+000,0.00000E+000,0.00000E+000,0,0.00000E+000,2.81807E-001
1136,665,-5.61746E-001,-1.10576E+001,-3.25509E-003,0.00000E+000,0.00000E+000,0.00000E+000,0.00000E+000,0.00000E+000,0.00000E+000,0.00000E+000,0.00000E+000,0.00000E+000,0.00000E+000,0.00000E+000,0,0.00000E+000,2.81807E-001
1076,1685,-1.50883E+000,8.13566E+000,-2.36830E-003,0.00000E+000,0.00000E+000,0.00000E+000,0.00000E+000,0.00000E+000,0.00000E+000,0.00000E+000,0.00000E+000,0.00000E+000,0.00000E+000,0.00000E+000,0,0.00000E+000,2.81807E-001
1271,1745,2.18834E+000,9.27613E+000,-4.13056E-003,0.00000E+000,0.00000E+000,0.00000E+000,0.00000E+000,0.00000E+000,0.00000E+000,0.00000E+000,0.00000E+000,0.00000E+000,0.00000E+000,0.00000E+000,0,0.00000E+000,2.81807E-001
1211,1430,9.95510E-001,3.33270E+000,3.96652E-003,0.00000E+000,0.00000E+000,0.00000E+000,0.00000E+000,0.00000E+000,0.00000E+000,0.00000E+000,0.00000E+000,0.00000E+000,0.00000E+000,0.00000E+000,0,0.00000E+000,2.81807E-001
1196,875,6.08527E-001,-7.11399E+000,-7.33751E-004,0.00000E+000,0.00000E+000,0.00000E+000,0.00000E+000,0.00000E+000,0.00000E+000,0.00000E+000,0.00000E+000,0.00000E+000,0.00000E+000,0.00000E+000,0,0.00000E+000,2.81807E-001
1106,1325,-1.00719E+000,1.35181E+000,1.20444E-003,0.00000E+000,0.00000E+000,0.00000E+000,0.00000E+000,0.00000E+000,0.00000E+000,0.00000E+000,0.00000E+000,0.00000E+000,0.00000E+000,0.00000E+000,0,0.00000E+000,2.81807E-001
1121,1355,-7.18844E-001,1.91666E+000,-1.17840E-003,0.00000E+000,0.00000E+000,0.00000E+000,0.00000E+000,0.00000E+000,0.00000E+000,0.00000E+000,0.00000E+000,0.00000E+000,0.00000E+000,0.00000E+000,0,0.00000E+000,2.81807E-001
1106,725,-1.11612E+000,-9.92977E+000,-1.84273E-003,0.00000E+000,0.00000E+000,0.00000E+000,0.00000E+000,0.00000E+000,0.00000E+000,0.00000E+000,0.00000E+000,0.00000E+000,0.00000E+000,0.00000E+000,0,0.00000E+000,2.81807E-001
1241,1475,1.57066E+000,4.18097E+000,1.79244E-003,0.00000E+000,0.00000E+000,0.00000E+000,0.00000E+000,0.00000E+000,0.00000E+000,0.00000E+000,0.00000E+000,0.00000E+000,0.00000E+000,0.00000E+000,0,0.00000E+000,2.81807E-001
1091,800,-1.38561E+000,-8.52104E+000,-4.36224E-003,0.00000E+000,0.00000E+000,0.00000E+000,0.00000E+000,0.00000E+000,0.00000E+000,0.00000E+000,0.00000E+000,0.00000E+000,0.00000E+000,0.00000E+000,0,0.00000E+000,2.81807E-001
1151,770,-2.59564E-001,-9.08621E+000,-9.44764E-004,0.00000E+000,0.00000E+000,0.00000E+000,0.00000E+000,0.00000E+000,0.00000E+000,0.00000E+000,0.00000E+000,0.00000E+000,0.00000E+000,0.00000E+000,0,0.00000E+000,2.81807E-001
1106,1010,-1.06476E+000,-4.57550E+000,-2.91579E-003,0.00000E+000,0.00000E+000,0.00000E+000,0.00000E+000,0.00000E+000,0.00000E+000,0.00000E+000,0.00000E+000,0.00000E+000,0.00000E+000,0.00000E+000,0,0.00000E+000,2.81807E-001
1121,1295,-7.29587E-001,7.87168E-001,4.54605E-004,0.00000E+000,0.00000E+000,0.00000E+000,0.00000E+000,0.00000E+000,0.00000E+000,0.00000E+000,0.00000E+000,0.00000E+000,0.00000E+000,0.00000E+000,0,0.00000E+000,2.81807E-001
1181,1610,4.61449E-001,6.72511E+000,-1.32941E-003,0.00000E+000,0.00000E+000,0.00000E+000,0.00000E+000,0.00000E+000,0.00000E+000,0.00000E+000,0.00000E+000,0.00000E+000,0.00000E+000,0.00000E+000,0,0.00000E+000,2.81807E-001
1136,755,-5.45220E-001,-9.36745E+000,-1.94101E-003,0.00000E+000,0.00000E+000,0.00000E+000,0.00000E+000,0.00000E+000,0.00000E+000,0.00000E+000,0.00000E+000,0.00000E+000,0.00000E+000,0.00000E+000,0,0.00000E+000,2.81807E-001
1091,1265,-1.29743E+000,2.24304E-001,3.35223E-002,0.00000E+000,0.00000E+000,0.00000E+000,0.00000E+000,0.00000E+000,0.00000E+000,0.00000E+000,0.00000E+000,0.00000E+000,0.00000E+000,0.00000E+000,0,0.00000E+000,2.81807E-001
1151,860,-2.43093E-001,-7.39510E+000,-8.18844E-004,0.00000E+000,0.00000E+000,0.00000E+000,0.00000E+000,0.00000E+000,0.00000E+000,0.00000E+000,0.00000E+000,0.00000E+000,0.00000E+000,0.00000E+000,0,0.00000E+000,2.81807E-001
1226,1130,1.22261E+000,-2.31812E+000,2.47517E-003,0.00000E+000,0.00000E+000,0.00000E+000,0.00000E+000,0.00000E+000,0.00000E+000,0.00000E+000,0.00000E+000,0.00000E+000,0.00000E+000,0.00000E+000,0,0.00000E+000,2.81807E-001
1136,1115,-4.79473E-001,-2.60107E+000,-7.51569E-004,0.00000E+000,0.00000E+000,0.00000E+000,0.00000E+000,0.00000E+000,0.00000E+000,0.00000E+000,0.00000E+000,0.00000E+000,0.00000E+000,0.00000E+000,0,0.00000E+000,2.81807E-001
1061,725,-1.96355E+000,-9.92830E+000,2.76240E-003,0.00000E+000,0.00000E+000,0.00000E+000,0.00000E+000,0.00000E+000,0.00000E+000,0.00000E+000,0.00000E+000,0.00000E+000,0.00000E+000,0.00000E+000,0,0.00000E+000,2.81807E-001
1076,1760,-1.49576E+000,9.55027E+000,-6.65264E-003,0.00000E+000,0.00000E+000,0.00000E+000,0.00000E+000,0.00000E+000,0.00000E+000,0.00000E+000,0.00000E+000,0.00000E+000,0.00000E+000,0.00000E+000,0,0.00000E+000,2.81807E-001
1121,1010,-7.81634E-001,-4.57556E+000,-1.14597E-003,0.00000E+000,0.00000E+000,0.00000E+000,0.00000E+000,0.00000E+000,0.00000E+000,0.00000E+000,0.00000E+000,0.00000E+000,0.00000E+000,0.00000E+000,0,0.00000E+000,2.81807E-001
1136,890,-5.20079E-001,-6.83126E+000,2.92112E-003,0.00000E+000,0.00000E+000,0.00000E+000,0.00000E+000,0.00000E+000,0.00000E+000,0.00000E+000,0.00000E+000,0.00000E+000,0.00000E+000,0.00000E+000,0,0.00000E+000,2.81807E-001
1136,1580,-3.94305E-001,6.15766E+000,-3.89787E-004,0.00000E+000,0.00000E+000,0.00000E+000,0.00000E+000,0.00000E+000,0.00000E+000,0.00000E+000,0.00000E+000,0.00000E+000,0.00000E+000,0.00000E+000,0,0.00000E+000,2.81807E-001
1256,1670,1.89050E+000,7.85990E+000,-3.11442E-003,0.00000E+000,0.00000E+000,0.00000E+000,0.00000E+000,0.00000E+000,0.00000E+000,0.00000E+000,0.00000E+000,0.00000E+000,0.00000E+000,0.00000E+000,0,0.00000E+000,2.81807E-001
1226,1430,1.27904E+000,3.33304E+000,4.54823E-003,0.00000E+000,0.00000E+000,0.00000E+000,0.00000E+000,0.00000E+000,0.00000E+000,0.00000E+000,0.00000E+000,0.00000E+000,0.00000E+000,0.00000E+000,0,0.00000E+000,2.81807E-001
1106,1715,-9.36554E-001,8.70309E+000,-1.59651E-003,0.00000E+000,0.00000E+000,0.00000E+000,0.00000E+000,0.00000E+000,0.00000E+000,0.00000E+000,0.00000E+000,0.00000E+000,0.00000E+000,0.00000E+000,0,0.00000E+000,2.81807E-001
1121,1445,-7.02379E-001,3.61202E+000,-7.63309E-004,0.00000E+000,0.00000E+000,0.00000E+000,0.00000E+000,0.00000E+000,0.00000E+000,0.00000E+000,0.00000E+000,0.00000E+000,0.00000E+000,0.00000E+000,0,0.00000E+000,2.81807E-001
1106,1100,-1.04881E+000,-2.88336E+000,-5.86933E-003,0.00000E+000,0.00000E+000,0.00000E+000,0.00000E+000,0.00000E+000,0.00000E+000,0.00000E+000,0.00000E+000,0.00000E+000,0.00000E+000,0.00000E+000,0,0.00000E+000,2.81807E-001
1181,1205,3.86580E-001,-9.06848E-001,2.18353E-004,0.00000E+000,0.00000E+000,0.00000E+000,0.00000E+000,0.00000E+000,0.00000E+000,0.00000E+000,0.00000E+000,0.00000E+000,0.00000E+000,0.00000E+000,0,0.00000E+000,2.81807E-001
1091,1685,-1.22578E+000,8.13583E+000,-4.86601E-003,0.00000E+000,0.00000E+000,0.00000E+000,0.00000E+000,0.00000E+000,0.00000E+000,0.00000E+000,0.00000E+000,0.00000E+000,0.00000E+000,0.00000E+000,0,0.00000E+000,2.81807E-001
1136,770,-5.42253E-001,-9.08547E+000,7.63835E-005,0.00000E+000,0.00000E+000,0.00000E+000,0.00000E+000,0.00000E+000,0.00000E+000,0.00000E+000,0.00000E+000,0.00000E+000,0.00000E+000,0.00000E+000,0,0.00000E+000,2.81807E-001
1226,1325,1.25911E+000,1.35346E+000,2.57441E-003,0.00000E+000,0.00000E+000,0.00000E+000,0.00000E+000,0.00000E+000,0.00000E+000,0.00000E+000,0.00000E+000,0.00000E+000,0.00000E+000,0.00000E+000,0,0.00000E+000,2.81807E-001
1076,1505,-1.53993E+000,4.74318E+000,9.92206E-003,0.00000E+000,0.00000E+000,0.00000E+000,0.00000E+000,0.00000E+000,0.00000E+000,0.00000E+000,0.00000E+000,0.00000E+000,0.00000E+000,0.00000E+000,0,0.00000E+000,2.81807E-001
1181,695,2.92312E-001,-1.04954E+001,-1.29487E-003,0.00000E+000,0.00000E+000,0.00000E+000,0.00000E+000,0.00000E+000,0.00000E+000,0.00000E+000,0.00000E+000,0.00000E+000,0.00000E+000,0.00000E+000,0,0.00000E+000,2.81807E-001
1076,1625,-1.51974E+000,7.00409E+000,-3.01407E-003,0.00000E+000,0.00000E+000,0.00000E+000,0.00000E+000,0.00000E+000,0.00000E+000,0.00000E+000,0.00000E+000,0.00000E+000,0.00000E+000,0.00000E+000,0,0.00000E+000,2.81807E-001
1106,800,-1.10268E+000,-8.52158E+000,-2.60650E-003,0.00000E+000,0.00000E+000,0.00000E+000,0.00000E+000,0.00000E+000,0.00000E+000,0.00000E+000,0.00000E+000,0.00000E+000,0.00000E+000,0.00000E+000,0,0.00000E+000,2.81807E-001
1151,950,-2.26502E-001,-5.70349E+000,2.65908E-004,0.00000E+000,0.00000E+000,0.00000E+000,0.00000E+000,0.00000E+000,0.00000E+000,0.00000E+000,0.00000E+000,0.00000E+000,0.00000E+000,0.00000E+000,0,0.00000E+000,2.81807E-001
1211,875,8.91708E-001,-7.11465E+000,6.79155E-004,0.00000E+000,0.00000E+000,0.00000E+000,0.00000E+000,0.00000E+000,0.00000E+000,0.00000E+000,0.00000E+000,0.00000E+000,0.00000E+000,0.00000E+000,0,0.00000E+000,2.81807E-001
1136,1010,-4.98731E-001,-4.57588E+000,-1.58400E-003,0.00000E+000,0.00000E+000,0.00000E+000,0.00000E+000,0.00000E+000,0.00000E+000,0.00000E+000,0.00000E+000,0.00000E+000,0.00000E+000,0.00000E+000,0,0.00000E+000,2.81807E-001
1196,1550,7.33935E-001,5.59392E+000,-8.12595E-005,0.00000E+000,0.00000E+000,0.00000E+000,0.00000E+000,0.00000E+000,0.00000E+000,0.00000E+000,0.00000E+000,0.00000E+000,0.00000E+000,0.00000E+000,0,0.00000E+000,2.81807E-001
1196,1475,7.19966E-001,4.18004E+000,-1.59829E-004,0.00000E+000,0.00000E+000,0.00000E+000,0.00000E+000,0.00000E+000,0.00000E+000,0.00000E+000,0.00000E+000,0.00000E+000,0.00000E+000,0.00000E+000,0,0.00000E+000,2.81807E-001
1136,1295,-4.46259E-001,7.87348E-001,1.87583E-003,0.00000E+000,0.00000E+000,0.00000E+000,0.00000E+000,0.00000E+000,0.00000E+000,0.00000E+000,0.00000E+000,0.00000E+000,0.00000E+000,0.00000E+000,0,0.00000E+000,2.81807E-001
1121,725,-8.33096E-001,-9.92986E+000,8.37538E-004,0.00000E+000,0.00000E+000,0.00000E+000,0.00000E+000,0.00000E+000,0.00000E+000,0.00000E+000,0.00000E+000,0.00000E+000,0.00000E+000,0.00000E+000,0,0.00000E+000,2.81807E-001
1151,1010,-2.15669E-001,-4.57582E+000,-9.79615E-004,0.00000E+000,0.00000E+000,0.00000E+000,0.00000E+000,0.00000E+000,0.00000E+000,0.00000E+000,0.00000E+000,0.00000E+000,0.00000E+000,0.00000E+000,0,0.00000E+000,2.81807E-001
1106,1685,-9.42258E-001,8.13678E+000,-3.63290E-003,0.00000E+000,0.00000E+000,0.00000E+000,0.00000E+000,0.00000E+000,0.00000E+000,0.00000E+000,0.00000E+000,0.00000E+000,0.00000E+000,0.00000E+000,0,0.00000E+000,2.81807E-001
1226,1145,1.22604E+000,-2.03538E+000,7.72061E-003,0.00000E+000,0.00000E+000,0.00000E+000,0.00000E+000,0.00000E+000,0.00000E+000,0.00000E+000,0.00000E+000,0.00000E+000,0.00000E+000,0.00000E+000,0,0.00000E+000,2.81807E-001
1151,890,-2.37289E-001,-6.83159E+000,1.95568E-003,0.00000E+000,0.00000E+000,0.00000E+000,0.00000E+000,0.00000E+000,0.00000E+000,0.00000E+000,0.00000E+000,0.00000E+000,0.00000E+000,0.00000E+000,0,0.00000E+000,2.81807E-001
1151,1580,-1.10922E-001,6.15820E+000,-5.28816E-004,0.00000E+000,0.00000E+000,0.00000E+000,0.00000E+000,0.00000E+000,0.00000E+000,0.00000E+000,0.00000E+000,0.00000E+000,0.00000E+000,0.00000E+000,0,0.00000E+000,2.81807E-001
1271,1670,2.17467E+000,7.86084E+000,5.81314E-004,0.00000E+000,0.00000E+000,0.00000E+000,0.00000E+000,0.00000E+000,0.00000E+000,0.00000E+000,0.00000E+000,0.00000E+000,0.00000E+000,0.00000E+000,0,0.00000E+000,2.81807E-001
1196,695,5.74974E-001,-1.04962E+001,-2.87944E-003,0.00000E+000,0.00000E+000,0.00000E+000,0.00000E+000,0.00000E+000,0.00000E+000,0.00000E+000,0.00000E+000,0.00000E+000,0.00000E+000,0.00000E+000,0,0.00000E+000,2.81807E-001
1136,1130,-4.76449E-001,-2.31866E+000,1.68152E-003,0.00000E+000,0.00000E+000,0.00000E+000,0.00000E+000,0.00000E+000,0.00000E+000,0.00000E+000,0.00000E+000,0.00000E+000,0.00000E+000,0.00000E+000,0,0.00000E+000,2.81807E-001
1166,950,5.66545E-002,-5.70375E+000,1.80014E-003,0.00000E+000,0.00000E+000,0.00000E+000,0.00000E+000,0.00000E+000,0.00000E+000,0.00000E+000,0.00000E+000,0.00000E+000,0.00000E+000,0.00000E+000,0,0.00000E+000,2.81807E-001
1226,1745,1.33744E+000,9.27489E+000,-1.49616E-003,0.00000E+000,0.00000E+000,0.00000E+000,0.00000E+000,0.00000E+000,0.00000E+000,0.00000E+000,0.00000E+000,0.00000E+000,0.00000E+000,0.00000E+000,0,0.00000E+000,2.81807E-001
1181,845,3.19743E-001,-7.67754E+000,-3.00548E-003,0.00000E+000,0.00000E+000,0.00000E+000,0.00000E+000,0.00000E+000,0.00000E+000,0.00000E+000,0.00000E+000,0.00000E+000,0.00000E+000,0.00000E+000,0,0.00000E+000,2.81807E-001
1076,740,-1.67935E+000,-9.64759E+000,-6.91112E-003,0.00000E+000,0.00000E+000,0.00000E+000,0.00000E+000,0.00000E+000,0.00000E+000,0.00000E+000,0.00000E+000,0.00000E+000,0.00000E+000,0.00000E+000,0,0.00000E+000,2.81807E-001
1121,1160,-7.53965E-001,-1.75408E+000,2.27599E-003,0.00000E+000,0.00000E+000,0.00000E+000,0.00000E+000,0.00000E+000,0.00000E+000,0.00000E+000,0.00000E+000,0.00000E+000,0.00000E+000,0.00000E+000,0,0.00000E+000,2.81807E-001
1211,1550,1.01764E+000,5.59453E+000,1.54399E-003,0.00000E+000,0.00000E+000,0.00000E+000,0.00000E+000,0.00000E+000,0.00000E+000,0.00000E+000,0.00000E+000,0.00000E+000,0.00000E+000,0.00000E+000,0,0.00000E+000,2.81807E-001
1196,1610,7.44951E-001,6.72561E+000,-1.45548E-003,0.00000E+000,0.00000E+000,0.00000E+000,0.00000E+000,0.00000E+000,0.00000E+000,0.00000E+000,0.00000E+000,0.00000E+000,0.00000E+000,0.00000E+000,0,0.00000E+000,2.81807E-001
1121,1685,-6.59106E-001,8.13746E+000,-5.86197E-003,0.00000E+000,0.00000E+000,0.00000E+000,0.00000E+000,0.00000E+000,0.00000E+000,0.00000E+000,0.00000E+000,0.00000E+000,0.00000E+000,0.00000E+000,0,0.00000E+000,2.81807E-001
1226,875,1.17476E+000,-7.11523E+000,6.91328E-004,0.00000E+000,0.00000E+000,0.00000E+000,0.00000E+000,0.00000E+000,0.00000E+000,0.00000E+000,0.00000E+000,0.00000E+000,0.00000E+000,0.00000E+000,0,0.00000E+000,2.81807E-001
1166,1325,1.25757E-001,1.35300E+000,2.33015E-003,0.00000E+000,0.00000E+000,0.00000E+000,0.00000E+000,0.00000E+000,0.00000E+000,0.00000E+000,0.00000E+000,0.00000E+000,0.00000E+000,0.00000E+000,0,0.00000E+000,2.81807E-001
1211,1445,9.98111E-001,3.61500E+000,2.32542E-003,0.00000E+000,0.00000E+000,0.00000E+000,0.00000E+000,0.00000E+000,0.00000E+000,0.00000E+000,0.00000E+000,0.00000E+000,0.00000E+000,0.00000E+000,0,0.00000E+000,2.81807E-001
1121,1025,-7.78904E-001,-4.29363E+000,-1.09022E-003,0.00000E+000,0.00000E+000,0.00000E+000,0.00000E+000,0.00000E+000,0.00000E+000,0.00000E+000,0.00000E+000,0.00000E+000,0.00000E+000,0.00000E+000,0,0.00000E+000,2.81807E-001
1106,1115,-1.04560E+000,-2.60078E+000,-1.62689E-003,0.00000E+000,0.00000E+000,0.00000E+000,0.00000E+000,0.00000E+000,0.00000E+000,0.00000E+000,0.00000E+000,0.00000E+000,0.00000E+000,0.00000E+000,0,0.00000E+000,2.81807E-001
1091,1625,-1.23625E+000,7.00468E+000,-1.27123E-003,0.00000E+000,0.00000E+000,0.00000E+000,0.00000E+000,0.00000E+000,0.00000E+000,0.00000E+000,0.00000E+000,0.00000E+000,0.00000E+000,0.00000E+000,0,0.00000E+000,2.81807E-001
1136,1145,-4.73433E-001,-2.03564E+000,3.95655E-003,0.00000E+000,0.00000E+000,0.00000E+000,0.00000E+000,0.00000E+000,0.00000E+000,0.00000E+000,0.00000E+000,0.00000E+000,0.00000E+000,0.00000E+000,0,0.00000E+000,2.81807E-001
1166,1010,6.77204E-002,-4.57555E+000,2.11679E-003,0.00000E+000,0.00000E+000,0.00000E+000,0.00000E+000,0.00000E+000,0.00000E+000,0.00000E+000,0.00000E+000,0.00000E+000,0.00000E+000,0.00000E+000,0,0.00000E+000,2.81807E-001
1136,1355,-4.35601E-001,1.91712E+000,-8.86810E-004,0.00000E+000,0.00000E+000,0.00000E+000,0.00000E+000,0.00000E+000,0.00000E+000,0.00000E+000,0.00000E+000,0.00000E+000,0.00000E+000,0.00000E+000,0,0.00000E+000,2.81807E-001
1226,1160,1.22802E+000,-1.75369E+000,8.48851E-004,0.00000E+000,0.00000E+000,0.00000E+000,0.00000E+000,0.00000E+000,0.00000E+000,0.00000E+000,0.00000E+000,0.00000E+000,0.00000E+000,0.00000E+000,0,0.00000E+000,2.81807E-001
1136,725,-5.50302E-001,-9.93032E+000,1.24110E-003,0.00000E+000,0.00000E+000,0.00000E+000,0.00000E+000,0.00000E+000,0.00000E+000,0.00000E+000,0.00000E+000,0.00000E+000,0.00000E+000,0.00000E+000,0,0.00000E+000,2.81807E-001
1211,1475,1.00366E+000,4.18045E+000,1.88985E-003,0.00000E+000,0.00000E+000,0.00000E+000,0.00000E+000,0.00000E+000,0.00000E+000,0.00000E+000,0.00000E+000,0.00000E+000,0.00000E+000,0.00000E+000,0,0.00000E+000,2.81807E-001
1196,1295,6.86804E-001,7.88490E-001,2.50215E-003,0.00000E+000,0.00000E+000,0.00000E+000,0.00000E+000,0.00000E+000,0.00000E+000,0.00000E+000,0.00000E+000,0.00000E+000,0.00000E+000,0.00000E+000,0,0.00000E+000,2.81807E-001
1121,1715,-6.53482E-001,8.70347E+000,-4.66581E-003,0.00000E+000,0.00000E+000,0.00000E+000,0.00000E+000,0.00000E+000,0.00000E+000,0.00000E+000,0.00000E+000,0.00000E+000,0.00000E+000,0.00000E+000,0,0.00000E+000,2.81807E-001
1181,1460,4.33836E-001,3.89674E+000,4.93545E-004,0.00000E+000,0.00000E+000,0.00000E+000,0.00000E+000,0.00000E+000,0.00000E+000,0.00000E+000,0.00000E+000,0.00000E+000,0.00000E+000,0.00000E+000,0,0.00000E+000,2.81807E-001
1091,740,-1.39658E+000,-9.64781E+000,-5.89454E-003,0.00000E+000,0.00000E+000,0.00000E+000,0.00000E+000,0.00000E+000,0.00000E+000,0.00000E+000,0.00000E+000,0.00000E+000,0.00000E+000,0.00000E+000,0,0.00000E+000,2.81807E-001
1151,1355,-1.51755E-001,1.91740E+000,4.35014E-003,0.00000E+000,0.00000E+000,0.00000E+000,0.00000E+000,0.00000E+000,0.00000E+000,0.00000E+000,0.00000E+000,0.00000E+000,0.00000E+000,0.00000E+000,0,0.00000E+000,2.81807E-001
1196,1205,6.69458E-001,-9.07087E-001,-2.72993E-003,0.00000E+000,0.00000E+000,0.00000E+000,0.00000E+000,0.00000E+000,0.00000E+000,0.00000E+000,0.00000E+000,0.00000E+000,0.00000E+000,0.00000E+000,0,0.00000E+000,2.81807E-001
1151,665,-2.78870E-001,-1.10574E+001,-2.12520E-003,0.00000E+000,0.00000E+000,0.00000E+000,0.00000E+000,0.00000E+000,0.00000E+000,0.00000E+000,0.00000E+000,0.00000E+000,0.00000E+000,0.00000E+000,0,0.00000E+000,2.81807E-001
1106,1265,-1.01841E+000,2.21844E-001,-1.62863E-003,0.00000E+000,0.00000E+000,0.00000E+000,0.00000E+000,0.00000E+000,0.00000E+000,0.00000E+000,0.00000E+000,0.00000E+000,0.00000E+000,0.00000E+000,0,0.00000E+000,2.81807E-001
1091,1760,-1.21238E+000,9.55105E+000,-6.77984E-003,0.00000E+000,0.00000E+000,0.00000E+000,0.00000E+000,0.00000E+000,0.00000E+000,0.00000E+000,0.00000E+000,0.00000E+000,0.00000E+000,0.00000E+000,0,0.00000E+000,2.81807E-001
1181,1010,3.51137E-001,-4.57549E+000,5.17493E-003,0.00000E+000,0.00000E+000,0.00000E+000,0.00000E+000,0.00000E+000,0.00000E+000,0.00000E+000,0.00000E+000,0.00000E+000,0.00000E+000,0.00000E+000,0,0.00000E+000,2.81807E-001
1121,1670,-6.61463E-001,7.85428E+000,-2.46826E-003,0.00000E+000,0.00000E+000,0.00000E+000,0.00000E+000,0.00000E+000,0.00000E+000,0.00000E+000,0.00000E+000,0.00000E+000,0.00000E+000,0.00000E+000,0,0.00000E+000,2.81807E-001
1211,695,8.58086E-001,-1.04964E+001,-9.98724E-004,0.00000E+000,0.00000E+000,0.00000E+000,0.00000E+000,0.00000E+000,0.00000E+000,0.00000E+000,0.00000E+000,0.00000E+000,0.00000E+000,0.00000E+000,0,0.00000E+000,2.81807E-001
1106,920,-1.08046E+000,-6.26707E+000,2.14883E-003,0.00000E+000,0.00000E+000,0.00000E+000,0.00000E+000,0.00000E+000,0.00000E+000,0.00000E+000,0.00000E+000,0.00000E+000,0.00000E+000,0.00000E+000,0,0.00000E+000,2.81807E-001
1181,950,3.39806E-001,-5.70370E+000,2.95744E-003,0.00000E+000,0.00000E+000,0.00000E+000,0.00000E+000,0.00000E+000,0.00000E+000,0.00000E+000,0.00000E+000,0.00000E+000,0.00000E+000,0.00000E+000,0,0.00000E+000,2.81807E-001
1211,1610,1.02864E+000,6.72657E+000,-3.15384E-004,0.00000E+000,0.00000E+000,0.00000E+000,0.00000E+000,0.00000E+000,0.00000E+000,0.00000E+000,0.00000E+000,0.00000E+000,0.00000E+000,0.00000E+000,0,0.00000E+000,2.81807E-001
1106,1625,-9.52855E-001,7.00482E+000,-6.96586E-004,0.00000E+000,0.00000E+000,0.00000E+000,0.00000E+000,0.00000E+000,0.00000E+000,0.00000E+000,0.00000E+000,0.00000E+000,0.00000E+000,0.00000E+000,0,0.00000E+000,2.81807E-001
1181,1100,3.67033E-001,-2.88307E+000,-9.40652E-004,0.00000E+000,0.00000E+000,0.00000E+000,0.00000E+000,0.00000E+000,0.00000E+000,0.00000E+000,0.00000E+000,0.00000E+000,0.00000E+000,0.00000E+000,0,0.00000E+000,2.81807E-001
1106,740,-1.11366E+000,-9.64808E+000,-3.98370E-003,0.00000E+000,0.00000E+000,0.00000E+000,0.00000E+000,0.00000E+000,0.00000E+000,0.00000E+000,0.00000E+000,0.00000E+000,0.00000E+000,0.00000E+000,0,0.00000E+000,2.81807E-001
1226,1550,1.30133E+000,5.59510E+000,2.82774E-003,0.00000E+000,0.00000E+000,0.00000E+000,0.00000E+000,0.00000E+000,0.00000E+000,0.00000E+000,0.00000E+000,0.00000E+000,0.00000E+000,0.00000E+000,0,0.00000E+000,2.81807E-001
1136,1685,-3.75922E-001,8.13756E+000,-7.98589E-003,0.00000E+000,0.00000E+000,0.00000E+000,0.00000E+000,0.00000E+000,0.00000E+000,0.00000E+000,0.00000E+000,0.00000E+000,0.00000E+000,0.00000E+000,0,0.00000E+000,2.81807E-001
1046,1715,-2.06710E+000,8.70228E+000,2.34212E-002,0.00000E+000,0.00000E+000,0.00000E+000,0.00000E+000,0.00000E+000,0.00000E+000,0.00000E+000,0.00000E+000,0.00000E+000,0.00000E+000,0.00000E+000,0,0.00000E+000,2.81807E-001
1166,1580,1.73005E-001,6.15957E+000,3.59677E-003,0.00000E+000,0.00000E+000,0.00000E+000,0.00000E+000,0.00000E+000,0.00000E+000,0.00000E+000,0.00000E+000,0.00000E+000,0.00000E+000,0.00000E+000,0,0.00000E+000,2.81807E-001
1166,890,4.54744E-002,-6.83153E+000,4.32511E-004,0.00000E+000,0.00000E+000,0.00000E+000,0.00000E+000,0.00000E+000,0.00000E+000,0.00000E+000,0.00000E+000,0.00000E+000,0.00000E+000,0.00000E+000,0,0.00000E+000,2.81807E-001
1091,1070,-1.33493E+000,-3.44698E+000,1.37212E-002,0.00000E+000,0.00000E+000,0.00000E+000,0.00000E+000,0.00000E+000,0.00000E+000,0.00000E+000,0.00000E+000,0.00000E+000,0.00000E+000,0.00000E+000,0,0.00000E+000,2.81807E-001
1226,1445,1.28168E+000,3.61544E+000,3.16917E-003,0.00000E+000,0.00000E+000,0.00000E+000,0.00000E+000,0.00000E+000,0.00000E+000,0.00000E+000,0.00000E+000,0.00000E+000,0.00000E+000,0.00000E+000,0,0.00000E+000,2.81807E-001
1211,1295,9.70298E-001,7.88839E-001,3.89255E-003,0.00000E+000,0.00000E+000,0.00000E+000,0.00000E+000,0.00000E+000,0.00000E+000,0.00000E+000,0.00000E+000,0.00000E+000,0.00000E+000,0.00000E+000,0,0.00000E+000,2.81807E-001
1061,740,-1.96007E+000,-9.64657E+000,9.86041E-003,0.00000E+000,0.00000E+000,0.00000E+000,0.00000E+000,0.00000E+000,0.00000E+000,0.00000E+000,0.00000E+000,0.00000E+000,0.00000E+000,0.00000E+000,0,0.00000E+000,2.81807E-001
1211,1250,9.61377E-001,-5.92744E-002,-5.05950E-004,0.00000E+000,0.00000E+000,0.00000E+000,0.00000E+000,0.00000E+000,0.00000E+000,0.00000E+000,0.00000E+000,0.00000E+000,0.00000E+000,0.00000E+000,0,0.00000E+000,2.81807E-001
1196,1220,6.72497E-001,-6.24457E-001,-6.03563E-004,0.00000E+000,0.00000E+000,0.00000E+000,0.00000E+000,0.00000E+000,0.00000E+000,0.00000E+000,0.00000E+000,0.00000E+000,0.00000E+000,0.00000E+000,0,0.00000E+000,2.81807E-001
1151,725,-2.67594E-001,-9.93105E+000,6.56517E-004,0.00000E+000,0.00000E+000,0.00000E+000,0.00000E+000,0.00000E+000,0.00000E+000,0.00000E+000,0.00000E+000,0.00000E+000,0.00000E+000,0.00000E+000,0,0.00000E+000,2.81807E-001
1166,830,3.37067E-002,-7.95951E+000,-5.95507E-003,0.00000E+000,0.00000E+000,0.00000E+000,0.00000E+000,0.00000E+000,0.00000E+000,0.00000E+000,0.00000E+000,0.00000E+000,0.00000E+000,0.00000E+000,0,0.00000E+000,2.81807E-001
1226,755,1.15198E+000,-9.37026E+000,-2.73004E-003,0.00000E+000,0.00000E+000,0.00000E+000,0.00000E+000,0.00000E+000,0.00000E+000,0.00000E+000,0.00000E+000,0.00000E+000,0.00000E+000,0.00000E+000,0,0.00000E+000,2.81807E-001
1211,1565,1.02023E+000,5.87726E+000,-2.09508E-004,0.00000E+000,0.00000E+000,0.00000E+000,0.00000E+000,0.00000E+000,0.00000E+000,0.00000E+000,0.00000E+000,0.00000E+000,0.00000E+000,0.00000E+000,0,0.00000E+000,2.81807E-001
1196,845,6.03095E-001,-7.67761E+000,2.55768E-004,0.00000E+000,0.00000E+000,0.00000E+000,0.00000E+000,0.00000E+000,0.00000E+000,0.00000E+000,0.00000E+000,0.00000E+000,0.00000E+000,0.00000E+000,0,0.00000E+000,2.81807E-001
1121,740,-8.30630E-001,-9.64842E+000,-1.32158E-003,0.00000E+000,0.00000E+000,0.00000E+000,0.00000E+000,0.00000E+000,0.00000E+000,0.00000E+000,0.00000E+000,0.00000E+000,0.00000E+000,0.00000E+000,0,0.00000E+000,2.81807E-001
1241,785,1.44054E+000,-8.80683E+000,-3.16611E-003,0.00000E+000,0.00000E+000,0.00000E+000,0.00000E+000,0.00000E+000,0.00000E+000,0.00000E+000,0.00000E+000,0.00000E+000,0.00000E+000,0.00000E+000,0,0.00000E+000,2.81807E-001
1196,1460,7.17159E-001,3.89716E+000,-2.73794E-004,0.00000E+000,0.00000E+000,0.00000E+000,0.00000E+000,0.00000E+000,0.00000E+000,0.00000E+000,0.00000E+000,0.00000E+000,0.00000E+000,0.00000E+000,0,0.00000E+000,2.81807E-001
1226,725,1.14633E+000,-9.93348E+000,-3.26026E-003,0.00000E+000,0.00000E+000,0.00000E+000,0.00000E+000,0.00000E+000,0.00000E+000,0.00000E+000,0.00000E+000,0.00000E+000,0.00000E+000,0.00000E+000,0,0.00000E+000,2.81807E-001
1121,1640,-6.66714E-001,7.28824E+000,-4.02394E-004,0.00000E+000,0.00000E+000,0.00000E+000,0.00000E+000,0.00000E+000,0.00000E+000,0.00000E+000,0.00000E+000,0.00000E+000,0.00000E+000,0.00000E+000,0,0.00000E+000,2.81807E-001
1196,995,6.31089E-001,-4.85781E+000,2.14002E-003,0.00000E+000,0.00000E+000,0.00000E+000,0.00000E+000,0.00000E+000,0.00000E+000,0.00000E+000,0.00000E+000,0.00000E+000,0.00000E+000,0.00000E+000,0,0.00000E+000,2.81807E-001
1151,1595,-1.08061E-001,6.44116E+000,3.05524E-004,0.00000E+000,0.00000E+000,0.00000E+000,0.00000E+000,0.00000E+000,0.00000E+000,0.00000E+000,0.00000E+000,0.00000E+000,0.00000E+000,0.00000E+000,0,0.00000E+000,2.81807E-001
1166,875,4.24822E-002,-7.11346E+000,-1.60435E-003,0.00000E+000,0.00000E+000,0.00000E+000,0.00000E+000,0.00000E+000,0.00000E+000,0.00000E+000,0.00000E+000,0.00000E+000,0.00000E+000,0.00000E+000,0,0.00000E+000,2.81807E-001
1136,1670,-3.78130E-001,7.85479E+000,-3.28560E-003,0.00000E+000,0.00000E+000,0.00000E+000,0.00000E+000,0.00000E+000,0.00000E+000,0.00000E+000,0.00000E+000,0.00000E+000,0.00000E+000,0.00000E+000,0,0.00000E+000,2.81807E-001
1121,920,-7.97750E-001,-6.26728E+000,8.01584E-004,0.00000E+000,0.00000E+000,0.00000E+000,0.00000E+000,0.00000E+000,0.00000E+000,0.00000E+000,0.00000E+000,0.00000E+000,0.00000E+000,0.00000E+000,0,0.00000E+000,2.81807E-001
1241,1445,1.56511E+000,3.61589E+000,2.59305E-003,0.00000E+000,0.00000E+000,0.00000E+000,0.00000E+000,0.00000E+000,0.00000E+000,0.00000E+000,0.00000E+000,0.00000E+000,0.00000E+000,0.00000E+000,0,0.00000E+000,2.81807E-001
1136,1160,-4.70657E-001,-1.75354E+000,4.29156E-003,0.00000E+000,0.00000E+000,0.00000E+000,0.00000E+000,0.00000E+000,0.00000E+000,0.00000E+000,0.00000E+000,0.00000E+000,0.00000E+000,0.00000E+000,0,0.00000E+000,2.81807E-001
1166,1355,1.31520E-001,1.91801E+000,4.31046E-003,0.00000E+000,0.00000E+000,0.00000E+000,0.00000E+000,0.00000E+000,0.00000E+000,0.00000E+000,0.00000E+000,0.00000E+000,0.00000E+000,0.00000E+000,0,0.00000E+000,2.81807E-001
1241,1745,1.62070E+000,9.27503E+000,-5.19312E-003,0.00000E+000,0.00000E+000,0.00000E+000,0.00000E+000,0.00000E+000,0.00000E+000,0.00000E+000,0.00000E+000,0.00000E+000,0.00000E+000,0.00000E+000,0,0.00000E+000,2.81807E-001
1241,830,1.44908E+000,-7.96124E+000,-2.16442E-003,0.00000E+000,0.00000E+000,0.00000E+000,0.00000E+000,0.00000E+000,0.00000E+000,0.00000E+000,0.00000E+000,0.00000E+000,0.00000E+000,0.00000E+000,0,0.00000E+000,2.81807E-001
1196,1100,6.50261E-001,-2.88316E+000,-2.91343E-004,0.00000E+000,0.00000E+000,0.00000E+000,0.00000E+000,0.00000E+000,0.00000E+000,0.00000E+000,0.00000E+000,0.00000E+000,0.00000E+000,0.00000E+000,0,0.00000E+000,2.81807E-001
1226,1295,1.25343E+000,7.88644E-001,2.03010E-003,0.00000E+000,0.00000E+000,0.00000E+000,0.00000E+000,0.00000E+000,0.00000E+000,0.00000E+000,0.00000E+000,0.00000E+000,0.00000E+000,0.00000E+000,0,0.00000E+000,2.81807E-001
1241,755,1.43478E+000,-9.37059E+000,-4.35608E-003,0.00000E+000,0.00000E+000,0.00000E+000,0.00000E+000,0.00000E+000,0.00000E+000,0.00000E+000,0.00000E+000,0.00000E+000,0.00000E+000,0.00000E+000,0,0.00000E+000,2.81807E-001
1181,890,3.28596E-001,-6.83148E+000,1.70780E-003,0.00000E+000,0.00000E+000,0.00000E+000,0.00000E+000,0.00000E+000,0.00000E+000,0.00000E+000,0.00000E+000,0.00000E+000,0.00000E+000,0.00000E+000,0,0.00000E+000,2.81807E-001
1091,1085,-1.33167E+000,-3.16413E+000,1.84895E-002,0.00000E+000,0.00000E+000,0.00000E+000,0.00000E+000,0.00000E+000,0.00000E+000,0.00000E+000,0.00000E+000,0.00000E+000,0.00000E+000,0.00000E+000,0,0.00000E+000,2.81807E-001
1211,1220,9.56010E-001,-6.24117E-001,1.41246E-003,0.00000E+000,0.00000E+000,0.00000E+000,0.00000E+000,0.00000E+000,0.00000E+000,0.00000E+000,0.00000E+000,0.00000E+000,0.00000E+000,0.00000E+000,0,0.00000E+000,2.81807E-001
1241,725,1.42913E+000,-9.93380E+000,-4.68399E-003,0.00000E+000,0.00000E+000,0.00000E+000,0.00000E+000,0.00000E+000,0.00000E+000,0.00000E+000,0.00000E+000,0.00000E+000,0.00000E+000,0.00000E+000,0,0.00000E+000,2.81807E-001
1136,1715,-3.70025E-001,8.70397E+000,-4.66540E-003,0.00000E+000,0.00000E+000,0.00000E+000,0.00000E+000,0.00000E+000,0.00000E+000,0.00000E+000,0.00000E+000,0.00000E+000,0.00000E+000,0.00000E+000,0,0.00000E+000,2.81807E-001
1136,1310,-4.43534E-001,1.06975E+000,1.71466E-003,0.00000E+000,0.00000E+000,0.00000E+000,0.00000E+000,0.00000E+000,0.00000E+000,0.00000E+000,0.00000E+000,0.00000E+000,0.00000E+000,0.00000E+000,0,0.00000E+000,2.81807E-001
1256,680,1.70348E+000,-1.07800E+001,-6.34206E-003,0.00000E+000,0.00000E+000,0.00000E+000,0.00000E+000,0.00000E+000,0.00000E+000,0.00000E+000,0.00000E+000,0.00000E+000,0.00000E+000,0.00000E+000,0,0.00000E+000,2.81807E-001
1211,1205,9.53094E-001,-9.06658E-001,4.09769E-004,0.00000E+000,0.00000E+000,0.00000E+000,0.00000E+000,0.00000E+000,0.00000E+000,0.00000E+000,0.00000E+000,0.00000E+000,0.00000E+000,0.00000E+000,0,0.00000E+000,2.81807E-001
1166,1700,1.94519E-001,8.42246E+000,-2.10944E-003,0.00000E+000,0.00000E+000,0.00000E+000,0.00000E+000,0.00000E+000,0.00000E+000,0.00000E+000,0.00000E+000,0.00000E+000,0.00000E+000,0.00000E+000,0,0.00000E+000,2.81807E-001
1151,1670,-9.43914E-002,7.85566E+000,-9.32914E-004,0.00000E+000,0.00000E+000,0.00000E+000,0.00000E+000,0.00000E+000,0.00000E+000,0.00000E+000,0.00000E+000,0.00000E+000,0.00000E+000,0.00000E+000,0,0.00000E+000,2.81807E-001
1106,1760,-9.28511E-001,9.55213E+000,-2.94844E-003,0.00000E+000,0.00000E+000,0.00000E+000,0.00000E+000,0.00000E+000,0.00000E+000,0.00000E+000,0.00000E+000,0.00000E+000,0.00000E+000,0.00000E+000,0,0.00000E+000,2.81807E-001
1136,740,-5.47827E-001,-9.64887E+000,-9.21878E-004,0.00000E+000,0.00000E+000,0.00000E+000,0.00000E+000,0.00000E+000,0.00000E+000,0.00000E+000,0.00000E+000,0.00000E+000,0.00000E+000,0.00000E+000,0,0.00000E+000,2.81807E-001
1136,1640,-3.83625E-001,7.28919E+000,-3.23744E-003,0.00000E+000,0.00000E+000,0.00000E+000,0.00000E+000,0.00000E+000,0.00000E+000,0.00000E+000,0.00000E+000,0.00000E+000,0.00000E+000,0.00000E+000,0,0.00000E+000,2.81807E-001
1211,845,8.86289E-001,-7.67794E+000,1.91397E-003,0.00000E+000,0.00000E+000,0.00000E+000,0.00000E+000,0.00000E+000,0.00000E+000,0.00000E+000,0.00000E+000,0.00000E+000,0.00000E+000,0.00000E+000,0,0.00000E+000,2.81807E-001
1241,1550,1.58497E+000,5.59574E+000,3.31450E-003,0.00000E+000,0.00000E+000,0.00000E+000,0.00000E+000,0.00000E+000,0.00000E+000,0.00000E+000,0.00000E+000,0.00000E+000,0.00000E+000,0.00000E+000,0,0.00000E+000,2.81807E-001
1151,1610,-1.05306E-001,6.72452E+000,1.65146E-004,0.00000E+000,0.00000E+000,0.00000E+000,0.00000E+000,0.00000E+000,0.00000E+000,0.00000E+000,0.00000E+000,0.00000E+000,0.00000E+000,0.00000E+000,0,0.00000E+000,2.81807E-001
1136,920,-5.15167E-001,-6.26765E+000,-1.84754E-003,0.00000E+000,0.00000E+000,0.00000E+000,0.00000E+000,0.00000E+000,0.00000E+000,0.00000E+000,0.00000E+000,0.00000E+000,0.00000E+000,0.00000E+000,0,0.00000E+000,2.81807E-001
1226,1565,1.30408E+000,5.87783E+000,2.27357E-003,0.00000E+000,0.00000E+000,0.00000E+000,0.00000E+000,0.00000E+000,0.00000E+000,0.00000E+000,0.00000E+000,0.00000E+000,0.00000E+000,0.00000E+000,0,0.00000E+000,2.81807E-001
1211,995,9.14147E-001,-4.85786E+000,1.68260E-003,0.00000E+000,0.00000E+000,0.00000E+000,0.00000E+000,0.00000E+000,0.00000E+000,0.00000E+000,0.00000E+000,0.00000E+000,0.00000E+000,0.00000E+000,0,0.00000E+000,2.81807E-001
1121,1250,-7.37544E-001,-5.98556E-002,2.52905E-003,0.00000E+000,0.00000E+000,0.00000E+000,0.00000E+000,0.00000E+000,0.00000E+000,0.00000E+000,0.00000E+000,0.00000E+000,0.00000E+000,0.00000E+000,0,0.00000E+000,2.81807E-001
1166,1595,1.75633E-001,6.44218E+000,2.39138E-003,0.00000E+000,0.00000E+000,0.00000E+000,0.00000E+000,0.00000E+000,0.00000E+000,0.00000E+000,0.00000E+000,0.00000E+000,0.00000E+000,0.00000E+000,0,0.00000E+000,2.81807E-001
1181,1355,4.14655E-001,1.91836E+000,2.82690E-003,0.00000E+000,0.00000E+000,0.00000E+000,0.00000E+000,0.00000E+000,0.00000E+000,0.00000E+000,0.00000E+000,0.00000E+000,0.00000E+000,0.00000E+000,0,0.00000E+000,2.81807E-001
1211,1460,1.00078E+000,3.89749E+000,1.22498E-003,0.00000E+000,0.00000E+000,0.00000E+000,0.00000E+000,0.00000E+000,0.00000E+000,0.00000E+000,0.00000E+000,0.00000E+000,0.00000E+000,0.00000E+000,0,0.00000E+000,2.81807E-001
1106,1475,-9.80285E-001,4.17723E+000,-1.88965E-003,0.00000E+000,0.00000E+000,0.00000E+000,0.00000E+000,0.00000E+000,0.00000E+000,0.00000E+000,0.00000E+000,0.00000E+000,0.00000E+000,0.00000E+000,0,0.00000E+000,2.81807E-001
1196,890,6.11515E-001,-6.83184E+000,1.03583E-003,0.00000E+000,0.00000E+000,0.00000E+000,0.00000E+000,0.00000E+000,0.00000E+000,0.00000E+000,0.00000E+000,0.00000E+000,0.00000E+000,0.00000E+000,0,0.00000E+000,2.81807E-001
1226,1220,1.23930E+000,-6.23997E-001,1.25000E-003,0.00000E+000,0.00000E+000,0.00000E+000,0.00000E+000,0.00000E+000,0.00000E+000,0.00000E+000,0.00000E+000,0.00000E+000,0.00000E+000,0.00000E+000,0,0.00000E+000,2.81807E-001
1211,1100,9.33694E-001,-2.88304E+000,1.78922E-003,0.00000E+000,0.00000E+000,0.00000E+000,0.00000E+000,0.00000E+000,0.00000E+000,0.00000E+000,0.00000E+000,0.00000E+000,0.00000E+000,0.00000E+000,0,0.00000E+000,2.81807E-001
1091,875,-1.37196E+000,-7.11243E+000,-2.92501E-003,0.00000E+000,0.00000E+000,0.00000E+000,0.00000E+000,0.00000E+000,0.00000E+000,0.00000E+000,0.00000E+000,0.00000E+000,0.00000E+000,0.00000E+000,0,0.00000E+000,2.81807E-001
1151,1310,-1.60037E-001,1.07059E+000,4.11719E-003,0.00000E+000,0.00000E+000,0.00000E+000,0.00000E+000,0.00000E+000,0.00000E+000,0.00000E+000,0.00000E+000,0.00000E+000,0.00000E+000,0.00000E+000,0,0.00000E+000,2.81807E-001
1136,1175,-4.68249E-001,-1.47140E+000,1.42934E-003,0.00000E+000,0.00000E+000,0.00000E+000,0.00000E+000,0.00000E+000,0.00000E+000,0.00000E+000,0.00000E+000,0.00000E+000,0.00000E+000,0.00000E+000,0,0.00000E+000,2.81807E-001
1181,1430,4.28619E-001,3.33140E+000,3.43114E-003,0.00000E+000,0.00000E+000,0.00000E+000,0.00000E+000,0.00000E+000,0.00000E+000,0.00000E+000,0.00000E+000,0.00000E+000,0.00000E+000,0.00000E+000,0,0.00000E+000,2.81807E-001
1091,815,-1.38270E+000,-8.23925E+000,-2.44625E-003,0.00000E+000,0.00000E+000,0.00000E+000,0.00000E+000,0.00000E+000,0.00000E+000,0.00000E+000,0.00000E+000,0.00000E+000,0.00000E+000,0.00000E+000,0,0.00000E+000,2.81807E-001
1196,965,6.25336E-001,-5.42245E+000,5.50833E-004,0.00000E+000,0.00000E+000,0.00000E+000,0.00000E+000,0.00000E+000,0.00000E+000,0.00000E+000,0.00000E+000,0.00000E+000,0.00000E+000,0.00000E+000,0,0.00000E+000,2.81807E-001
1091,1100,-1.32856E+000,-2.88124E+000,2.19693E-002,0.00000E+000,0.00000E+000,0.00000E+000,0.00000E+000,0.00000E+000,0.00000E+000,0.00000E+000,0.00000E+000,0.00000E+000,0.00000E+000,0.00000E+000,0,0.00000E+000,2.81807E-001
1226,1610,1.31205E+000,6.72680E+000,-1.72966E-003,0.00000E+000,0.00000E+000,0.00000E+000,0.00000E+000,0.00000E+000,0.00000E+000,0.00000E+000,0.00000E+000,0.00000E+000,0.00000E+000,0.00000E+000,0,0.00000E+000,2.81807E-001
1226,845,1.16896E+000,-7.67858E+000,-1.06757E-003,0.00000E+000,0.00000E+000,0.00000E+000,0.00000E+000,0.00000E+000,0.00000E+000,0.00000E+000,0.00000E+000,0.00000E+000,0.00000E+000,0.00000E+000,0,0.00000E+000,2.81807E-001
1151,740,-2.64956E-001,-9.64933E+000,-2.29681E-004,0.00000E+000,0.00000E+000,0.00000E+000,0.00000E+000,0.00000E+000,0.00000E+000,0.00000E+000,0.00000E+000,0.00000E+000,0.00000E+000,0.00000E+000,0,0.00000E+000,2.81807E-001
1226,1205,1.23659E+000,-9.06369E-001,2.08362E-003,0.00000E+000,0.00000E+000,0.00000E+000,0.00000E+000,0.00000E+000,0.00000E+000,0.00000E+000,0.00000E+000,0.00000E+000,0.00000E+000,0.00000E+000,0,0.00000E+000,2.81807E-001
1151,1640,-1.00170E-001,7.28967E+000,-3.09097E-003,0.00000E+000,0.00000E+000,0.00000E+000,0.00000E+000,0.00000E+000,0.00000E+000,0.00000E+000,0.00000E+000,0.00000E+000,0.00000E+000,0.00000E+000,0,0.00000E+000,2.81807E-001
1241,1565,1.58779E+000,5.87841E+000,3.32127E-003,0.00000E+000,0.00000E+000,0.00000E+000,0.00000E+000,0.00000E+000,0.00000E+000,0.00000E+000,0.00000E+000,0.00000E+000,0.00000E+000,0.00000E+000,0,0.00000E+000,2.81807E-001
1181,1700,4.78154E-001,8.42305E+000,-1.36300E-003,0.00000E+000,0.00000E+000,0.00000E+000,0.00000E+000,0.00000E+000,0.00000E+000,0.00000E+000,0.00000E+000,0.00000E+000,0.00000E+000,0.00000E+000,0,0.00000E+000,2.81807E-001
1226,995,1.19695E+000,-4.85804E+000,-1.16840E-003,0.00000E+000,0.00000E+000,0.00000E+000,0.00000E+000,0.00000E+000,0.00000E+000,0.00000E+000,0.00000E+000,0.00000E+000,0.00000E+000,0.00000E+000,0,0.00000E+000,2.81807E-001
1256,725,1.71205E+000,-9.93437E+000,-5.43536E-003,0.00000E+000,0.00000E+000,0.00000E+000,0.00000E+000,0.00000E+000,0.00000E+000,0.00000E+000,0.00000E+000,0.00000E+000,0.00000E+000,0.00000E+000,0,0.00000E+000,2.81807E-001
1226,1235,1.24190E+000,-3.41661E-001,-4.85535E-004,0.00000E+000,0.00000E+000,0.00000E+000,0.00000E+000,0.00000E+000,0.00000E+000,0.00000E+000,0.00000E+000,0.00000E+000,0.00000E+000,0.00000E+000,0,0.00000E+000,2.81807E-001
1226,1460,1.28435E+000,3.89794E+000,2.03904E-003,0.00000E+000,0.00000E+000,0.00000E+000,0.00000E+000,0.00000E+000,0.00000E+000,0.00000E+000,0.00000E+000,0.00000E+000,0.00000E+000,0.00000E+000,0,0.00000E+000,2.81807E-001
1211,1715,1.04839E+000,8.70791E+000,5.36219E-004,0.00000E+000,0.00000E+000,0.00000E+000,0.00000E+000,0.00000E+000,0.00000E+000,0.00000E+000,0.00000E+000,0.00000E+000,0.00000E+000,0.00000E+000,0,0.00000E+000,2.81807E-001
1181,1310,4.06159E-001,1.07042E+000,1.47094E-003,0.00000E+000,0.00000E+000,0.00000E+000,0.00000E+000,0.00000E+000,0.00000E+000,0.00000E+000,0.00000E+000,0.00000E+000,0.00000E+000,0.00000E+000,0,0.00000E+000,2.81807E-001
1211,890,8.94523E-001,-6.83248E+000,8.77693E-004,0.00000E+000,0.00000E+000,0.00000E+000,0.00000E+000,0.00000E+000,0.00000E+000,0.00000E+000,0.00000E+000,0.00000E+000,0.00000E+000,0.00000E+000,0,0.00000E+000,2.81807E-001
1166,1505,1.58975E-001,4.74485E+000,2.22843E-003,0.00000E+000,0.00000E+000,0.00000E+000,0.00000E+000,0.00000E+000,0.00000E+000,0.00000E+000,0.00000E+000,0.00000E+000,0.00000E+000,0.00000E+000,0,0.00000E+000,2.81807E-001
1181,710,2.94893E-001,-1.02136E+001,-2.85379E-003,0.00000E+000,0.00000E+000,0.00000E+000,0.00000E+000,0.00000E+000,0.00000E+000,0.00000E+000,0.00000E+000,0.00000E+000,0.00000E+000,0.00000E+000,0,0.00000E+000,2.81807E-001
1151,920,-2.32115E-001,-6.26782E+000,-7.44877E-004,0.00000E+000,0.00000E+000,0.00000E+000,0.00000E+000,0.00000E+000,0.00000E+000,0.00000E+000,0.00000E+000,0.00000E+000,0.00000E+000,0.00000E+000,0,0.00000E+000,2.81807E-001
1211,1745,1.05417E+000,9.27441E+000,1.92274E-003,0.00000E+000,0.00000E+000,0.00000E+000,0.00000E+000,0.00000E+000,0.00000E+000,0.00000E+000,0.00000E+000,0.00000E+000,0.00000E+000,0.00000E+000,0,0.00000E+000,2.81807E-001
1091,1475,-1.26362E+000,4.17677E+000,-2.79912E-003,0.00000E+000,0.00000E+000,0.00000E+000,0.00000E+000,0.00000E+000,0.00000E+000,0.00000E+000,0.00000E+000,0.00000E+000,0.00000E+000,0.00000E+000,0,0.00000E+000,2.81807E-001
1151,830,-2.49081E-001,-7.95908E+000,-5.10762E-003,0.00000E+000,0.00000E+000,0.00000E+000,0.00000E+000,0.00000E+000,0.00000E+000,0.00000E+000,0.00000E+000,0.00000E+000,0.00000E+000,0.00000E+000,0,0.00000E+000,2.81807E-001
1181,1595,4.58904E-001,6.44260E+000,6.54018E-004,0.00000E+000,0.00000E+000,0.00000E+000,0.00000E+000,0.00000E+000,0.00000E+000,0.00000E+000,0.00000E+000,0.00000E+000,0.00000E+000,0.00000E+000,0,0.00000E+000,2.81807E-001
1091,1385,-1.27980E+000,2.48168E+000,-1.89530E-003,0.00000E+000,0.00000E+000,0.00000E+000,0.00000E+000,0.00000E+000,0.00000E+000,0.00000E+000,0.00000E+000,0.00000E+000,0.00000E+000,0.00000E+000,0,0.00000E+000,2.81807E-001
1106,1670,-9.44333E-001,7.85405E+000,2.08573E-003,0.00000E+000,0.00000E+000,0.00000E+000,0.00000E+000,0.00000E+000,0.00000E+000,0.00000E+000,0.00000E+000,0.00000E+000,0.00000E+000,0.00000E+000,0,0.00000E+000,2.81807E-001
1181,1580,4.56963E-001,6.16062E+000,7.73322E-003,0.00000E+000,0.00000E+000,0.00000E+000,0.00000E+000,0.00000E+000,0.00000E+000,0.00000E+000,0.00000E+000,0.00000E+000,0.00000E+000,0.00000E+000,0,0.00000E+000,2.81807E-001
1091,905,-1.36608E+000,-6.54869E+000,1.30357E-003,0.00000E+000,0.00000E+000,0.00000E+000,0.00000E+000,0.00000E+000,0.00000E+000,0.00000E+000,0.00000E+000,0.00000E+000,0.00000E+000,0.00000E+000,0,0.00000E+000,2.81807E-001
1241,1610,1.59568E+000,6.72707E+000,-1.58808E-003,0.00000E+000,0.00000E+000,0.00000E+000,0.00000E+000,0.00000E+000,0.00000E+000,0.00000E+000,0.00000E+000,0.00000E+000,0.00000E+000,0.00000E+000,0,0.00000E+000,2.81807E-001
1226,740,1.14903E+000,-9.65204E+000,-3.96498E-003,0.00000E+000,0.00000E+000,0.00000E+000,0.00000E+000,0.00000E+000,0.00000E+000,0.00000E+000,0.00000E+000,0.00000E+000,0.00000E+000,0.00000E+000,0,0.00000E+000,2.81807E-001
1196,1700,7.62104E-001,8.42413E+000,1.71841E-003,0.00000E+000,0.00000E+000,0.00000E+000,0.00000E+000,0.00000E+000,0.00000E+000,0.00000E+000,0.00000E+000,0.00000E+000,0.00000E+000,0.00000E+000,0,0.00000E+000,2.81807E-001
1181,1445,4.31611E-001,3.61436E+000,5.20723E-003,0.00000E+000,0.00000E+000,0.00000E+000,0.00000E+000,0.00000E+000,0.00000E+000,0.00000E+000,0.00000E+000,0.00000E+000,0.00000E+000,0.00000E+000,0,0.00000E+000,2.81807E-001
1106,1040,-1.05901E+000,-4.01124E+000,-1.18611E-004,0.00000E+000,0.00000E+000,0.00000E+000,0.00000E+000,0.00000E+000,0.00000E+000,0.00000E+000,0.00000E+000,0.00000E+000,0.00000E+000,0.00000E+000,0,0.00000E+000,2.81807E-001
1241,845,1.45156E+000,-7.67939E+000,-4.93225E-003,0.00000E+000,0.00000E+000,0.00000E+000,0.00000E+000,0.00000E+000,0.00000E+000,0.00000E+000,0.00000E+000,0.00000E+000,0.00000E+000,0.00000E+000,0,0.00000E+000,2.81807E-001
1136,995,-5.01577E-001,-4.85781E+000,-2.55259E-003,0.00000E+000,0.00000E+000,0.00000E+000,0.00000E+000,0.00000E+000,0.00000E+000,0.00000E+000,0.00000E+000,0.00000E+000,0.00000E+000,0.00000E+000,0,0.00000E+000,2.81807E-001
1121,1175,-7.51641E-001,-1.47184E+000,-1.25023E-003,0.00000E+000,0.00000E+000,0.00000E+000,0.00000E+000,0.00000E+000,0.00000E+000,0.00000E+000,0.00000E+000,0.00000E+000,0.00000E+000,0.00000E+000,0,0.00000E+000,2.81807E-001
1196,950,6.22904E-001,-5.70372E+000,3.39035E-003,0.00000E+000,0.00000E+000,0.00000E+000,0.00000E+000,0.00000E+000,0.00000E+000,0.00000E+000,0.00000E+000,0.00000E+000,0.00000E+000,0.00000E+000,0,0.00000E+000,2.81807E-001
1106,1250,-1.02075E+000,-6.02281E-002,1.66737E-003,0.00000E+000,0.00000E+000,0.00000E+000,0.00000E+000,0.00000E+000,0.00000E+000,0.00000E+000,0.00000E+000,0.00000E+000,0.00000E+000,0.00000E+000,0,0.00000E+000,2.81807E-001
1091,1055,-1.33732E+000,-3.72870E+000,1.64599E-002,0.00000E+000,0.00000E+000,0.00000E+000,0.00000E+000,0.00000E+000,0.00000E+000,0.00000E+000,0.00000E+000,0.00000E+000,0.00000E+000,0.00000E+000,0,0.00000E+000,2.81807E-001
1166,1640,1.83443E-001,7.29053E+000,-1.93652E-003,0.00000E+000,0.00000E+000,0.00000E+000,0.00000E+000,0.00000E+000,0.00000E+000,0.00000E+000,0.00000E+000,0.00000E+000,0.00000E+000,0.00000E+000,0,0.00000E+000,2.81807E-001
1226,1115,1.21928E+000,-2.60123E+000,-1.86385E-003,0.00000E+000,0.00000E+000,0.00000E+000,0.00000E+000,0.00000E+000,0.00000E+000,0.00000E+000,0.00000E+000,0.00000E+000,0.00000E+000,0.00000E+000,0,0.00000E+000,2.81807E-001
1151,875,-2.40072E-001,-7.11333E+000,1.59169E-003,0.00000E+000,0.00000E+000,0.00000E+000,0.00000E+000,0.00000E+000,0.00000E+000,0.00000E+000,0.00000E+000,0.00000E+000,0.00000E+000,0.00000E+000,0,0.00000E+000,2.81807E-001
1076,1535,-1.53567E+000,5.30736E+000,-1.14371E-004,0.00000E+000,0.00000E+000,0.00000E+000,0.00000E+000,0.00000E+000,0.00000E+000,0.00000E+000,0.00000E+000,0.00000E+000,0.00000E+000,0.00000E+000,0,0.00000E+000,2.81807E-001
1211,965,9.08797E-001,-5.42262E+000,3.71628E-003,0.00000E+000,0.00000E+000,0.00000E+000,0.00000E+000,0.00000E+000,0.00000E+000,0.00000E+000,0.00000E+000,0.00000E+000,0.00000E+000,0.00000E+000,0,0.00000E+000,2.81807E-001
1226,1715,1.33212E+000,8.70827E+000,1.22359E-003,0.00000E+000,0.00000E+000,0.00000E+000,0.00000E+000,0.00000E+000,0.00000E+000,0.00000E+000,0.00000E+000,0.00000E+000,0.00000E+000,0.00000E+000,0,0.00000E+000,2.81807E-001
1091,920,-1.36371E+000,-6.26720E+000,-1.58168E-003,0.00000E+000,0.00000E+000,0.00000E+000,0.00000E+000,0.00000E+000,0.00000E+000,0.00000E+000,0.00000E+000,0.00000E+000,0.00000E+000,0.00000E+000,0,0.00000E+000,2.81807E-001
1121,1190,-7.49158E-001,-1.18988E+000,-3.35078E-003,0.00000E+000,0.00000E+000,0.00000E+000,0.00000E+000,0.00000E+000,0.00000E+000,0.00000E+000,0.00000E+000,0.00000E+000,0.00000E+000,0.00000E+000,0,0.00000E+000,2.81807E-001
1136,1190,-4.65876E-001,-1.18930E+000,-1.72692E-003,0.00000E+000,0.00000E+000,0.00000E+000,0.00000E+000,0.00000E+000,0.00000E+000,0.00000E+000,0.00000E+000,0.00000E+000,0.00000E+000,0.00000E+000,0,0.00000E+000,2.81807E-001
1196,1445,7.14652E-001,3.61468E+000,2.11444E-003,0.00000E+000,0.00000E+000,0.00000E+000,0.00000E+000,0.00000E+000,0.00000E+000,0.00000E+000,0.00000E+000,0.00000E+000,0.00000E+000,0.00000E+000,0,0.00000E+000,2.81807E-001
1241,740,1.43176E+000,-9.65248E+000,-6.13078E-003,0.00000E+000,0.00000E+000,0.00000E+000,0.00000E+000,0.00000E+000,0.00000E+000,0.00000E+000,0.00000E+000,0.00000E+000,0.00000E+000,0.00000E+000,0,0.00000E+000,2.81807E-001
1106,890,-1.08575E+000,-6.83028E+000,3.15125E-003,0.00000E+000,0.00000E+000,0.00000E+000,0.00000E+000,0.00000E+000,0.00000E+000,0.00000E+000,0.00000E+000,0.00000E+000,0.00000E+000,0.00000E+000,0,0.00000E+000,2.81807E-001
1196,710,5.77940E-001,-1.02142E+001,-1.27120E-003,0.00000E+000,0.00000E+000,0.00000E+000,0.00000E+000,0.00000E+000,0.00000E+000,0.00000E+000,0.00000E+000,0.00000E+000,0.00000E+000,0.00000E+000,0,0.00000E+000,2.81807E-001
1211,950,9.05943E-001,-5.70428E+000,3.11682E-003,0.00000E+000,0.00000E+000,0.00000E+000,0.00000E+000,0.00000E+000,0.00000E+000,0.00000E+000,0.00000E+000,0.00000E+000,0.00000E+000,0.00000E+000,0,0.00000E+000,2.81807E-001
1181,1745,4.86359E-001,9.27199E+000,-2.61703E-003,0.00000E+000,0.00000E+000,0.00000E+000,0.00000E+000,0.00000E+000,0.00000E+000,0.00000E+000,0.00000E+000,0.00000E+000,0.00000E+000,0.00000E+000,0,0.00000E+000,2.81807E-001
1166,665,4.15927E-003,-1.10574E+001,5.36306E-005,0.00000E+000,0.00000E+000,0.00000E+000,0.00000E+000,0.00000E+000,0.00000E+000,0.00000E+000,0.00000E+000,0.00000E+000,0.00000E+000,0.00000E+000,0,0.00000E+000,2.81807E-001
1241,1430,1.56260E+000,3.33315E+000,5.17121E-003,0.00000E+000,0.00000E+000,0.00000E+000,0.00000E+000,0.00000E+000,0.00000E+000,0.00000E+000,0.00000E+000,0.00000E+000,0.00000E+000,0.00000E+000,0,0.00000E+000,2.81807E-001
1076,770,-1.67354E+000,-9.08459E+000,-2.99176E-003,0.00000E+000,0.00000E+000,0.00000E+000,0.00000E+000,0.00000E+000,0.00000E+000,0.00000E+000,0.00000E+000,0.00000E+000,0.00000E+000,0.00000E+000,0,0.00000E+000,2.81807E-001
1181,680,2.89521E-001,-1.07769E+001,-1.57116E-003,0.00000E+000,0.00000E+000,0.00000E+000,0.00000E+000,0.00000E+000,0.00000E+000,0.00000E+000,0.00000E+000,0.00000E+000,0.00000E+000,0.00000E+000,0,0.00000E+000,2.81807E-001
1181,1505,4.42500E-001,4.74544E+000,3.16895E-003,0.00000E+000,0.00000E+000,0.00000E+000,0.00000E+000,0.00000E+000,0.00000E+000,0.00000E+000,0.00000E+000,0.00000E+000,0.00000E+000,0.00000E+000,0,0.00000E+000,2.81807E-001
1256,1610,1.87945E+000,6.72776E+000,-5.71418E-004,0.00000E+000,0.00000E+000,0.00000E+000,0.00000E+000,0.00000E+000,0.00000E+000,0.00000E+000,0.00000E+000,0.00000E+000,0.00000E+000,0.00000E+000,0,0.00000E+000,2.81807E-001
1226,695,1.14082E+000,-1.04968E+001,-2.57142E-003,0.00000E+000,0.00000E+000,0.00000E+000,0.00000E+000,0.00000E+000,0.00000E+000,0.00000E+000,0.00000E+000,0.00000E+000,0.00000E+000,0.00000E+000,0,0.00000E+000,2.81807E-001
1241,1460,1.56780E+000,3.89839E+000,1.53121E-003,0.00000E+000,0.00000E+000,0.00000E+000,0.00000E+000,0.00000E+000,0.00000E+000,0.00000E+000,0.00000E+000,0.00000E+000,0.00000E+000,0.00000E+000,0,0.00000E+000,2.81807E-001
1166,845,3.67635E-002,-7.67702E+000,-3.44224E-003,0.00000E+000,0.00000E+000,0.00000E+000,0.00000E+000,0.00000E+000,0.00000E+000,0.00000E+000,0.00000E+000,0.00000E+000,0.00000E+000,0.00000E+000,0,0.00000E+000,2.81807E-001
1121,1760,-6.45029E-001,9.55301E+000,-2.79031E-003,0.00000E+000,0.00000E+000,0.00000E+000,0.00000E+000,0.00000E+000,0.00000E+000,0.00000E+000,0.00000E+000,0.00000E+000,0.00000E+000,0.00000E+000,0,0.00000E+000,2.81807E-001
1106,905,-1.08286E+000,-6.54871E+000,4.81947E-003,0.00000E+000,0.00000E+000,0.00000E+000,0.00000E+000,0.00000E+000,0.00000E+000,0.00000E+000,0.00000E+000,0.00000E+000,0.00000E+000,0.00000E+000,0,0.00000E+000,2.81807E-001
1166,1100,8.41106E-002,-2.88325E+000,7.85227E-004,0.00000E+000,0.00000E+000,0.00000E+000,0.00000E+000,0.00000E+000,0.00000E+000,0.00000E+000,0.00000E+000,0.00000E+000,0.00000E+000,0.00000E+000,0,0.00000E+000,2.81807E-001
1181,1070,3.62226E-001,-3.44683E+000,5.25257E-003,0.00000E+000,0.00000E+000,0.00000E+000,0.00000E+000,0.00000E+000,0.00000E+000,0.00000E+000,0.00000E+000,0.00000E+000,0.00000E+000,0.00000E+000,0,0.00000E+000,2.81807E-001
1166,1520,1.61449E-001,5.02735E+000,-2.91219E-004,0.00000E+000,0.00000E+000,0.00000E+000,0.00000E+000,0.00000E+000,0.00000E+000,0.00000E+000,0.00000E+000,0.00000E+000,0.00000E+000,0.00000E+000,0,0.00000E+000,2.81807E-001
1181,1640,4.67169E-001,7.29132E+000,-7.69725E-005,0.00000E+000,0.00000E+000,0.00000E+000,0.00000E+000,0.00000E+000,0.00000E+000,0.00000E+000,0.00000E+000,0.00000E+000,0.00000E+000,0.00000E+000,0,0.00000E+000,2.81807E-001
1196,1745,7.70280E-001,9.27312E+000,-5.27395E-005,0.00000E+000,0.00000E+000,0.00000E+000,0.00000E+000,0.00000E+000,0.00000E+000,0.00000E+000,0.00000E+000,0.00000E+000,0.00000E+000,0.00000E+000,0,0.00000E+000,2.81807E-001
1091,1535,-1.25301E+000,5.30713E+000,-5.05810E-003,0.00000E+000,0.00000E+000,0.00000E+000,0.00000E+000,0.00000E+000,0.00000E+000,0.00000E+000,0.00000E+000,0.00000E+000,0.00000E+000,0.00000E+000,0,0.00000E+000,2.81807E-001
1211,1385,9.86614E-001,2.48374E+000,-9.09012E-005,0.00000E+000,0.00000E+000,0.00000E+000,0.00000E+000,0.00000E+000,0.00000E+000,0.00000E+000,0.00000E+000,0.00000E+000,0.00000E+000,0.00000E+000,0,0.00000E+000,2.81807E-001
1106,1610,-9.55700E-001,6.72231E+000,-1.74946E-003,0.00000E+000,0.00000E+000,0.00000E+000,0.00000E+000,0.00000E+000,0.00000E+000,0.00000E+000,0.00000E+000,0.00000E+000,0.00000E+000,0.00000E+000,0,0.00000E+000,2.81807E-001
1241,1715,1.61570E+000,8.70881E+000,3.04445E-004,0.00000E+000,0.00000E+000,0.00000E+000,0.00000E+000,0.00000E+000,0.00000E+000,0.00000E+000,0.00000E+000,0.00000E+000,0.00000E+000,0.00000E+000,0,0.00000E+000,2.81807E-001
1196,1670,7.56498E-001,7.85778E+000,1.63748E-003,0.00000E+000,0.00000E+000,0.00000E+000,0.00000E+000,0.00000E+000,0.00000E+000,0.00000E+000,0.00000E+000,0.00000E+000,0.00000E+000,0.00000E+000,0,0.00000E+000,2.81807E-001
1241,695,1.42374E+000,-1.04975E+001,-2.83162E-003,0.00000E+000,0.00000E+000,0.00000E+000,0.00000E+000,0.00000E+000,0.00000E+000,0.00000E+000,0.00000E+000,0.00000E+000,0.00000E+000,0.00000E+000,0,0.00000E+000,2.81807E-001
1211,1265,9.64026E-001,2.22843E-001,-1.70769E-003,0.00000E+000,0.00000E+000,0.00000E+000,0.00000E+000,0.00000E+000,0.00000E+000,0.00000E+000,0.00000E+000,0.00000E+000,0.00000E+000,0.00000E+000,0,0.00000E+000,2.81807E-001
1226,965,1.19111E+000,-5.42311E+000,-3.09911E-003,0.00000E+000,0.00000E+000,0.00000E+000,0.00000E+000,0.00000E+000,0.00000E+000,0.00000E+000,0.00000E+000,0.00000E+000,0.00000E+000,0.00000E+000,0,0.00000E+000,2.81807E-001
1076,815,-1.66520E+000,-8.23907E+000,-5.64468E-004,0.00000E+000,0.00000E+000,0.00000E+000,0.00000E+000,0.00000E+000,0.00000E+000,0.00000E+000,0.00000E+000,0.00000E+000,0.00000E+000,0.00000E+000,0,0.00000E+000,2.81807E-001
1226,950,1.18841E+000,-5.70505E+000,-2.21949E-003,0.00000E+000,0.00000E+000,0.00000E+000,0.00000E+000,0.00000E+000,0.00000E+000,0.00000E+000,0.00000E+000,0.00000E+000,0.00000E+000,0.00000E+000,0,0.00000E+000,2.81807E-001
1136,1430,-4.22025E-001,3.32974E+000,-2.22270E-003,0.00000E+000,0.00000E+000,0.00000E+000,0.00000E+000,0.00000E+000,0.00000E+000,0.00000E+000,0.00000E+000,0.00000E+000,0.00000E+000,0.00000E+000,0,0.00000E+000,2.81807E-001
1196,680,5.71877E-001,-1.07783E+001,-5.58736E-003,0.00000E+000,0.00000E+000,0.00000E+000,0.00000E+000,0.00000E+000,0.00000E+000,0.00000E+000,0.00000E+000,0.00000E+000,0.00000E+000,0.00000E+000,0,0.00000E+000,2.81807E-001
1196,1505,7.25641E-001,4.74530E+000,6.55522E-004,0.00000E+000,0.00000E+000,0.00000E+000,0.00000E+000,0.00000E+000,0.00000E+000,0.00000E+000,0.00000E+000,0.00000E+000,0.00000E+000,0.00000E+000,0,0.00000E+000,2.81807E-001
1211,1775,1.05942E+000,9.84052E+000,-1.11194E-003,0.00000E+000,0.00000E+000,0.00000E+000,0.00000E+000,0.00000E+000,0.00000E+000,0.00000E+000,0.00000E+000,0.00000E+000,0.00000E+000,0.00000E+000,0,0.00000E+000,2.81807E-001
1121,1205,-7.46155E-001,-9.07494E-001,-9.97452E-004,0.00000E+000,0.00000E+000,0.00000E+000,0.00000E+000,0.00000E+000,0.00000E+000,0.00000E+000,0.00000E+000,0.00000E+000,0.00000E+000,0.00000E+000,0,0.00000E+000,2.81807E-001
1091,890,-1.36912E+000,-6.83074E+000,-1.61602E-003,0.00000E+000,0.00000E+000,0.00000E+000,0.00000E+000,0.00000E+000,0.00000E+000,0.00000E+000,0.00000E+000,0.00000E+000,0.00000E+000,0.00000E+000,0,0.00000E+000,2.81807E-001
1181,1340,4.11892E-001,1.63558E+000,2.98553E-003,0.00000E+000,0.00000E+000,0.00000E+000,0.00000E+000,0.00000E+000,0.00000E+000,0.00000E+000,0.00000E+000,0.00000E+000,0.00000E+000,0.00000E+000,0,0.00000E+000,2.81807E-001
1091,770,-1.39122E+000,-9.08488E+000,-6.12226E-003,0.00000E+000,0.00000E+000,0.00000E+000,0.00000E+000,0.00000E+000,0.00000E+000,0.00000E+000,0.00000E+000,0.00000E+000,0.00000E+000,0.00000E+000,0,0.00000E+000,2.81807E-001
1181,1520,4.45051E-001,5.02794E+000,1.23934E-003,0.00000E+000,0.00000E+000,0.00000E+000,0.00000E+000,0.00000E+000,0.00000E+000,0.00000E+000,0.00000E+000,0.00000E+000,0.00000E+000,0.00000E+000,0,0.00000E+000,2.81807E-001
1196,1415,7.08701E-001,3.04848E+000,-9.16250E-004,0.00000E+000,0.00000E+000,0.00000E+000,0.00000E+000,0.00000E+000,0.00000E+000,0.00000E+000,0.00000E+000,0.00000E+000,0.00000E+000,0.00000E+000,0,0.00000E+000,2.81807E-001
1196,1640,7.50665E-001,7.29164E+000,-4.09412E-004,0.00000E+000,0.00000E+000,0.00000E+000,0.00000E+000,0.00000E+000,0.00000E+000,0.00000E+000,0.00000E+000,0.00000E+000,0.00000E+000,0.00000E+000,0,0.00000E+000,2.81807E-001
1136,1460,-4.16072E-001,3.89566E+000,1.63285E-003,0.00000E+000,0.00000E+000,0.00000E+000,0.00000E+000,0.00000E+000,0.00000E+000,0.00000E+000,0.00000E+000,0.00000E+000,0.00000E+000,0.00000E+000,0,0.00000E+000,2.81807E-001
1106,1535,-9.70343E-001,5.30716E+000,-1.02474E-002,0.00000E+000,0.00000E+000,0.00000E+000,0.00000E+000,0.00000E+000,0.00000E+000,0.00000E+000,0.00000E+000,0.00000E+000,0.00000E+000,0.00000E+000,0,0.00000E+000,2.81807E-001
1121,1610,-6.72015E-001,6.72278E+000,1.14070E-003,0.00000E+000,0.00000E+000,0.00000E+000,0.00000E+000,0.00000E+000,0.00000E+000,0.00000E+000,0.00000E+000,0.00000E+000,0.00000E+000,0.00000E+000,0,0.00000E+000,2.81807E-001
1061,1760,-1.77860E+000,9.55038E+000,-2.12076E-003,0.00000E+000,0.00000E+000,0.00000E+000,0.00000E+000,0.00000E+000,0.00000E+000,0.00000E+000,0.00000E+000,0.00000E+000,0.00000E+000,0.00000E+000,0,0.00000E+000,2.81807E-001
1136,950,-5.09166E-001,-5.70339E+000,2.71834E-003,0.00000E+000,0.00000E+000,0.00000E+000,0.00000E+000,0.00000E+000,0.00000E+000,0.00000E+000,0.00000E+000,0.00000E+000,0.00000E+000,0.00000E+000,0,0.00000E+000,2.81807E-001
1091,1295,-1.29358E+000,7.88379E-001,1.98582E-002,0.00000E+000,0.00000E+000,0.00000E+000,0.00000E+000,0.00000E+000,0.00000E+000,0.00000E+000,0.00000E+000,0.00000E+000,0.00000E+000,0.00000E+000,0,0.00000E+000,2.81807E-001
1106,1055,-1.05631E+000,-3.72921E+000,-2.95517E-004,0.00000E+000,0.00000E+000,0.00000E+000,0.00000E+000,0.00000E+000,0.00000E+000,0.00000E+000,0.00000E+000,0.00000E+000,0.00000E+000,0.00000E+000,0,0.00000E+000,2.81807E-001
1151,1430,-1.38859E-001,3.33038E+000,-3.35497E-003,0.00000E+000,0.00000E+000,0.00000E+000,0.00000E+000,0.00000E+000,0.00000E+000,0.00000E+000,0.00000E+000,0.00000E+000,0.00000E+000,0.00000E+000,0,0.00000E+000,2.81807E-001
1136,1445,-4.18974E-001,3.61242E+000,3.89348E-004,0.00000E+000,0.00000E+000,0.00000E+000,0.00000E+000,0.00000E+000,0.00000E+000,0.00000E+000,0.00000E+000,0.00000E+000,0.00000E+000,0.00000E+000,0,0.00000E+000,2.81807E-001
1166,695,9.61507E-003,-1.04947E+001,-2.45384E-004,0.00000E+000,0.00000E+000,0.00000E+000,0.00000E+000,0.00000E+000,0.00000E+000,0.00000E+000,0.00000E+000,0.00000E+000,0.00000E+000,0.00000E+000,0,0.00000E+000,2.81807E-001
1211,1580,1.02312E+000,6.16040E+000,4.88288E-004,0.00000E+000,0.00000E+000,0.00000E+000,0.00000E+000,0.00000E+000,0.00000E+000,0.00000E+000,0.00000E+000,0.00000E+000,0.00000E+000,0.00000E+000,0,0.00000E+000,2.81807E-001
1121,905,-8.00236E-001,-6.54908E+000,2.84110E-003,0.00000E+000,0.00000E+000,0.00000E+000,0.00000E+000,0.00000E+000,0.00000E+000,0.00000E+000,0.00000E+000,0.00000E+000,0.00000E+000,0.00000E+000,0,0.00000E+000,2.81807E-001
1061,1745,-1.78142E+000,9.26721E+000,-3.18175E-003,0.00000E+000,0.00000E+000,0.00000E+000,0.00000E+000,0.00000E+000,0.00000E+000,0.00000E+000,0.00000E+000,0.00000E+000,0.00000E+000,0.00000E+000,0,0.00000E+000,2.81807E-001
1166,1115,8.65851E-002,-2.60112E+000,-1.65997E-003,0.00000E+000,0.00000E+000,0.00000E+000,0.00000E+000,0.00000E+000,0.00000E+000,0.00000E+000,0.00000E+000,0.00000E+000,0.00000E+000,0.00000E+000,0,0.00000E+000,2.81807E-001
1151,1235,-1.73901E-001,-3.41999E-001,3.39395E-003,0.00000E+000,0.00000E+000,0.00000E+000,0.00000E+000,0.00000E+000,0.00000E+000,0.00000E+000,0.00000E+000,0.00000E+000,0.00000E+000,0.00000E+000,0,0.00000E+000,2.81807E-001
1211,710,8.60904E-001,-1.02149E+001,-6.91156E-004,0.00000E+000,0.00000E+000,0.00000E+000,0.00000E+000,0.00000E+000,0.00000E+000,0.00000E+000,0.00000E+000,0.00000E+000,0.00000E+000,0.00000E+000,0,0.00000E+000,2.81807E-001
1076,1775,-1.49294E+000,9.83380E+000,-5.74292E-003,0.00000E+000,0.00000E+000,0.00000E+000,0.00000E+000,0.00000E+000,0.00000E+000,0.00000E+000,0.00000E+000,0.00000E+000,0.00000E+000,0.00000E+000,0,0.00000E+000,2.81807E-001
1226,1385,1.27018E+000,2.48468E+000,9.90221E-004,0.00000E+000,0.00000E+000,0.00000E+000,0.00000E+000,0.00000E+000,0.00000E+000,0.00000E+000,0.00000E+000,0.00000E+000,0.00000E+000,0.00000E+000,0,0.00000E+000,2.81807E-001
1136,1205,-4.63053E-001,-9.06716E-001,-1.06738E-003,0.00000E+000,0.00000E+000,0.00000E+000,0.00000E+000,0.00000E+000,0.00000E+000,0.00000E+000,0.00000E+000,0.00000E+000,0.00000E+000,0.00000E+000,0,0.00000E+000,2.81807E-001
1196,1595,7.42257E-001,6.44292E+000,-6.39894E-004,0.00000E+000,0.00000E+000,0.00000E+000,0.00000E+000,0.00000E+000,0.00000E+000,0.00000E+000,0.00000E+000,0.00000E+000,0.00000E+000,0.00000E+000,0,0.00000E+000,2.81807E-001
1196,1070,6.45373E-001,-3.44697E+000,5.37729E-003,0.00000E+000,0.00000E+000,0.00000E+000,0.00000E+000,0.00000E+000,0.00000E+000,0.00000E+000,0.00000E+000,0.00000E+000,0.00000E+000,0.00000E+000,0,0.00000E+000,2.81807E-001
1211,1670,1.04043E+000,7.85840E+000,4.49686E-003,0.00000E+000,0.00000E+000,0.00000E+000,0.00000E+000,0.00000E+000,0.00000E+000,0.00000E+000,0.00000E+000,0.00000E+000,0.00000E+000,0.00000E+000,0,0.00000E+000,2.81807E-001
1226,1775,1.34343E+000,9.84130E+000,1.45504E-003,0.00000E+000,0.00000E+000,0.00000E+000,0.00000E+000,0.00000E+000,0.00000E+000,0.00000E+000,0.00000E+000,0.00000E+000,0.00000E+000,0.00000E+000,0,0.00000E+000,2.81807E-001
1061,1700,-1.78976E+000,8.41711E+000,-5.07167E-003,0.00000E+000,0.00000E+000,0.00000E+000,0.00000E+000,0.00000E+000,0.00000E+000,0.00000E+000,0.00000E+000,0.00000E+000,0.00000E+000,0.00000E+000,0,0.00000E+000,2.81807E-001
1196,1520,7.28455E-001,5.02811E+000,8.47262E-004,0.00000E+000,0.00000E+000,0.00000E+000,0.00000E+000,0.00000E+000,0.00000E+000,0.00000E+000,0.00000E+000,0.00000E+000,0.00000E+000,0.00000E+000,0,0.00000E+000,2.81807E-001
1106,770,-1.10831E+000,-9.08542E+000,-4.42116E-003,0.00000E+000,0.00000E+000,0.00000E+000,0.00000E+000,0.00000E+000,0.00000E+000,0.00000E+000,0.00000E+000,0.00000E+000,0.00000E+000,0.00000E+000,0,0.00000E+000,2.81807E-001
1196,1715,7.64736E-001,8.70750E+000,2.74694E-004,0.00000E+000,0.00000E+000,0.00000E+000,0.00000E+000,0.00000E+000,0.00000E+000,0.00000E+000,0.00000E+000,0.00000E+000,0.00000E+000,0.00000E+000,0,0.00000E+000,2.81807E-001
1211,1415,9.93037E-001,3.04968E+000,6.80742E-003,0.00000E+000,0.00000E+000,0.00000E+000,0.00000E+000,0.00000E+000,0.00000E+000,0.00000E+000,0.00000E+000,0.00000E+000,0.00000E+000,0.00000E+000,0,0.00000E+000,2.81807E-001
1226,1265,1.24739E+000,2.22846E-001,-1.46332E-003,0.00000E+000,0.00000E+000,0.00000E+000,0.00000E+000,0.00000E+000,0.00000E+000,0.00000E+000,0.00000E+000,0.00000E+000,0.00000E+000,0.00000E+000,0,0.00000E+000,2.81807E-001
1106,950,-1.07561E+000,-5.70323E+000,-2.91628E-003,0.00000E+000,0.00000E+000,0.00000E+000,0.00000E+000,0.00000E+000,0.00000E+000,0.00000E+000,0.00000E+000,0.00000E+000,0.00000E+000,0.00000E+000,0,0.00000E+000,2.81807E-001
1076,755,-1.67646E+000,-9.36623E+000,-5.01307E-003,0.00000E+000,0.00000E+000,0.00000E+000,0.00000E+000,0.00000E+000,0.00000E+000,0.00000E+000,0.00000E+000,0.00000E+000,0.00000E+000,0.00000E+000,0,0.00000E+000,2.81807E-001
1106,1070,-1.05388E+000,-3.44744E+000,-2.69288E-003,0.00000E+000,0.00000E+000,0.00000E+000,0.00000E+000,0.00000E+000,0.00000E+000,0.00000E+000,0.00000E+000,0.00000E+000,0.00000E+000,0.00000E+000,0,0.00000E+000,2.81807E-001
1121,965,-7.89820E-001,-5.42175E+000,-1.23287E-003,0.00000E+000,0.00000E+000,0.00000E+000,0.00000E+000,0.00000E+000,0.00000E+000,0.00000E+000,0.00000E+000,0.00000E+000,0.00000E+000,0.00000E+000,0,0.00000E+000,2.81807E-001
1121,1565,-6.80514E-001,5.87442E+000,-1.28440E-003,0.00000E+000,0.00000E+000,0.00000E+000,0.00000E+000,0.00000E+000,0.00000E+000,0.00000E+000,0.00000E+000,0.00000E+000,0.00000E+000,0.00000E+000,0,0.00000E+000,2.81807E-001
1241,1640,1.60150E+000,7.29326E+000,-1.85995E-004,0.00000E+000,0.00000E+000,0.00000E+000,0.00000E+000,0.00000E+000,0.00000E+000,0.00000E+000,0.00000E+000,0.00000E+000,0.00000E+000,0.00000E+000,0,0.00000E+000,2.81807E-001
1121,1535,-6.86566E-001,5.30857E+000,-6.21995E-003,0.00000E+000,0.00000E+000,0.00000E+000,0.00000E+000,0.00000E+000,0.00000E+000,0.00000E+000,0.00000E+000,0.00000E+000,0.00000E+000,0.00000E+000,0,0.00000E+000,2.81807E-001
1226,1580,1.30675E+000,6.16102E+000,1.04197E-003,0.00000E+000,0.00000E+000,0.00000E+000,0.00000E+000,0.00000E+000,0.00000E+000,0.00000E+000,0.00000E+000,0.00000E+000,0.00000E+000,0.00000E+000,0,0.00000E+000,2.81807E-001
1136,1610,-3.88630E-001,6.72370E+000,1.04745E-003,0.00000E+000,0.00000E+000,0.00000E+000,0.00000E+000,0.00000E+000,0.00000E+000,0.00000E+000,0.00000E+000,0.00000E+000,0.00000E+000,0.00000E+000,0,0.00000E+000,2.81807E-001
1091,1370,-1.28183E+000,2.19928E+000,4.10843E-003,0.00000E+000,0.00000E+000,0.00000E+000,0.00000E+000,0.00000E+000,0.00000E+000,0.00000E+000,0.00000E+000,0.00000E+000,0.00000E+000,0.00000E+000,0,0.00000E+000,2.81807E-001
1151,1460,-1.32897E-001,3.89627E+000,3.87497E-004,0.00000E+000,0.00000E+000,0.00000E+000,0.00000E+000,0.00000E+000,0.00000E+000,0.00000E+000,0.00000E+000,0.00000E+000,0.00000E+000,0.00000E+000,0,0.00000E+000,2.81807E-001
1226,710,1.14338E+000,-1.02156E+001,-4.45964E-003,0.00000E+000,0.00000E+000,0.00000E+000,0.00000E+000,0.00000E+000,0.00000E+000,0.00000E+000,0.00000E+000,0.00000E+000,0.00000E+000,0.00000E+000,0,0.00000E+000,2.81807E-001
1091,1775,-1.20954E+000,9.83424E+000,-5.78664E-003,0.00000E+000,0.00000E+000,0.00000E+000,0.00000E+000,0.00000E+000,0.00000E+000,0.00000E+000,0.00000E+000,0.00000E+000,0.00000E+000,0.00000E+000,0,0.00000E+000,2.81807E-001
1136,905,-5.17577E-001,-6.54961E+000,9.58351E-004,0.00000E+000,0.00000E+000,0.00000E+000,0.00000E+000,0.00000E+000,0.00000E+000,0.00000E+000,0.00000E+000,0.00000E+000,0.00000E+000,0.00000E+000,0,0.00000E+000,2.81807E-001
1106,1280,-1.01578E+000,5.04389E-001,-2.48333E-003,0.00000E+000,0.00000E+000,0.00000E+000,0.00000E+000,0.00000E+000,0.00000E+000,0.00000E+000,0.00000E+000,0.00000E+000,0.00000E+000,0.00000E+000,0,0.00000E+000,2.81807E-001
1226,1670,1.32386E+000,7.85883E+000,2.85838E-003,0.00000E+000,0.00000E+000,0.00000E+000,0.00000E+000,0.00000E+000,0.00000E+000,0.00000E+000,0.00000E+000,0.00000E+000,0.00000E+000,0.00000E+000,0,0.00000E+000,2.81807E-001
1226,1100,1.21664E+000,-2.88295E+000,-5.69096E-004,0.00000E+000,0.00000E+000,0.00000E+000,0.00000E+000,0.00000E+000,0.00000E+000,0.00000E+000,0.00000E+000,0.00000E+000,0.00000E+000,0.00000E+000,0,0.00000E+000,2.81807E-001
1136,1565,-3.96943E-001,5.87492E+000,5.83511E-004,0.00000E+000,0.00000E+000,0.00000E+000,0.00000E+000,0.00000E+000,0.00000E+000,0.00000E+000,0.00000E+000,0.00000E+000,0.00000E+000,0.00000E+000,0,0.00000E+000,2.81807E-001
1076,1700,-1.50608E+000,8.41876E+000,-2.02618E-003,0.00000E+000,0.00000E+000,0.00000E+000,0.00000E+000,0.00000E+000,0.00000E+000,0.00000E+000,0.00000E+000,0.00000E+000,0.00000E+000,0.00000E+000,0,0.00000E+000,2.81807E-001
1256,1640,1.88553E+000,7.29406E+000,2.79672E-003,0.00000E+000,0.00000E+000,0.00000E+000,0.00000E+000,0.00000E+000,0.00000E+000,0.00000E+000,0.00000E+000,0.00000E+000,0.00000E+000,0.00000E+000,0,0.00000E+000,2.81807E-001
1076,1790,-1.49001E+000,1.01176E+001,-3.92208E-003,0.00000E+000,0.00000E+000,0.00000E+000,0.00000E+000,0.00000E+000,0.00000E+000,0.00000E+000,0.00000E+000,0.00000E+000,0.00000E+000,0.00000E+000,0,0.00000E+000,2.81807E-001
1136,965,-5.06747E-001,-5.42152E+000,4.17925E-006,0.00000E+000,0.00000E+000,0.00000E+000,0.00000E+000,0.00000E+000,0.00000E+000,0.00000E+000,0.00000E+000,0.00000E+000,0.00000E+000,0.00000E+000,0,0.00000E+000,2.81807E-001
1091,755,-1.39390E+000,-9.36662E+000,-5.98430E-003,0.00000E+000,0.00000E+000,0.00000E+000,0.00000E+000,0.00000E+000,0.00000E+000,0.00000E+000,0.00000E+000,0.00000E+000,0.00000E+000,0.00000E+000,0,0.00000E+000,2.81807E-001
1046,1775,-2.05961E+000,9.83216E+000,-5.38652E-003,0.00000E+000,0.00000E+000,0.00000E+000,0.00000E+000,0.00000E+000,0.00000E+000,0.00000E+000,0.00000E+000,0.00000E+000,0.00000E+000,0.00000E+000,0,0.00000E+000,2.81807E-001
1226,890,1.17767E+000,-6.83297E+000,1.59119E-003,0.00000E+000,0.00000E+000,0.00000E+000,0.00000E+000,0.00000E+000,0.00000E+000,0.00000E+000,0.00000E+000,0.00000E+000,0.00000E+000,0.00000E+000,0,0.00000E+000,2.81807E-001
1091,1610,-1.23905E+000,6.72191E+000,-2.01806E-003,0.00000E+000,0.00000E+000,0.00000E+000,0.00000E+000,0.00000E+000,0.00000E+000,0.00000E+000,0.00000E+000,0.00000E+000,0.00000E+000,0.00000E+000,0,0.00000E+000,2.81807E-001
1121,950,-7.92116E-001,-5.70348E+000,2.45304E-003,0.00000E+000,0.00000E+000,0.00000E+000,0.00000E+000,0.00000E+000,0.00000E+000,0.00000E+000,0.00000E+000,0.00000E+000,0.00000E+000,0.00000E+000,0,0.00000E+000,2.81807E-001
1226,1415,1.27624E+000,3.05001E+000,4.73446E-003,0.00000E+000,0.00000E+000,0.00000E+000,0.00000E+000,0.00000E+000,0.00000E+000,0.00000E+000,0.00000E+000,0.00000E+000,0.00000E+000,0.00000E+000,0,0.00000E+000,2.81807E-001
1121,1040,-7.76294E-001,-4.01134E+000,-2.13142E-003,0.00000E+000,0.00000E+000,0.00000E+000,0.00000E+000,0.00000E+000,0.00000E+000,0.00000E+000,0.00000E+000,0.00000E+000,0.00000E+000,0.00000E+000,0,0.00000E+000,2.81807E-001
1151,1055,-2.07559E-001,-3.72948E+000,-2.13740E-003,0.00000E+000,0.00000E+000,0.00000E+000,0.00000E+000,0.00000E+000,0.00000E+000,0.00000E+000,0.00000E+000,0.00000E+000,0.00000E+000,0.00000E+000,0,0.00000E+000,2.81807E-001
1196,860,6.05481E-001,-7.39600E+000,-3.02243E-003,0.00000E+000,0.00000E+000,0.00000E+000,0.00000E+000,0.00000E+000,0.00000E+000,0.00000E+000,0.00000E+000,0.00000E+000,0.00000E+000,0.00000E+000,0,0.00000E+000,2.81807E-001
1256,1715,1.89932E+000,8.70938E+000,-5.20492E-004,0.00000E+000,0.00000E+000,0.00000E+000,0.00000E+000,0.00000E+000,0.00000E+000,0.00000E+000,0.00000E+000,0.00000E+000,0.00000E+000,0.00000E+000,0,0.00000E+000,2.81807E-001
1136,1760,-3.61408E-001,9.55382E+000,-1.70019E-003,0.00000E+000,0.00000E+000,0.00000E+000,0.00000E+000,0.00000E+000,0.00000E+000,0.00000E+000,0.00000E+000,0.00000E+000,0.00000E+000,0.00000E+000,0,0.00000E+000,2.81807E-001
1151,1520,-1.22085E-001,5.02674E+000,-1.51377E-003,0.00000E+000,0.00000E+000,0.00000E+000,0.00000E+000,0.00000E+000,0.00000E+000,0.00000E+000,0.00000E+000,0.00000E+000,0.00000E+000,0.00000E+000,0,0.00000E+000,2.81807E-001
1196,770,5.89313E-001,-9.08672E+000,1.03168E-003,0.00000E+000,0.00000E+000,0.00000E+000,0.00000E+000,0.00000E+000,0.00000E+000,0.00000E+000,0.00000E+000,0.00000E+000,0.00000E+000,0.00000E+000,0,0.00000E+000,2.81807E-001
1106,755,-1.11101E+000,-9.36696E+000,-4.38897E-003,0.00000E+000,0.00000E+000,0.00000E+000,0.00000E+000,0.00000E+000,0.00000E+000,0.00000E+000,0.00000E+000,0.00000E+000,0.00000E+000,0.00000E+000,0,0.00000E+000,2.81807E-001
1151,1565,-1.13584E-001,5.87539E+000,3.22493E-004,0.00000E+000,0.00000E+000,0.00000E+000,0.00000E+000,0.00000E+000,0.00000E+000,0.00000E+000,0.00000E+000,0.00000E+000,0.00000E+000,0.00000E+000,0,0.00000E+000,2.81807E-001
1151,1775,-7.55330E-002,9.83675E+000,-5.15809E-003,0.00000E+000,0.00000E+000,0.00000E+000,0.00000E+000,0.00000E+000,0.00000E+000,0.00000E+000,0.00000E+000,0.00000E+000,0.00000E+000,0.00000E+000,0,0.00000E+000,2.81807E-001
1121,1280,-7.32305E-001,5.05006E-001,5.47964E-004,0.00000E+000,0.00000E+000,0.00000E+000,0.00000E+000,0.00000E+000,0.00000E+000,0.00000E+000,0.00000E+000,0.00000E+000,0.00000E+000,0.00000E+000,0,0.00000E+000,2.81807E-001
1166,1235,1.09009E-001,-3.41966E-001,1.02547E-003,0.00000E+000,0.00000E+000,0.00000E+000,0.00000E+000,0.00000E+000,0.00000E+000,0.00000E+000,0.00000E+000,0.00000E+000,0.00000E+000,0.00000E+000,0,0.00000E+000,2.81807E-001
1076,1745,-1.49840E+000,9.26716E+000,-5.97708E-003,0.00000E+000,0.00000E+000,0.00000E+000,0.00000E+000,0.00000E+000,0.00000E+000,0.00000E+000,0.00000E+000,0.00000E+000,0.00000E+000,0.00000E+000,0,0.00000E+000,2.81807E-001
1211,1640,1.03414E+000,7.29242E+000,-1.22853E-003,0.00000E+000,0.00000E+000,0.00000E+000,0.00000E+000,0.00000E+000,0.00000E+000,0.00000E+000,0.00000E+000,0.00000E+000,0.00000E+000,0.00000E+000,0,0.00000E+000,2.81807E-001
1091,1790,-1.20667E+000,1.01175E+001,-4.47025E-003,0.00000E+000,0.00000E+000,0.00000E+000,0.00000E+000,0.00000E+000,0.00000E+000,0.00000E+000,0.00000E+000,0.00000E+000,0.00000E+000,0.00000E+000,0,0.00000E+000,2.81807E-001
1151,1415,-1.41023E-001,3.04847E+000,1.66846E-003,0.00000E+000,0.00000E+000,0.00000E+000,0.00000E+000,0.00000E+000,0.00000E+000,0.00000E+000,0.00000E+000,0.00000E+000,0.00000E+000,0.00000E+000,0,0.00000E+000,2.81807E-001
1166,1460,1.50379E-001,3.89646E+000,-1.91367E-004,0.00000E+000,0.00000E+000,0.00000E+000,0.00000E+000,0.00000E+000,0.00000E+000,0.00000E+000,0.00000E+000,0.00000E+000,0.00000E+000,0.00000E+000,0,0.00000E+000,2.81807E-001
1241,1580,1.59056E+000,6.16162E+000,2.80996E-003,0.00000E+000,0.00000E+000,0.00000E+000,0.00000E+000,0.00000E+000,0.00000E+000,0.00000E+000,0.00000E+000,0.00000E+000,0.00000E+000,0.00000E+000,0,0.00000E+000,2.81807E-001
1166,1310,1.23152E-001,1.07057E+000,3.70287E-003,0.00000E+000,0.00000E+000,0.00000E+000,0.00000E+000,0.00000E+000,0.00000E+000,0.00000E+000,0.00000E+000,0.00000E+000,0.00000E+000,0.00000E+000,0,0.00000E+000,2.81807E-001
1061,1610,-1.80194E+000,6.72402E+000,2.98380E-002,0.00000E+000,0.00000E+000,0.00000E+000,0.00000E+000,0.00000E+000,0.00000E+000,0.00000E+000,0.00000E+000,0.00000E+000,0.00000E+000,0.00000E+000,0,0.00000E+000,2.81807E-001
1151,1505,-1.24554E-001,4.74425E+000,9.64036E-004,0.00000E+000,0.00000E+000,0.00000E+000,0.00000E+000,0.00000E+000,0.00000E+000,0.00000E+000,0.00000E+000,0.00000E+000,0.00000E+000,0.00000E+000,0,0.00000E+000,2.81807E-001
1196,1565,7.37255E-001,5.87742E+000,4.31438E-003,0.00000E+000,0.00000E+000,0.00000E+000,0.00000E+000,0.00000E+000,0.00000E+000,0.00000E+000,0.00000E+000,0.00000E+000,0.00000E+000,0.00000E+000,0,0.00000E+000,2.81807E-001
1166,1175,9.77795E-002,-1.47175E+000,-4.33751E-004,0.00000E+000,0.00000E+000,0.00000E+000,0.00000E+000,0.00000E+000,0.00000E+000,0.00000E+000,0.00000E+000,0.00000E+000,0.00000E+000,0.00000E+000,0,0.00000E+000,2.81807E-001
1211,770,8.72261E-001,-9.08744E+000,1.11717E-003,0.00000E+000,0.00000E+000,0.00000E+000,0.00000E+000,0.00000E+000,0.00000E+000,0.00000E+000,0.00000E+000,0.00000E+000,0.00000E+000,0.00000E+000,0,0.00000E+000,2.81807E-001
1136,1535,-4.02379E-001,5.30983E+000,1.07758E-003,0.00000E+000,0.00000E+000,0.00000E+000,0.00000E+000,0.00000E+000,0.00000E+000,0.00000E+000,0.00000E+000,0.00000E+000,0.00000E+000,0.00000E+000,0,0.00000E+000,2.81807E-001
1061,1775,-1.77616E+000,9.83300E+000,-4.38168E-003,0.00000E+000,0.00000E+000,0.00000E+000,0.00000E+000,0.00000E+000,0.00000E+000,0.00000E+000,0.00000E+000,0.00000E+000,0.00000E+000,0.00000E+000,0,0.00000E+000,2.81807E-001
1166,710,1.22516E-002,-1.02130E+001,-1.23029E-003,0.00000E+000,0.00000E+000,0.00000E+000,0.00000E+000,0.00000E+000,0.00000E+000,0.00000E+000,0.00000E+000,0.00000E+000,0.00000E+000,0.00000E+000,0,0.00000E+000,2.81807E-001
1151,905,-2.34665E-001,-6.54981E+000,9.37744E-004,0.00000E+000,0.00000E+000,0.00000E+000,0.00000E+000,0.00000E+000,0.00000E+000,0.00000E+000,0.00000E+000,0.00000E+000,0.00000E+000,0.00000E+000,0,0.00000E+000,2.81807E-001
1271,1715,2.18300E+000,8.71002E+000,-1.18604E-003,0.00000E+000,0.00000E+000,0.00000E+000,0.00000E+000,0.00000E+000,0.00000E+000,0.00000E+000,0.00000E+000,0.00000E+000,0.00000E+000,0.00000E+000,0,0.00000E+000,2.81807E-001
1211,1595,1.02586E+000,6.44346E+000,-1.01782E-004,0.00000E+000,0.00000E+000,0.00000E+000,0.00000E+000,0.00000E+000,0.00000E+000,0.00000E+000,0.00000E+000,0.00000E+000,0.00000E+000,0.00000E+000,0,0.00000E+000,2.81807E-001
1151,1760,-7.78472E-002,9.55404E+000,-1.32301E-003,0.00000E+000,0.00000E+000,0.00000E+000,0.00000E+000,0.00000E+000,0.00000E+000,0.00000E+000,0.00000E+000,0.00000E+000,0.00000E+000,0.00000E+000,0,0.00000E+000,2.81807E-001
1181,1670,4.72464E-001,7.85670E+000,-2.34433E-003,0.00000E+000,0.00000E+000,0.00000E+000,0.00000E+000,0.00000E+000,0.00000E+000,0.00000E+000,0.00000E+000,0.00000E+000,0.00000E+000,0.00000E+000,0,0.00000E+000,2.81807E-001
1091,1700,-1.22325E+000,8.41916E+000,-6.58630E-003,0.00000E+000,0.00000E+000,0.00000E+000,0.00000E+000,0.00000E+000,0.00000E+000,0.00000E+000,0.00000E+000,0.00000E+000,0.00000E+000,0.00000E+000,0,0.00000E+000,2.81807E-001
1136,1280,-4.49191E-001,5.04972E-001,2.42399E-004,0.00000E+000,0.00000E+000,0.00000E+000,0.00000E+000,0.00000E+000,0.00000E+000,0.00000E+000,0.00000E+000,0.00000E+000,0.00000E+000,0.00000E+000,0,0.00000E+000,2.81807E-001
1031,1790,-2.33864E+000,1.01168E+001,8.48840E-003,0.00000E+000,0.00000E+000,0.00000E+000,0.00000E+000,0.00000E+000,0.00000E+000,0.00000E+000,0.00000E+000,0.00000E+000,0.00000E+000,0.00000E+000,0,0.00000E+000,2.81807E-001
1226,1595,1.30923E+000,6.44383E+000,-1.79733E-003,0.00000E+000,0.00000E+000,0.00000E+000,0.00000E+000,0.00000E+000,0.00000E+000,0.00000E+000,0.00000E+000,0.00000E+000,0.00000E+000,0.00000E+000,0,0.00000E+000,2.81807E-001
1166,1415,1.42248E-001,3.04855E+000,1.32366E-003,0.00000E+000,0.00000E+000,0.00000E+000,0.00000E+000,0.00000E+000,0.00000E+000,0.00000E+000,0.00000E+000,0.00000E+000,0.00000E+000,0.00000E+000,0,0.00000E+000,2.81807E-001
1091,1745,-1.21478E+000,9.26811E+000,-3.93349E-003,0.00000E+000,0.00000E+000,0.00000E+000,0.00000E+000,0.00000E+000,0.00000E+000,0.00000E+000,0.00000E+000,0.00000E+000,0.00000E+000,0.00000E+000,0,0.00000E+000,2.81807E-001
1196,1040,6.39758E-001,-4.01122E+000,4.90861E-003,0.00000E+000,0.00000E+000,0.00000E+000,0.00000E+000,0.00000E+000,0.00000E+000,0.00000E+000,0.00000E+000,0.00000E+000,0.00000E+000,0.00000E+000,0,0.00000E+000,2.81807E-001
1151,1700,-8.92641E-002,8.42154E+000,-4.37852E-003,0.00000E+000,0.00000E+000,0.00000E+000,0.00000E+000,0.00000E+000,0.00000E+000,0.00000E+000,0.00000E+000,0.00000E+000,0.00000E+000,0.00000E+000,0,0.00000E+000,2.81807E-001
1121,1460,-6.99643E-001,3.89513E+000,-8.55173E-004,0.00000E+000,0.00000E+000,0.00000E+000,0.00000E+000,0.00000E+000,0.00000E+000,0.00000E+000,0.00000E+000,0.00000E+000,0.00000E+000,0.00000E+000,0,0.00000E+000,2.81807E-001
1106,1505,-9.74659E-001,4.74248E+000,-3.88941E-004,0.00000E+000,0.00000E+000,0.00000E+000,0.00000E+000,0.00000E+000,0.00000E+000,0.00000E+000,0.00000E+000,0.00000E+000,0.00000E+000,0.00000E+000,0,0.00000E+000,2.81807E-001
1166,1760,2.05875E-001,9.55477E+000,7.72433E-005,0.00000E+000,0.00000E+000,0.00000E+000,0.00000E+000,0.00000E+000,0.00000E+000,0.00000E+000,0.00000E+000,0.00000E+000,0.00000E+000,0.00000E+000,0,0.00000E+000,2.81807E-001
1166,1055,7.58371E-002,-3.72919E+000,7.49444E-004,0.00000E+000,0.00000E+000,0.00000E+000,0.00000E+000,0.00000E+000,0.00000E+000,0.00000E+000,0.00000E+000,0.00000E+000,0.00000E+000,0.00000E+000,0,0.00000E+000,2.81807E-001
1181,1235,3.92099E-001,-3.41921E-001,-6.43227E-005,0.00000E+000,0.00000E+000,0.00000E+000,0.00000E+000,0.00000E+000,0.00000E+000,0.00000E+000,0.00000E+000,0.00000E+000,0.00000E+000,0.00000E+000,0,0.00000E+000,2.81807E-001
1166,1670,1.89013E-001,7.85608E+000,-1.68465E-003,0.00000E+000,0.00000E+000,0.00000E+000,0.00000E+000,0.00000E+000,0.00000E+000,0.00000E+000,0.00000E+000,0.00000E+000,0.00000E+000,0.00000E+000,0,0.00000E+000,2.81807E-001
1076,1610,-1.52221E+000,6.72166E+000,-9.39181E-004,0.00000E+000,0.00000E+000,0.00000E+000,0.00000E+000,0.00000E+000,0.00000E+000,0.00000E+000,0.00000E+000,0.00000E+000,0.00000E+000,0.00000E+000,0,0.00000E+000,2.81807E-001
1211,860,8.88868E-001,-7.39653E+000,2.26196E-004,0.00000E+000,0.00000E+000,0.00000E+000,0.00000E+000,0.00000E+000,0.00000E+000,0.00000E+000,0.00000E+000,0.00000E+000,0.00000E+000,0.00000E+000,0,0.00000E+000,2.81807E-001
1151,1280,-1.66343E-001,5.04795E-001,-2.61579E-003,0.00000E+000,0.00000E+000,0.00000E+000,0.00000E+000,0.00000E+000,0.00000E+000,0.00000E+000,0.00000E+000,0.00000E+000,0.00000E+000,0.00000E+000,0,0.00000E+000,2.81807E-001
1196,1730,7.67489E-001,8.99063E+000,-9.93822E-005,0.00000E+000,0.00000E+000,0.00000E+000,0.00000E+000,0.00000E+000,0.00000E+000,0.00000E+000,0.00000E+000,0.00000E+000,0.00000E+000,0.00000E+000,0,0.00000E+000,2.81807E-001
1106,1175,-1.03506E+000,-1.47210E+000,-4.49297E-003,0.00000E+000,0.00000E+000,0.00000E+000,0.00000E+000,0.00000E+000,0.00000E+000,0.00000E+000,0.00000E+000,0.00000E+000,0.00000E+000,0.00000E+000,0,0.00000E+000,2.81807E-001
1046,1790,-2.05719E+000,1.01151E+001,-7.71682E-003,0.00000E+000,0.00000E+000,0.00000E+000,0.00000E+000,0.00000E+000,0.00000E+000,0.00000E+000,0.00000E+000,0.00000E+000,0.00000E+000,0.00000E+000,0,0.00000E+000,2.81807E-001
1241,710,1.42642E+000,-1.02158E+001,-3.82773E-003,0.00000E+000,0.00000E+000,0.00000E+000,0.00000E+000,0.00000E+000,0.00000E+000,0.00000E+000,0.00000E+000,0.00000E+000,0.00000E+000,0.00000E+000,0,0.00000E+000,2.81807E-001
1181,1415,4.25151E-001,3.04811E+000,-2.37431E-003,0.00000E+000,0.00000E+000,0.00000E+000,0.00000E+000,0.00000E+000,0.00000E+000,0.00000E+000,0.00000E+000,0.00000E+000,0.00000E+000,0.00000E+000,0,0.00000E+000,2.81807E-001
1151,785,-2.56761E-001,-8.80449E+000,-4.10228E-004,0.00000E+000,0.00000E+000,0.00000E+000,0.00000E+000,0.00000E+000,0.00000E+000,0.00000E+000,0.00000E+000,0.00000E+000,0.00000E+000,0.00000E+000,0,0.00000E+000,2.81807E-001
1046,1745,-2.06387E+000,9.26747E+000,4.44947E-003,0.00000E+000,0.00000E+000,0.00000E+000,0.00000E+000,0.00000E+000,0.00000E+000,0.00000E+000,0.00000E+000,0.00000E+000,0.00000E+000,0.00000E+000,0,0.00000E+000,2.81807E-001
1136,1595,-3.91582E-001,6.44064E+000,-6.56247E-004,0.00000E+000,0.00000E+000,0.00000E+000,0.00000E+000,0.00000E+000,0.00000E+000,0.00000E+000,0.00000E+000,0.00000E+000,0.00000E+000,0.00000E+000,0,0.00000E+000,2.81807E-001
1181,1760,4.89520E-001,9.55567E+000,5.08373E-004,0.00000E+000,0.00000E+000,0.00000E+000,0.00000E+000,0.00000E+000,0.00000E+000,0.00000E+000,0.00000E+000,0.00000E+000,0.00000E+000,0.00000E+000,0,0.00000E+000,2.81807E-001
1046,1700,-2.06982E+000,8.41956E+000,2.31394E-002,0.00000E+000,0.00000E+000,0.00000E+000,0.00000E+000,0.00000E+000,0.00000E+000,0.00000E+000,0.00000E+000,0.00000E+000,0.00000E+000,0.00000E+000,0,0.00000E+000,2.81807E-001
1091,1670,-1.22829E+000,7.85298E+000,-3.01913E-003,0.00000E+000,0.00000E+000,0.00000E+000,0.00000E+000,0.00000E+000,0.00000E+000,0.00000E+000,0.00000E+000,0.00000E+000,0.00000E+000,0.00000E+000,0,0.00000E+000,2.81807E-001
1211,1730,1.05131E+000,8.99107E+000,1.55377E-003,0.00000E+000,0.00000E+000,0.00000E+000,0.00000E+000,0.00000E+000,0.00000E+000,0.00000E+000,0.00000E+000,0.00000E+000,0.00000E+000,0.00000E+000,0,0.00000E+000,2.81807E-001
1256,695,1.70702E+000,-1.04979E+001,-3.46935E-004,0.00000E+000,0.00000E+000,0.00000E+000,0.00000E+000,0.00000E+000,0.00000E+000,0.00000E+000,0.00000E+000,0.00000E+000,0.00000E+000,0.00000E+000,0,0.00000E+000,2.81807E-001
1166,1625,1.80844E-001,7.00788E+000,-4.77252E-004,0.00000E+000,0.00000E+000,0.00000E+000,0.00000E+000,0.00000E+000,0.00000E+000,0.00000E+000,0.00000E+000,0.00000E+000,0.00000E+000,0.00000E+000,0,0.00000E+000,2.81807E-001
1181,1055,3.59441E-001,-3.72913E+000,5.14604E-003,0.00000E+000,0.00000E+000,0.00000E+000,0.00000E+000,0.00000E+000,0.00000E+000,0.00000E+000,0.00000E+000,0.00000E+000,0.00000E+000,0.00000E+000,0,0.00000E+000,2.81807E-001
1061,1790,-1.77360E+000,1.01163E+001,-5.70767E-003,0.00000E+000,0.00000E+000,0.00000E+000,0.00000E+000,0.00000E+000,0.00000E+000,0.00000E+000,0.00000E+000,0.00000E+000,0.00000E+000,0.00000E+000,0,0.00000E+000,2.81807E-001
1091,1280,-1.29487E+000,5.06524E-001,3.22356E-002,0.00000E+000,0.00000E+000,0.00000E+000,0.00000E+000,0.00000E+000,0.00000E+000,0.00000E+000,0.00000E+000,0.00000E+000,0.00000E+000,0.00000E+000,0,0.00000E+000,2.81807E-001
1256,710,1.70949E+000,-1.02162E+001,-3.23300E-003,0.00000E+000,0.00000E+000,0.00000E+000,0.00000E+000,0.00000E+000,0.00000E+000,0.00000E+000,0.00000E+000,0.00000E+000,0.00000E+000,0.00000E+000,0,0.00000E+000,2.81807E-001
1166,1745,2.02645E-001,9.27113E+000,-3.74714E-003,0.00000E+000,0.00000E+000,0.00000E+000,0.00000E+000,0.00000E+000,0.00000E+000,0.00000E+000,0.00000E+000,0.00000E+000,0.00000E+000,0.00000E+000,0,0.00000E+000,2.81807E-001
1226,860,1.17203E+000,-7.39701E+000,1.25242E-003,0.00000E+000,0.00000E+000,0.00000E+000,0.00000E+000,0.00000E+000,0.00000E+000,0.00000E+000,0.00000E+000,0.00000E+000,0.00000E+000,0.00000E+000,0,0.00000E+000,2.81807E-001
1181,1625,4.64403E-001,7.00809E+000,1.16942E-004,0.00000E+000,0.00000E+000,0.00000E+000,0.00000E+000,0.00000E+000,0.00000E+000,0.00000E+000,0.00000E+000,0.00000E+000,0.00000E+000,0.00000E+000,0,0.00000E+000,2.81807E-001
1166,785,2.62031E-002,-8.80521E+000,5.61989E-004,0.00000E+000,0.00000E+000,0.00000E+000,0.00000E+000,0.00000E+000,0.00000E+000,0.00000E+000,0.00000E+000,0.00000E+000,0.00000E+000,0.00000E+000,0,0.00000E+000,2.81807E-001
1226,1640,1.31766E+000,7.29288E+000,-1.98788E-003,0.00000E+000,0.00000E+000,0.00000E+000,0.00000E+000,0.00000E+000,0.00000E+000,0.00000E+000,0.00000E+000,0.00000E+000,0.00000E+000,0.00000E+000,0,0.00000E+000,2.81807E-001
1166,680,6.93341E-003,-1.07761E+001,3.02643E-004,0.00000E+000,0.00000E+000,0.00000E+000,0.00000E+000,0.00000E+000,0.00000E+000,0.00000E+000,0.00000E+000,0.00000E+000,0.00000E+000,0.00000E+000,0,0.00000E+000,2.81807E-001
1226,770,1.15488E+000,-9.08791E+000,-1.89872E-003,0.00000E+000,0.00000E+000,0.00000E+000,0.00000E+000,0.00000E+000,0.00000E+000,0.00000E+000,0.00000E+000,0.00000E+000,0.00000E+000,0.00000E+000,0,0.00000E+000,2.81807E-001
1166,1775,2.08367E-001,9.83794E+000,-2.36649E-003,0.00000E+000,0.00000E+000,0.00000E+000,0.00000E+000,0.00000E+000,0.00000E+000,0.00000E+000,0.00000E+000,0.00000E+000,0.00000E+000,0.00000E+000,0,0.00000E+000,2.81807E-001
1181,1175,3.81101E-001,-1.47174E+000,8.29509E-004,0.00000E+000,0.00000E+000,0.00000E+000,0.00000E+000,0.00000E+000,0.00000E+000,0.00000E+000,0.00000E+000,0.00000E+000,0.00000E+000,0.00000E+000,0,0.00000E+000,2.81807E-001
1166,1565,1.69737E-001,5.87600E+000,-5.51754E-004,0.00000E+000,0.00000E+000,0.00000E+000,0.00000E+000,0.00000E+000,0.00000E+000,0.00000E+000,0.00000E+000,0.00000E+000,0.00000E+000,0.00000E+000,0,0.00000E+000,2.81807E-001
1106,665,-1.12672E+000,-1.10561E+001,1.01770E-004,0.00000E+000,0.00000E+000,0.00000E+000,0.00000E+000,0.00000E+000,0.00000E+000,0.00000E+000,0.00000E+000,0.00000E+000,0.00000E+000,0.00000E+000,0,0.00000E+000,2.81807E-001
1106,1190,-1.03215E+000,-1.18993E+000,-2.81408E-003,0.00000E+000,0.00000E+000,0.00000E+000,0.00000E+000,0.00000E+000,0.00000E+000,0.00000E+000,0.00000E+000,0.00000E+000,0.00000E+000,0.00000E+000,0,0.00000E+000,2.81807E-001
1196,1235,6.75679E-001,-3.41599E-001,2.71180E-003,0.00000E+000,0.00000E+000,0.00000E+000,0.00000E+000,0.00000E+000,0.00000E+000,0.00000E+000,0.00000E+000,0.00000E+000,0.00000E+000,0.00000E+000,0,0.00000E+000,2.81807E-001
1181,1790,4.94744E-001,1.01220E+001,-2.48478E-003,0.00000E+000,0.00000E+000,0.00000E+000,0.00000E+000,0.00000E+000,0.00000E+000,0.00000E+000,0.00000E+000,0.00000E+000,0.00000E+000,0.00000E+000,0,0.00000E+000,2.81807E-001
1136,1055,-4.90437E-001,-3.72933E+000,-9.02471E-004,0.00000E+000,0.00000E+000,0.00000E+000,0.00000E+000,0.00000E+000,0.00000E+000,0.00000E+000,0.00000E+000,0.00000E+000,0.00000E+000,0.00000E+000,0,0.00000E+000,2.81807E-001
1211,1700,1.04578E+000,8.42474E+000,2.25688E-003,0.00000E+000,0.00000E+000,0.00000E+000,0.00000E+000,0.00000E+000,0.00000E+000,0.00000E+000,0.00000E+000,0.00000E+000,0.00000E+000,0.00000E+000,0,0.00000E+000,2.81807E-001
1226,1730,1.33468E+000,8.99135E+000,-9.80709E-004,0.00000E+000,0.00000E+000,0.00000E+000,0.00000E+000,0.00000E+000,0.00000E+000,0.00000E+000,0.00000E+000,0.00000E+000,0.00000E+000,0.00000E+000,0,0.00000E+000,2.81807E-001
1106,1745,-9.31253E-001,9.26884E+000,-2.98932E-003,0.00000E+000,0.00000E+000,0.00000E+000,0.00000E+000,0.00000E+000,0.00000E+000,0.00000E+000,0.00000E+000,0.00000E+000,0.00000E+000,0.00000E+000,0,0.00000E+000,2.81807E-001
1196,1760,7.73139E-001,9.55664E+000,4.19534E-004,0.00000E+000,0.00000E+000,0.00000E+000,0.00000E+000,0.00000E+000,0.00000E+000,0.00000E+000,0.00000E+000,0.00000E+000,0.00000E+000,0.00000E+000,0,0.00000E+000,2.81807E-001
1181,1565,4.53801E-001,5.87692E+000,4.61185E-003,0.00000E+000,0.00000E+000,0.00000E+000,0.00000E+000,0.00000E+000,0.00000E+000,0.00000E+000,0.00000E+000,0.00000E+000,0.00000E+000,0.00000E+000,0,0.00000E+000,2.81807E-001
1091,1115,-1.32639E+000,-2.59874E+000,1.71898E-002,0.00000E+000,0.00000E+000,0.00000E+000,0.00000E+000,0.00000E+000,0.00000E+000,0.00000E+000,0.00000E+000,0.00000E+000,0.00000E+000,0.00000E+000,0,0.00000E+000,2.81807E-001
1121,1550,-6.83846E-001,5.59104E+000,-6.34422E-003,0.00000E+000,0.00000E+000,0.00000E+000,0.00000E+000,0.00000E+000,0.00000E+000,0.00000E+000,0.00000E+000,0.00000E+000,0.00000E+000,0.00000E+000,0,0.00000E+000,2.81807E-001
1196,1625,7.47904E-001,7.00859E+000,-1.13546E-004,0.00000E+000,0.00000E+000,0.00000E+000,0.00000E+000,0.00000E+000,0.00000E+000,0.00000E+000,0.00000E+000,0.00000E+000,0.00000E+000,0.00000E+000,0,0.00000E+000,2.81807E-001
1181,1730,4.83285E-001,8.98890E+000,-5.08876E-003,0.00000E+000,0.00000E+000,0.00000E+000,0.00000E+000,0.00000E+000,0.00000E+000,0.00000E+000,0.00000E+000,0.00000E+000,0.00000E+000,0.00000E+000,0,0.00000E+000,2.81807E-001
1046,1760,-2.06165E+000,9.55019E+000,2.74262E-004,0.00000E+000,0.00000E+000,0.00000E+000,0.00000E+000,0.00000E+000,0.00000E+000,0.00000E+000,0.00000E+000,0.00000E+000,0.00000E+000,0.00000E+000,0,0.00000E+000,2.81807E-001
1271,1790,2.19721E+000,1.01265E+001,-1.50374E-003,0.00000E+000,0.00000E+000,0.00000E+000,0.00000E+000,0.00000E+000,0.00000E+000,0.00000E+000,0.00000E+000,0.00000E+000,0.00000E+000,0.00000E+000,0,0.00000E+000,2.81807E-001
1061,1670,-1.79520E+000,7.85191E+000,-5.52180E-003,0.00000E+000,0.00000E+000,0.00000E+000,0.00000E+000,0.00000E+000,0.00000E+000,0.00000E+000,0.00000E+000,0.00000E+000,0.00000E+000,0.00000E+000,0,0.00000E+000,2.81807E-001
1256,1565,1.87147E+000,5.87919E+000,3.82683E-003,0.00000E+000,0.00000E+000,0.00000E+000,0.00000E+000,0.00000E+000,0.00000E+000,0.00000E+000,0.00000E+000,0.00000E+000,0.00000E+000,0.00000E+000,0,0.00000E+000,2.81807E-001
1106,1700,-9.39725E-001,8.41985E+000,-5.39239E-003,0.00000E+000,0.00000E+000,0.00000E+000,0.00000E+000,0.00000E+000,0.00000E+000,0.00000E+000,0.00000E+000,0.00000E+000,0.00000E+000,0.00000E+000,0,0.00000E+000,2.81807E-001
1121,1745,-6.47950E-001,9.26927E+000,-4.23192E-003,0.00000E+000,0.00000E+000,0.00000E+000,0.00000E+000,0.00000E+000,0.00000E+000,0.00000E+000,0.00000E+000,0.00000E+000,0.00000E+000,0.00000E+000,0,0.00000E+000,2.81807E-001
1241,1595,1.59316E+000,6.44444E+000,9.70142E-004,0.00000E+000,0.00000E+000,0.00000E+000,0.00000E+000,0.00000E+000,0.00000E+000,0.00000E+000,0.00000E+000,0.00000E+000,0.00000E+000,0.00000E+000,0,0.00000E+000,2.81807E-001
1076,1640,-1.51705E+000,7.28678E+000,-3.11655E-003,0.00000E+000,0.00000E+000,0.00000E+000,0.00000E+000,0.00000E+000,0.00000E+000,0.00000E+000,0.00000E+000,0.00000E+000,0.00000E+000,0.00000E+000,0,0.00000E+000,2.81807E-001
1241,860,1.45488E+000,-7.39742E+000,-6.08908E-004,0.00000E+000,0.00000E+000,0.00000E+000,0.00000E+000,0.00000E+000,0.00000E+000,0.00000E+000,0.00000E+000,0.00000E+000,0.00000E+000,0.00000E+000,0,0.00000E+000,2.81807E-001
1256,1580,1.87429E+000,6.16213E+000,3.66103E-003,0.00000E+000,0.00000E+000,0.00000E+000,0.00000E+000,0.00000E+000,0.00000E+000,0.00000E+000,0.00000E+000,0.00000E+000,0.00000E+000,0.00000E+000,0,0.00000E+000,2.81807E-001
1091,1130,-1.32345E+000,-2.31582E+000,1.91064E-002,0.00000E+000,0.00000E+000,0.00000E+000,0.00000E+000,0.00000E+000,0.00000E+000,0.00000E+000,0.00000E+000,0.00000E+000,0.00000E+000,0.00000E+000,0,0.00000E+000,2.81807E-001
1136,1550,-3.99803E-001,5.59207E+000,-3.59608E-004,0.00000E+000,0.00000E+000,0.00000E+000,0.00000E+000,0.00000E+000,0.00000E+000,0.00000E+000,0.00000E+000,0.00000E+000,0.00000E+000,0.00000E+000,0,0.00000E+000,2.81807E-001
1241,1730,1.61792E+000,8.99157E+000,-4.81092E-003,0.00000E+000,0.00000E+000,0.00000E+000,0.00000E+000,0.00000E+000,0.00000E+000,0.00000E+000,0.00000E+000,0.00000E+000,0.00000E+000,0.00000E+000,0,0.00000E+000,2.81807E-001
1256,1775,1.91063E+000,9.84241E+000,-9.89927E-004,0.00000E+000,0.00000E+000,0.00000E+000,0.00000E+000,0.00000E+000,0.00000E+000,0.00000E+000,0.00000E+000,0.00000E+000,0.00000E+000,0.00000E+000,0,0.00000E+000,2.81807E-001
1256,1595,1.87688E+000,6.44479E+000,1.63742E-003,0.00000E+000,0.00000E+000,0.00000E+000,0.00000E+000,0.00000E+000,0.00000E+000,0.00000E+000,0.00000E+000,0.00000E+000,0.00000E+000,0.00000E+000,0,0.00000E+000,2.81807E-001
1286,1790,2.48090E+000,1.01271E+001,-2.78059E-003,0.00000E+000,0.00000E+000,0.00000E+000,0.00000E+000,0.00000E+000,0.00000E+000,0.00000E+000,0.00000E+000,0.00000E+000,0.00000E+000,0.00000E+000,0,0.00000E+000,2.81807E-001
1271,1775,2.19434E+000,9.84309E+000,-1.69126E-003,0.00000E+000,0.00000E+000,0.00000E+000,0.00000E+000,0.00000E+000,0.00000E+000,0.00000E+000,0.00000E+000,0.00000E+000,0.00000E+000,0.00000E+000,0,0.00000E+000,2.81807E-001
1151,1550,-1.16219E-001,5.59282E+000,1.37805E-003,0.00000E+000,0.00000E+000,0.00000E+000,0.00000E+000,0.00000E+000,0.00000E+000,0.00000E+000,0.00000E+000,0.00000E+000,0.00000E+000,0.00000E+000,0,0.00000E+000,2.81807E-001
1181,665,2.86568E-001,-1.10585E+001,-3.21517E-003,0.00000E+000,0.00000E+000,0.00000E+000,0.00000E+000,0.00000E+000,0.00000E+000,0.00000E+000,0.00000E+000,0.00000E+000,0.00000E+000,0.00000E+000,0,0.00000E+000,2.81807E-001
1166,1550,1.66911E-001,5.59323E+000,-1.02705E-003,0.00000E+000,0.00000E+000,0.00000E+000,0.00000E+000,0.00000E+000,0.00000E+000,0.00000E+000,0.00000E+000,0.00000E+000,0.00000E+000,0.00000E+000,0,0.00000E+000,2.81807E-001
1136,1745,-3.64259E-001,9.27014E+000,-2.44563E-003,0.00000E+000,0.00000E+000,0.00000E+000,0.00000E+000,0.00000E+000,0.00000E+000,0.00000E+000,0.00000E+000,0.00000E+000,0.00000E+000,0.00000E+000,0,0.00000E+000,2.81807E-001
1286,1775,2.47814E+000,9.84373E+000,-1.94999E-003,0.00000E+000,0.00000E+000,0.00000E+000,0.00000E+000,0.00000E+000,0.00000E+000,0.00000E+000,0.00000E+000,0.00000E+000,0.00000E+000,0.00000E+000,0,0.00000E+000,2.81807E-001
1091,1145,-1.32034E+000,-2.03425E+000,2.27729E-002,0.00000E+000,0.00000E+000,0.00000E+000,0.00000E+000,0.00000E+000,0.00000E+000,0.00000E+000,0.00000E+000,0.00000E+000,0.00000E+000,0.00000E+000,0,0.00000E+000,2.81807E-001
1256,1730,1.90172E+000,8.99205E+000,-4.18002E-003,0.00000E+000,0.00000E+000,0.00000E+000,0.00000E+000,0.00000E+000,0.00000E+000,0.00000E+000,0.00000E+000,0.00000E+000,0.00000E+000,0.00000E+000,0,0.00000E+000,2.81807E-001
1121,1700,-6.56310E-001,8.42039E+000,-5.39510E-003,0.00000E+000,0.00000E+000,0.00000E+000,0.00000E+000,0.00000E+000,0.00000E+000,0.00000E+000,0.00000E+000,0.00000E+000,0.00000E+000,0.00000E+000,0,0.00000E+000,2.81807E-001
1241,1790,1.62976E+000,1.01252E+001,-4.73171E-004,0.00000E+000,0.00000E+000,0.00000E+000,0.00000E+000,0.00000E+000,0.00000E+000,0.00000E+000,0.00000E+000,0.00000E+000,0.00000E+000,0.00000E+000,0,0.00000E+000,2.81807E-001
1181,1550,4.50247E-001,5.59334E+000,-1.88865E-003,0.00000E+000,0.00000E+000,0.00000E+000,0.00000E+000,0.00000E+000,0.00000E+000,0.00000E+000,0.00000E+000,0.00000E+000,0.00000E+000,0.00000E+000,0,0.00000E+000,2.81807E-001
1091,1640,-1.23351E+000,7.28745E+000,-1.12217E-003,0.00000E+000,0.00000E+000,0.00000E+000,0.00000E+000,0.00000E+000,0.00000E+000,0.00000E+000,0.00000E+000,0.00000E+000,0.00000E+000,0.00000E+000,0,0.00000E+000,2.81807E-001
1196,1580,7.40004E-001,6.16037E+000,3.92401E-003,0.00000E+000,0.00000E+000,0.00000E+000,0.00000E+000,0.00000E+000,0.00000E+000,0.00000E+000,0.00000E+000,0.00000E+000,0.00000E+000,0.00000E+000,0,0.00000E+000,2.81807E-001
1196,665,5.69397E-001,-1.10595E+001,-3.17139E-003,0.00000E+000,0.00000E+000,0.00000E+000,0.00000E+000,0.00000E+000,0.00000E+000,0.00000E+000,0.00000E+000,0.00000E+000,0.00000E+000,0.00000E+000,0,0.00000E+000,2.81807E-001
1076,1670,-1.51203E+000,7.85210E+000,-6.56081E-003,0.00000E+000,0.00000E+000,0.00000E+000,0.00000E+000,0.00000E+000,0.00000E+000,0.00000E+000,0.00000E+000,0.00000E+000,0.00000E+000,0.00000E+000,0,0.00000E+000,2.81807E-001
1091,860,-1.37470E+000,-7.39418E+000,-3.23407E-003,0.00000E+000,0.00000E+000,0.00000E+000,0.00000E+000,0.00000E+000,0.00000E+000,0.00000E+000,0.00000E+000,0.00000E+000,0.00000E+000,0.00000E+000,0,0.00000E+000,2.81807E-001
1196,1025,6.36892E-001,-4.29355E+000,4.20590E-003,0.00000E+000,0.00000E+000,0.00000E+000,0.00000E+000,0.00000E+000,0.00000E+000,0.00000E+000,0.00000E+000,0.00000E+000,0.00000E+000,0.00000E+000,0,0.00000E+000,2.81807E-001
1241,1775,1.62695E+000,9.84161E+000,-2.69450E-004,0.00000E+000,0.00000E+000,0.00000E+000,0.00000E+000,0.00000E+000,0.00000E+000,0.00000E+000,0.00000E+000,0.00000E+000,0.00000E+000,0.00000E+000,0,0.00000E+000,2.81807E-001
1166,1730,1.99729E-001,8.98799E+000,-4.94723E-003,0.00000E+000,0.00000E+000,0.00000E+000,0.00000E+000,0.00000E+000,0.00000E+000,0.00000E+000,0.00000E+000,0.00000E+000,0.00000E+000,0.00000E+000,0,0.00000E+000,2.81807E-001
1136,1700,-3.73073E-001,8.42076E+000,-7.19052E-003,0.00000E+000,0.00000E+000,0.00000E+000,0.00000E+000,0.00000E+000,0.00000E+000,0.00000E+000,0.00000E+000,0.00000E+000,0.00000E+000,0.00000E+000,0,0.00000E+000,2.81807E-001
1151,1745,-8.05831E-002,9.27079E+000,-1.04548E-003,0.00000E+000,0.00000E+000,0.00000E+000,0.00000E+000,0.00000E+000,0.00000E+000,0.00000E+000,0.00000E+000,0.00000E+000,0.00000E+000,0.00000E+000,0,0.00000E+000,2.81807E-001
1256,1790,1.91374E+000,1.01261E+001,1.26757E-003,0.00000E+000,0.00000E+000,0.00000E+000,0.00000E+000,0.00000E+000,0.00000E+000,0.00000E+000,0.00000E+000,0.00000E+000,0.00000E+000,0.00000E+000,0,0.00000E+000,2.81807E-001
1106,1640,-9.49943E-001,7.28788E+000,8.53691E-004,0.00000E+000,0.00000E+000,0.00000E+000,0.00000E+000,0.00000E+000,0.00000E+000,0.00000E+000,0.00000E+000,0.00000E+000,0.00000E+000,0.00000E+000,0,0.00000E+000,2.81807E-001
1106,1775,-9.25660E-001,9.83495E+000,-1.88577E-003,0.00000E+000,0.00000E+000,0.00000E+000,0.00000E+000,0.00000E+000,0.00000E+000,0.00000E+000,0.00000E+000,0.00000E+000,0.00000E+000,0.00000E+000,0,0.00000E+000,2.81807E-001
1106,1595,-9.58445E-001,6.43941E+000,-1.86918E-003,0.00000E+000,0.00000E+000,0.00000E+000,0.00000E+000,0.00000E+000,0.00000E+000,0.00000E+000,0.00000E+000,0.00000E+000,0.00000E+000,0.00000E+000,0,0.00000E+000,2.81807E-001
1121,1580,-6.77737E-001,6.15703E+000,-9.34071E-004,0.00000E+000,0.00000E+000,0.00000E+000,0.00000E+000,0.00000E+000,0.00000E+000,0.00000E+000,0.00000E+000,0.00000E+000,0.00000E+000,0.00000E+000,0,0.00000E+000,2.81807E-001
1106,860,-1.09202E+000,-7.39416E+000,-4.18147E-003,0.00000E+000,0.00000E+000,0.00000E+000,0.00000E+000,0.00000E+000,0.00000E+000,0.00000E+000,0.00000E+000,0.00000E+000,0.00000E+000,0.00000E+000,0,0.00000E+000,2.81807E-001
1121,1775,-6.42156E-001,9.83594E+000,-1.64190E-003,0.00000E+000,0.00000E+000,0.00000E+000,0.00000E+000,0.00000E+000,0.00000E+000,0.00000E+000,0.00000E+000,0.00000E+000,0.00000E+000,0.00000E+000,0,0.00000E+000,2.81807E-001
1256,1760,1.90749E+000,9.55904E+000,-3.49333E-003,0.00000E+000,0.00000E+000,0.00000E+000,0.00000E+000,0.00000E+000,0.00000E+000,0.00000E+000,0.00000E+000,0.00000E+000,0.00000E+000,0.00000E+000,0,0.00000E+000,2.81807E-001
1121,1790,-6.39649E-001,1.01185E+001,-3.62987E-003,0.00000E+000,0.00000E+000,0.00000E+000,0.00000E+000,0.00000E+000,0.00000E+000,0.00000E+000,0.00000E+000,0.00000E+000,0.00000E+000,0.00000E+000,0,0.00000E+000,2.81807E-001
1061,1640,-1.80000E+000,7.28642E+000,-2.54774E-004,0.00000E+000,0.00000E+000,0.00000E+000,0.00000E+000,0.00000E+000,0.00000E+000,0.00000E+000,0.00000E+000,0.00000E+000,0.00000E+000,0.00000E+000,0,0.00000E+000,2.81807E-001
1136,1775,-3.58687E-001,9.83677E+000,-1.96484E-003,0.00000E+000,0.00000E+000,0.00000E+000,0.00000E+000,0.00000E+000,0.00000E+000,0.00000E+000,0.00000E+000,0.00000E+000,0.00000E+000,0.00000E+000,0,0.00000E+000,2.81807E-001
1121,860,-8.08776E-001,-7.39449E+000,-4.46837E-004,0.00000E+000,0.00000E+000,0.00000E+000,0.00000E+000,0.00000E+000,0.00000E+000,0.00000E+000,0.00000E+000,0.00000E+000,0.00000E+000,0.00000E+000,0,0.00000E+000,2.81807E-001
1271,1760,2.19157E+000,9.56002E+000,-1.06357E-003,0.00000E+000,0.00000E+000,0.00000E+000,0.00000E+000,0.00000E+000,0.00000E+000,0.00000E+000,0.00000E+000,0.00000E+000,0.00000E+000,0.00000E+000,0,0.00000E+000,2.81807E-001
1181,1775,4.92547E-001,9.83934E+000,2.49284E-003,0.00000E+000,0.00000E+000,0.00000E+000,0.00000E+000,0.00000E+000,0.00000E+000,0.00000E+000,0.00000E+000,0.00000E+000,0.00000E+000,0.00000E+000,0,0.00000E+000,2.81807E-001
1136,1790,-3.56070E-001,1.01194E+001,-3.08272E-003,0.00000E+000,0.00000E+000,0.00000E+000,0.00000E+000,0.00000E+000,0.00000E+000,0.00000E+000,0.00000E+000,0.00000E+000,0.00000E+000,0.00000E+000,0,0.00000E+000,2.81807E-001
1121,1655,-6.63825E-001,7.57157E+000,8.14706E-004,0.00000E+000,0.00000E+000,0.00000E+000,0.00000E+000,0.00000E+000,0.00000E+000,0.00000E+000,0.00000E+000,0.00000E+000,0.00000E+000,0.00000E+000,0,0.00000E+000,2.81807E-001
1196,1775,7.75789E-001,9.83993E+000,-8.59104E-004,0.00000E+000,0.00000E+000,0.00000E+000,0.00000E+000,0.00000E+000,0.00000E+000,0.00000E+000,0.00000E+000,0.00000E+000,0.00000E+000,0.00000E+000,0,0.00000E+000,2.81807E-001
1136,1655,-3.80549E-001,7.57226E+000,-4.55986E-004,0.00000E+000,0.00000E+000,0.00000E+000,0.00000E+000,0.00000E+000,0.00000E+000,0.00000E+000,0.00000E+000,0.00000E+000,0.00000E+000,0.00000E+000,0,0.00000E+000,2.81807E-001
1151,1790,-7.27870E-002,1.01200E+001,-5.34120E-003,0.00000E+000,0.00000E+000,0.00000E+000,0.00000E+000,0.00000E+000,0.00000E+000,0.00000E+000,0.00000E+000,0.00000E+000,0.00000E+000,0.00000E+000,0,0.00000E+000,2.81807E-001
1226,1790,1.34634E+000,1.01248E+001,2.19854E-003,0.00000E+000,0.00000E+000,0.00000E+000,0.00000E+000,0.00000E+000,0.00000E+000,0.00000E+000,0.00000E+000,0.00000E+000,0.00000E+000,0.00000E+000,0,0.00000E+000,2.81807E-001
1106,1790,-9.23226E-001,1.01176E+001,-4.43233E-003,0.00000E+000,0.00000E+000,0.00000E+000,0.00000E+000,0.00000E+000,0.00000E+000,0.00000E+000,0.00000E+000,0.00000E+000,0.00000E+000,0.00000E+000,0,0.00000E+000,2.81807E-001
1166,1790,2.10853E-001,1.01210E+001,-4.84642E-003,0.00000E+000,0.00000E+000,0.00000E+000,0.00000E+000,0.00000E+000,0.00000E+000,0.00000E+000,0.00000E+000,0.00000E+000,0.00000E+000,0.00000E+000,0,0.00000E+000,2.81807E-001
1211,1790,1.06240E+000,1.01238E+001,3.23402E-004,0.00000E+000,0.00000E+000,0.00000E+000,0.00000E+000,0.00000E+000,0.00000E+000,0.00000E+000,0.00000E+000,0.00000E+000,0.00000E+000,0.00000E+000,0,0.00000E+000,2.81807E-001
1196,1790,7.78340E-001,1.01227E+001,-2.90375E-003,0.00000E+000,0.00000E+000,0.00000E+000,0.00000E+000,0.00000E+000,0.00000E+000,0.00000E+000,0.00000E+000,0.00000E+000,0.00000E+000,0.00000E+000,0,0.00000E+000,2.81807E-001
